     9
 Wannier centres, written by Wannier90 on 2Apr2026 at 10:18:32 
X          0.00000000      -0.00000000       0.00000000
X          0.01265809      -0.00001978      -0.00000619
X          0.00000712       0.01265973      -0.00000206
X         -0.00000237      -0.00000807       0.01263702
X         -2.84718452      -2.84718313      -2.84718360
X         -2.84718360      -2.84718477      -2.84718419
X         -2.84718372      -2.84718360      -2.84718533
Na         0.00000000       0.00000000       0.00000000
Cl         2.84718360       2.84718360       2.84718360
