 vasp.6.4.2 20Jul23 (build May 01 2025 16:49:15) complex                        
  
 executed on             LinuxIFC date 2026.09.27  16:27:00
 running   12 mpi-ranks, with    1 threads/rank, on    1 nodes
 distrk:  each k-point on   12 cores,    1 groups
 distr:  one band on NCORE=   1 cores,   12 groups


--------------------------------------------------------------------------------------------------------


 INCAR:
   ENCUT = 550        (Cut-off energy for plane wave basis set, in eV)
   PREC = Accurate      (Accurate strictly avoids any aliasing or wrap around errors)
   ISMEAR = 0            (gaussian smearing method)
   SIGMA = 0.05         (please check the width of the smearing)
   LORBIT = 11           (PAW radii for projected DOS)
   NELM = 200           (Max electronic SCF steps)
   EDIFF = 1E-08        (SCF energy convergence, in eV)
   LWANNIER90 = .TRUE.
   LWRITE_MMN_AMN = .TRUE.
   LWRITE_WANPROJ = .TRUE.
   LWRITE_UNK = .TRUE.
   NUM_WANN = 8
   WANNIER90_WIN = \"\
FERMI_ENERGY \= 5.9499\
\#LWRITE_UNK \= .TRUE.\
DIS_FROZ_MIN \= -10\
DIS_FROZ_MAX \= 6\
DIS_WIN_MIN \= -15\
DIS_WIN_MAX \= 15\
NUM_ITER \= 0\
DIS_NUM_ITER \= 1000\
WRITE_HR \= TRUE\
begin projections\
Ge:s,p\
Te:s,p\
end projections\
\"
   NBANDS = 30

 POTCAR:    PAW_PBE Ge_d 03Jul2007                
 POTCAR:    PAW_PBE Te 08Apr2002                  
 POTCAR:    PAW_PBE Ge_d 03Jul2007                
   SHA256 =  944b26c40d2d7c4f4eb1ff3a2e8dbfdd7129146276cd341854bfd5c0e57780ed Ge_d/POTCAR           
   COPYR  = (c) Copyright 03Jul2007 Georg Kresse                                                    
   COPYR  = This file is part of the software VASP. Any use, copying, and all other rights are regul
   COPYR  = If you do not have a valid VASP license, you may not use, copy or distribute this file. 
   VRHFIN =Ge: 3d4s4p                                                                               
   LEXCH  = PE                                                                                      
   EATOM  =  2596.2402 eV,  190.8183 Ry                                                             
                                                                                                    
   TITEL  = PAW_PBE Ge_d 03Jul2007                                                                  
   LULTRA =        F    use ultrasoft PP ?                                                          
   IUNSCR =        1    unscreen: 0-lin 1-nonlin 2-no                                               
   RPACOR =    2.000    partial core radius                                                         
   POMASS =   72.610; ZVAL   =   14.000    mass and valenz                                          
   RCORE  =    2.300    outmost cutoff radius                                                       
   RWIGS  =    2.300; RWIGS  =    1.217    wigner-seitz radius (au A)                               
   ENMAX  =  310.294; ENMIN  =  232.720 eV                                                          
   ICORE  =        3    local potential                                                             
   LCOR   =        T    correct aug charges                                                         
   LPAW   =        T    paw PP                                                                      
   EAUG   =  531.356                                                                                
   DEXC   =    0.000                                                                                
   RMAX   =    2.342    core radius for proj-oper                                                   
   RAUG   =    1.300    factor for augmentation sphere                                              
   RDEP   =    2.318    radius for radial grids                                                     
   RDEPT  =    1.783    core radius for aug-charge                                                  
                                                                                                    
   Atomic configuration                                                                             
    9 entries                                                                                       
     n  l   j            E        occ.                                                              
     1  0  0.50    -10959.8463   2.0000                                                             
     2  0  0.50     -1371.6056   2.0000                                                             
     2  1  1.50     -1198.4791   6.0000                                                             
     3  0  0.50      -168.4733   2.0000                                                             
     3  1  1.50      -115.6019   6.0000                                                             
     3  2  2.50       -29.3106  10.0000                                                             
     4  0  0.50       -11.7309   2.0000                                                             
     4  1  0.50        -3.8952   2.0000                                                             
     4  3  2.50        -4.0817   0.0000                                                             
   Description                                                                                      
     l       E           TYP  RCUT    TYP  RCUT                                                     
     2    -29.3105938     23  2.200                                                                 
     2    -13.6058260     23  2.200                                                                 
     0    -11.7309493     23  2.300                                                                 
     0     -7.4578696     23  2.300                                                                 
     1     -3.8952261     23  2.300                                                                 
     1      6.1178114     23  2.300                                                                 
     3     -1.3605826     23  2.300                                                                 
  local pseudopotential read in
  partial core-charges read in
  partial kinetic energy density read in
  atomic valenz-charges read in
  non local Contribution for L=           2  read in
    real space projection operators read in
  non local Contribution for L=           2  read in
    real space projection operators read in
  non local Contribution for L=           0  read in
    real space projection operators read in
  non local Contribution for L=           0  read in
    real space projection operators read in
  non local Contribution for L=           1  read in
    real space projection operators read in
  non local Contribution for L=           1  read in
    real space projection operators read in
    PAW grid and wavefunctions read in
 
   number of l-projection  operators is LMAX  =           6
   number of lm-projection operators is LMMAX =          18
 
 POTCAR:    PAW_PBE Te 08Apr2002                  
   SHA256 =  e13b0861f25acb1fe6cdc17458a3647985498b67a429eb77ddc1eac05a1775b1 Te/POTCAR             
   COPYR  = (c) Copyright 08Apr2002 Georg Kresse                                                    
   COPYR  = This file is part of the software VASP. Any use, copying, and all other rights are regul
   COPYR  = If you do not have a valid VASP license, you may not use, copy or distribute this file. 
   VRHFIN =Te: s2p4                                                                                 
   LEXCH  = PE                                                                                      
   EATOM  =   223.2721 eV,   16.4100 Ry                                                             
                                                                                                    
   TITEL  = PAW_PBE Te 08Apr2002                                                                    
   LULTRA =        F    use ultrasoft PP ?                                                          
   IUNSCR =        1    unscreen: 0-lin 1-nonlin 2-no                                               
   RPACOR =    2.200    partial core radius                                                         
   POMASS =  127.600; ZVAL   =    6.000    mass and valenz                                          
   RCORE  =    2.300    outmost cutoff radius                                                       
   RWIGS  =    2.900; RWIGS  =    1.535    wigner-seitz radius (au A)                               
   ENMAX  =  174.982; ENMIN  =  131.236 eV                                                          
   ICORE  =        3    local potential                                                             
   LCOR   =        T    correct aug charges                                                         
   LPAW   =        T    paw PP                                                                      
   EAUG   =  368.792                                                                                
   DEXC   =    0.000                                                                                
   RMAX   =    2.345    core radius for proj-oper                                                   
   RAUG   =    1.300    factor for augmentation sphere                                              
   RDEP   =    2.397    radius for radial grids                                                     
   RDEPT  =    2.174    core radius for aug-charge                                                  
                                                                                                    
   Atomic configuration                                                                             
   13 entries                                                                                       
     n  l   j            E        occ.                                                              
     1  0  0.50    -31621.2075   2.0000                                                             
     2  0  0.50     -4848.7941   2.0000                                                             
     2  1  1.50     -4352.1960   6.0000                                                             
     3  0  0.50      -964.9612   2.0000                                                             
     3  1  1.50      -803.6179   6.0000                                                             
     3  2  2.50      -559.8710  10.0000                                                             
     4  0  0.50      -164.3522   2.0000                                                             
     4  1  1.50      -114.3756   6.0000                                                             
     4  2  2.50       -41.6483  10.0000                                                             
     5  0  0.50       -15.1072   2.0000                                                             
     5  1  0.50        -5.9526   4.0000                                                             
     5  2  1.50        -5.4423   0.0000                                                             
     4  3  2.50        -5.4423   0.0000                                                             
   Description                                                                                      
     l       E           TYP  RCUT    TYP  RCUT                                                     
     0    -15.1072389     23  2.300                                                                 
     0    -16.4678215     23  2.300                                                                 
     1     -5.9526306     23  2.300                                                                 
     1     -2.4873968     23  2.300                                                                 
     2     -5.4423304     23  2.300                                                                 
     3     -1.3605826     23  2.300                                                                 
  local pseudopotential read in
  partial core-charges read in
  partial kinetic energy density read in
  atomic valenz-charges read in
  non local Contribution for L=           0  read in
    real space projection operators read in
  non local Contribution for L=           0  read in
    real space projection operators read in
  non local Contribution for L=           1  read in
    real space projection operators read in
  non local Contribution for L=           1  read in
    real space projection operators read in
  non local Contribution for L=           2  read in
    real space projection operators read in
    PAW grid and wavefunctions read in
 
   number of l-projection  operators is LMAX  =           5
   number of lm-projection operators is LMMAX =          13
 
  PAW_PBE Ge_d 03Jul2007                :
 energy of atom  1       EATOM=-2596.2402
 kinetic energy error for atom=    0.0026 (will be added to EATOM!!)
  PAW_PBE Te 08Apr2002                  :
 energy of atom  2       EATOM= -223.2721
 kinetic energy error for atom=    0.0006 (will be added to EATOM!!)
 
 
 POSCAR: Generated by VASPKIT code
  positions in direct lattice
  velocities in cartesian coordinates
 exchange correlation table for  LEXCH =        8
   RHO(1)=    0.500       N(1)  =     2000
   RHO(2)=  100.500       N(2)  =     4000
 


--------------------------------------------------------------------------------------------------------


 ion  position               nearest neighbor table
   1  0.995  0.995  0.995-   2 2.84   2 2.84   2 2.84   2 3.26   2 3.26   2 3.26
   2  0.526  0.526  0.526-   1 2.84   1 2.84   1 2.84   1 3.26   1 3.26   1 3.26
 
  LATTYP: Found a trigonal (rhomboedric) cell.
 ALAT       =     4.4027757358
 COS(alpha) =     0.5473788350
  
  Lattice vectors:
  
 A1 = (   2.0944933972,   1.2092563267,   3.6790257848)
 A2 = (  -2.0944933972,   1.2092563267,   3.6790257848)
 A3 = (   0.0000000000,  -2.4185126534,   3.6790257848)


Analysis of symmetry for initial positions (statically):
=====================================================================
 Subroutine PRICEL returns:
 Original cell was already a primitive cell.
 

 Routine SETGRP: Setting up the symmetry group for a 
 trigonal (rhombohedral) supercell.


 Subroutine GETGRP returns: Found  6 space group operations
 (whereof  6 operations were pure point group operations)
 out of a pool of 12 trial point group operations.


The static configuration has the point symmetry C_3v.


Analysis of symmetry for dynamics (positions and initial velocities):
=====================================================================
 Subroutine PRICEL returns:
 Original cell was already a primitive cell.
 

 Routine SETGRP: Setting up the symmetry group for a 
 trigonal (rhombohedral) supercell.


 Subroutine GETGRP returns: Found  6 space group operations
 (whereof  6 operations were pure point group operations)
 out of a pool of 12 trial point group operations.


The dynamic configuration has the point symmetry C_3v.


 Subroutine INISYM returns: Found  6 space group operations
 (whereof  6 operations are pure point group operations),
 and found     1 'primitive' translations


----------------------------------------------------------------------------------------

                                     Primitive cell                                     

  volume of cell :      55.9090

  direct lattice vectors                    reciprocal lattice vectors
     2.094493397  1.209256327  3.679025785     0.238721211  0.137825755  0.090603696
    -2.094493397  1.209256327  3.679025785    -0.238721211  0.137825755  0.090603696
     0.000000000 -2.418512653  3.679025785     0.000000000 -0.275651511  0.090603696

  length of vectors
     4.402775736  4.402775736  4.402775736     0.290159930  0.290159930  0.290159930

  position of ions in fractional coordinates (direct lattice)
     0.994741925  0.994741925  0.994741925
     0.526258075  0.526258075  0.526258075

  ion indices of the primitive-cell ions
   primitive index   ion index
                 1           1
                 2           2

----------------------------------------------------------------------------------------

 
 
 KPOINTS: K-Spacing Value to Generate K-Mesh: 0.02

Automatic generation of k-mesh.
 Grid dimensions read from file:
 generate k-points for:   15   15   15

 Generating k-lattice:

  Cartesian coordinates                     Fractional coordinates (reciprocal lattice)
     0.015914747  0.009188384  0.006040246     0.066666667  0.000000000 -0.000000000
    -0.015914747  0.009188384  0.006040246     0.000000000  0.066666667 -0.000000000
     0.000000000 -0.018376767  0.006040246    -0.000000000 -0.000000000  0.066666667

  Length of vectors
     0.019343995  0.019343995  0.019343995

  Shift w.r.t. Gamma in fractional coordinates (k-lattice)
     0.000000000  0.000000000  0.000000000

 
 Subroutine IBZKPT returns following result:
 ===========================================
 
 Found    344 irreducible k-points:
 
 Following reciprocal coordinates:
            Coordinates               Weight
  0.000000  0.000000  0.000000      1.000000
  0.066667  0.000000  0.000000      6.000000
  0.133333  0.000000  0.000000      6.000000
  0.200000  0.000000  0.000000      6.000000
  0.266667  0.000000  0.000000      6.000000
  0.333333  0.000000  0.000000      6.000000
  0.400000  0.000000  0.000000      6.000000
  0.466667  0.000000  0.000000      6.000000
  0.066667  0.066667  0.000000      6.000000
  0.133333  0.066667  0.000000     12.000000
  0.200000  0.066667  0.000000     12.000000
  0.266667  0.066667  0.000000     12.000000
  0.333333  0.066667  0.000000     12.000000
  0.400000  0.066667  0.000000     12.000000
  0.466667  0.066667  0.000000     12.000000
 -0.466667  0.066667  0.000000     12.000000
 -0.400000  0.066667  0.000000     12.000000
 -0.333333  0.066667  0.000000     12.000000
 -0.266667  0.066667  0.000000     12.000000
 -0.200000  0.066667  0.000000     12.000000
 -0.133333  0.066667  0.000000     12.000000
 -0.066667  0.066667  0.000000      6.000000
  0.133333  0.133333  0.000000      6.000000
  0.200000  0.133333  0.000000     12.000000
  0.266667  0.133333  0.000000     12.000000
  0.333333  0.133333  0.000000     12.000000
  0.400000  0.133333  0.000000     12.000000
  0.466667  0.133333  0.000000     12.000000
 -0.466667  0.133333  0.000000     12.000000
 -0.400000  0.133333  0.000000     12.000000
 -0.333333  0.133333  0.000000     12.000000
 -0.266667  0.133333  0.000000     12.000000
 -0.200000  0.133333  0.000000     12.000000
 -0.133333  0.133333  0.000000      6.000000
  0.200000  0.200000  0.000000      6.000000
  0.266667  0.200000  0.000000     12.000000
  0.333333  0.200000  0.000000     12.000000
  0.400000  0.200000  0.000000     12.000000
  0.466667  0.200000  0.000000     12.000000
 -0.466667  0.200000  0.000000     12.000000
 -0.400000  0.200000  0.000000     12.000000
 -0.333333  0.200000  0.000000     12.000000
 -0.266667  0.200000  0.000000     12.000000
 -0.200000  0.200000  0.000000      6.000000
  0.266667  0.266667  0.000000      6.000000
  0.333333  0.266667  0.000000     12.000000
  0.400000  0.266667  0.000000     12.000000
  0.466667  0.266667  0.000000     12.000000
 -0.466667  0.266667  0.000000     12.000000
 -0.400000  0.266667  0.000000     12.000000
 -0.333333  0.266667  0.000000     12.000000
 -0.266667  0.266667  0.000000      6.000000
  0.333333  0.333333  0.000000      6.000000
  0.400000  0.333333  0.000000     12.000000
  0.466667  0.333333  0.000000     12.000000
 -0.466667  0.333333  0.000000     12.000000
 -0.400000  0.333333  0.000000     12.000000
 -0.333333  0.333333  0.000000      6.000000
  0.400000  0.400000  0.000000      6.000000
  0.466667  0.400000  0.000000     12.000000
 -0.466667  0.400000  0.000000     12.000000
 -0.400000  0.400000  0.000000      6.000000
  0.466667  0.466667  0.000000      6.000000
 -0.466667  0.466667  0.000000      6.000000
  0.066667  0.066667  0.066667      2.000000
  0.133333  0.066667  0.066667      6.000000
  0.200000  0.066667  0.066667      6.000000
  0.266667  0.066667  0.066667      6.000000
  0.333333  0.066667  0.066667      6.000000
  0.400000  0.066667  0.066667      6.000000
  0.466667  0.066667  0.066667      6.000000
 -0.466667  0.066667  0.066667      6.000000
 -0.400000  0.066667  0.066667      6.000000
 -0.333333  0.066667  0.066667      6.000000
 -0.266667  0.066667  0.066667      6.000000
 -0.200000  0.066667  0.066667      6.000000
 -0.133333  0.066667  0.066667      6.000000
 -0.066667  0.066667  0.066667      6.000000
  0.133333  0.133333  0.066667      6.000000
  0.200000  0.133333  0.066667     12.000000
  0.266667  0.133333  0.066667     12.000000
  0.333333  0.133333  0.066667     12.000000
  0.400000  0.133333  0.066667     12.000000
  0.466667  0.133333  0.066667     12.000000
 -0.466667  0.133333  0.066667     12.000000
 -0.400000  0.133333  0.066667     12.000000
 -0.333333  0.133333  0.066667     12.000000
 -0.266667  0.133333  0.066667     12.000000
 -0.200000  0.133333  0.066667     12.000000
 -0.133333  0.133333  0.066667     12.000000
 -0.066667  0.133333  0.066667     12.000000
  0.200000  0.200000  0.066667      6.000000
  0.266667  0.200000  0.066667     12.000000
  0.333333  0.200000  0.066667     12.000000
  0.400000  0.200000  0.066667     12.000000
  0.466667  0.200000  0.066667     12.000000
 -0.466667  0.200000  0.066667     12.000000
 -0.400000  0.200000  0.066667     12.000000
 -0.333333  0.200000  0.066667     12.000000
 -0.266667  0.200000  0.066667     12.000000
 -0.200000  0.200000  0.066667     12.000000
 -0.133333  0.200000  0.066667     12.000000
 -0.066667  0.200000  0.066667     12.000000
  0.266667  0.266667  0.066667      6.000000
  0.333333  0.266667  0.066667     12.000000
  0.400000  0.266667  0.066667     12.000000
  0.466667  0.266667  0.066667     12.000000
 -0.466667  0.266667  0.066667     12.000000
 -0.400000  0.266667  0.066667     12.000000
 -0.333333  0.266667  0.066667     12.000000
 -0.266667  0.266667  0.066667     12.000000
 -0.200000  0.266667  0.066667     12.000000
 -0.133333  0.266667  0.066667     12.000000
 -0.066667  0.266667  0.066667     12.000000
  0.333333  0.333333  0.066667      6.000000
  0.400000  0.333333  0.066667     12.000000
  0.466667  0.333333  0.066667     12.000000
 -0.466667  0.333333  0.066667     12.000000
 -0.400000  0.333333  0.066667     12.000000
 -0.333333  0.333333  0.066667     12.000000
 -0.266667  0.333333  0.066667     12.000000
 -0.200000  0.333333  0.066667     12.000000
 -0.133333  0.333333  0.066667     12.000000
 -0.066667  0.333333  0.066667     12.000000
  0.400000  0.400000  0.066667      6.000000
  0.466667  0.400000  0.066667     12.000000
 -0.466667  0.400000  0.066667     12.000000
 -0.400000  0.400000  0.066667     12.000000
 -0.333333  0.400000  0.066667     12.000000
 -0.266667  0.400000  0.066667     12.000000
 -0.200000  0.400000  0.066667     12.000000
 -0.133333  0.400000  0.066667     12.000000
 -0.066667  0.400000  0.066667     12.000000
  0.466667  0.466667  0.066667      6.000000
 -0.466667  0.466667  0.066667     12.000000
 -0.400000  0.466667  0.066667     12.000000
 -0.333333  0.466667  0.066667     12.000000
 -0.266667  0.466667  0.066667     12.000000
 -0.200000  0.466667  0.066667     12.000000
 -0.133333  0.466667  0.066667     12.000000
 -0.066667  0.466667  0.066667     12.000000
 -0.466667 -0.466667  0.066667      6.000000
 -0.400000 -0.466667  0.066667     12.000000
 -0.333333 -0.466667  0.066667     12.000000
 -0.266667 -0.466667  0.066667     12.000000
 -0.200000 -0.466667  0.066667     12.000000
 -0.133333 -0.466667  0.066667     12.000000
 -0.400000 -0.400000  0.066667      6.000000
 -0.333333 -0.400000  0.066667     12.000000
 -0.266667 -0.400000  0.066667     12.000000
 -0.200000 -0.400000  0.066667     12.000000
 -0.133333 -0.400000  0.066667     12.000000
 -0.333333 -0.333333  0.066667      6.000000
 -0.266667 -0.333333  0.066667     12.000000
 -0.200000 -0.333333  0.066667     12.000000
 -0.133333 -0.333333  0.066667     12.000000
 -0.266667 -0.266667  0.066667      6.000000
 -0.200000 -0.266667  0.066667     12.000000
 -0.133333 -0.266667  0.066667     12.000000
 -0.200000 -0.200000  0.066667      6.000000
 -0.133333 -0.200000  0.066667     12.000000
 -0.133333 -0.133333  0.066667      6.000000
  0.133333  0.133333  0.133333      2.000000
  0.200000  0.133333  0.133333      6.000000
  0.266667  0.133333  0.133333      6.000000
  0.333333  0.133333  0.133333      6.000000
  0.400000  0.133333  0.133333      6.000000
  0.466667  0.133333  0.133333      6.000000
 -0.466667  0.133333  0.133333      6.000000
 -0.400000  0.133333  0.133333      6.000000
 -0.333333  0.133333  0.133333      6.000000
 -0.266667  0.133333  0.133333      6.000000
 -0.200000  0.133333  0.133333      6.000000
 -0.133333  0.133333  0.133333      6.000000
  0.200000  0.200000  0.133333      6.000000
  0.266667  0.200000  0.133333     12.000000
  0.333333  0.200000  0.133333     12.000000
  0.400000  0.200000  0.133333     12.000000
  0.466667  0.200000  0.133333     12.000000
 -0.466667  0.200000  0.133333     12.000000
 -0.400000  0.200000  0.133333     12.000000
 -0.333333  0.200000  0.133333     12.000000
 -0.266667  0.200000  0.133333     12.000000
 -0.200000  0.200000  0.133333     12.000000
 -0.133333  0.200000  0.133333     12.000000
  0.266667  0.266667  0.133333      6.000000
  0.333333  0.266667  0.133333     12.000000
  0.400000  0.266667  0.133333     12.000000
  0.466667  0.266667  0.133333     12.000000
 -0.466667  0.266667  0.133333     12.000000
 -0.400000  0.266667  0.133333     12.000000
 -0.333333  0.266667  0.133333     12.000000
 -0.266667  0.266667  0.133333     12.000000
 -0.200000  0.266667  0.133333     12.000000
 -0.133333  0.266667  0.133333     12.000000
  0.333333  0.333333  0.133333      6.000000
  0.400000  0.333333  0.133333     12.000000
  0.466667  0.333333  0.133333     12.000000
 -0.466667  0.333333  0.133333     12.000000
 -0.400000  0.333333  0.133333     12.000000
 -0.333333  0.333333  0.133333     12.000000
 -0.266667  0.333333  0.133333     12.000000
 -0.200000  0.333333  0.133333     12.000000
 -0.133333  0.333333  0.133333     12.000000
  0.400000  0.400000  0.133333      6.000000
  0.466667  0.400000  0.133333     12.000000
 -0.466667  0.400000  0.133333     12.000000
 -0.400000  0.400000  0.133333     12.000000
 -0.333333  0.400000  0.133333     12.000000
 -0.266667  0.400000  0.133333     12.000000
 -0.200000  0.400000  0.133333     12.000000
 -0.133333  0.400000  0.133333     12.000000
  0.466667  0.466667  0.133333      6.000000
 -0.466667  0.466667  0.133333     12.000000
 -0.400000  0.466667  0.133333     12.000000
 -0.333333  0.466667  0.133333     12.000000
 -0.266667  0.466667  0.133333     12.000000
 -0.200000  0.466667  0.133333     12.000000
 -0.133333  0.466667  0.133333     12.000000
 -0.466667 -0.466667  0.133333      6.000000
 -0.400000 -0.466667  0.133333     12.000000
 -0.333333 -0.466667  0.133333     12.000000
 -0.266667 -0.466667  0.133333     12.000000
 -0.200000 -0.466667  0.133333     12.000000
 -0.400000 -0.400000  0.133333      6.000000
 -0.333333 -0.400000  0.133333     12.000000
 -0.266667 -0.400000  0.133333     12.000000
 -0.200000 -0.400000  0.133333     12.000000
 -0.333333 -0.333333  0.133333      6.000000
 -0.266667 -0.333333  0.133333     12.000000
 -0.200000 -0.333333  0.133333     12.000000
 -0.266667 -0.266667  0.133333      6.000000
 -0.200000 -0.266667  0.133333     12.000000
 -0.200000 -0.200000  0.133333      6.000000
  0.200000  0.200000  0.200000      2.000000
  0.266667  0.200000  0.200000      6.000000
  0.333333  0.200000  0.200000      6.000000
  0.400000  0.200000  0.200000      6.000000
  0.466667  0.200000  0.200000      6.000000
 -0.466667  0.200000  0.200000      6.000000
 -0.400000  0.200000  0.200000      6.000000
 -0.333333  0.200000  0.200000      6.000000
 -0.266667  0.200000  0.200000      6.000000
 -0.200000  0.200000  0.200000      6.000000
  0.266667  0.266667  0.200000      6.000000
  0.333333  0.266667  0.200000     12.000000
  0.400000  0.266667  0.200000     12.000000
  0.466667  0.266667  0.200000     12.000000
 -0.466667  0.266667  0.200000     12.000000
 -0.400000  0.266667  0.200000     12.000000
 -0.333333  0.266667  0.200000     12.000000
 -0.266667  0.266667  0.200000     12.000000
 -0.200000  0.266667  0.200000     12.000000
  0.333333  0.333333  0.200000      6.000000
  0.400000  0.333333  0.200000     12.000000
  0.466667  0.333333  0.200000     12.000000
 -0.466667  0.333333  0.200000     12.000000
 -0.400000  0.333333  0.200000     12.000000
 -0.333333  0.333333  0.200000     12.000000
 -0.266667  0.333333  0.200000     12.000000
 -0.200000  0.333333  0.200000     12.000000
  0.400000  0.400000  0.200000      6.000000
  0.466667  0.400000  0.200000     12.000000
 -0.466667  0.400000  0.200000     12.000000
 -0.400000  0.400000  0.200000     12.000000
 -0.333333  0.400000  0.200000     12.000000
 -0.266667  0.400000  0.200000     12.000000
 -0.200000  0.400000  0.200000     12.000000
  0.466667  0.466667  0.200000      6.000000
 -0.466667  0.466667  0.200000     12.000000
 -0.400000  0.466667  0.200000     12.000000
 -0.333333  0.466667  0.200000     12.000000
 -0.266667  0.466667  0.200000     12.000000
 -0.200000  0.466667  0.200000     12.000000
 -0.466667 -0.466667  0.200000      6.000000
 -0.400000 -0.466667  0.200000     12.000000
 -0.333333 -0.466667  0.200000     12.000000
 -0.266667 -0.466667  0.200000     12.000000
 -0.400000 -0.400000  0.200000      6.000000
 -0.333333 -0.400000  0.200000     12.000000
 -0.266667 -0.400000  0.200000     12.000000
 -0.333333 -0.333333  0.200000      6.000000
 -0.266667 -0.333333  0.200000     12.000000
 -0.266667 -0.266667  0.200000      6.000000
  0.266667  0.266667  0.266667      2.000000
  0.333333  0.266667  0.266667      6.000000
  0.400000  0.266667  0.266667      6.000000
  0.466667  0.266667  0.266667      6.000000
 -0.466667  0.266667  0.266667      6.000000
 -0.400000  0.266667  0.266667      6.000000
 -0.333333  0.266667  0.266667      6.000000
 -0.266667  0.266667  0.266667      6.000000
  0.333333  0.333333  0.266667      6.000000
  0.400000  0.333333  0.266667     12.000000
  0.466667  0.333333  0.266667     12.000000
 -0.466667  0.333333  0.266667     12.000000
 -0.400000  0.333333  0.266667     12.000000
 -0.333333  0.333333  0.266667     12.000000
 -0.266667  0.333333  0.266667     12.000000
  0.400000  0.400000  0.266667      6.000000
  0.466667  0.400000  0.266667     12.000000
 -0.466667  0.400000  0.266667     12.000000
 -0.400000  0.400000  0.266667     12.000000
 -0.333333  0.400000  0.266667     12.000000
 -0.266667  0.400000  0.266667     12.000000
  0.466667  0.466667  0.266667      6.000000
 -0.466667  0.466667  0.266667     12.000000
 -0.400000  0.466667  0.266667     12.000000
 -0.333333  0.466667  0.266667     12.000000
 -0.266667  0.466667  0.266667     12.000000
 -0.466667 -0.466667  0.266667      6.000000
 -0.400000 -0.466667  0.266667     12.000000
 -0.333333 -0.466667  0.266667     12.000000
 -0.400000 -0.400000  0.266667      6.000000
 -0.333333 -0.400000  0.266667     12.000000
 -0.333333 -0.333333  0.266667      6.000000
  0.333333  0.333333  0.333333      2.000000
  0.400000  0.333333  0.333333      6.000000
  0.466667  0.333333  0.333333      6.000000
 -0.466667  0.333333  0.333333      6.000000
 -0.400000  0.333333  0.333333      6.000000
 -0.333333  0.333333  0.333333      6.000000
  0.400000  0.400000  0.333333      6.000000
  0.466667  0.400000  0.333333     12.000000
 -0.466667  0.400000  0.333333     12.000000
 -0.400000  0.400000  0.333333     12.000000
 -0.333333  0.400000  0.333333     12.000000
  0.466667  0.466667  0.333333      6.000000
 -0.466667  0.466667  0.333333     12.000000
 -0.400000  0.466667  0.333333     12.000000
 -0.333333  0.466667  0.333333     12.000000
 -0.466667 -0.466667  0.333333      6.000000
 -0.400000 -0.466667  0.333333     12.000000
 -0.400000 -0.400000  0.333333      6.000000
  0.400000  0.400000  0.400000      2.000000
  0.466667  0.400000  0.400000      6.000000
 -0.466667  0.400000  0.400000      6.000000
 -0.400000  0.400000  0.400000      6.000000
  0.466667  0.466667  0.400000      6.000000
 -0.466667  0.466667  0.400000     12.000000
 -0.400000  0.466667  0.400000     12.000000
 -0.466667 -0.466667  0.400000      6.000000
  0.466667  0.466667  0.466667      2.000000
 -0.466667  0.466667  0.466667      6.000000
 
 Following cartesian coordinates:
            Coordinates               Weight
  0.000000 -0.000000  0.000000      1.000000
  0.015915  0.009188  0.006040      6.000000
  0.031829  0.018377  0.012080      6.000000
  0.047744  0.027565  0.018121      6.000000
  0.063659  0.036754  0.024161      6.000000
  0.079574  0.045942  0.030201      6.000000
  0.095488  0.055130  0.036241      6.000000
  0.111403  0.064319  0.042282      6.000000
 -0.000000  0.018377  0.012080      6.000000
  0.015915  0.027565  0.018121     12.000000
  0.031829  0.036754  0.024161     12.000000
  0.047744  0.045942  0.030201     12.000000
  0.063659  0.055130  0.036241     12.000000
  0.079574  0.064319  0.042282     12.000000
  0.095488  0.073507  0.048322     12.000000
 -0.127318 -0.055130 -0.036241     12.000000
 -0.111403 -0.045942 -0.030201     12.000000
 -0.095488 -0.036754 -0.024161     12.000000
 -0.079574 -0.027565 -0.018121     12.000000
 -0.063659 -0.018377 -0.012080     12.000000
 -0.047744 -0.009188 -0.006040     12.000000
 -0.031829  0.000000  0.000000      6.000000
  0.000000  0.036754  0.024161      6.000000
  0.015915  0.045942  0.030201     12.000000
  0.031829  0.055130  0.036241     12.000000
  0.047744  0.064319  0.042282     12.000000
  0.063659  0.073507  0.048322     12.000000
  0.079574  0.082695  0.054362     12.000000
 -0.143233 -0.045942 -0.030201     12.000000
 -0.127318 -0.036754 -0.024161     12.000000
 -0.111403 -0.027565 -0.018121     12.000000
 -0.095488 -0.018377 -0.012080     12.000000
 -0.079574 -0.009188 -0.006040     12.000000
 -0.063659  0.000000  0.000000      6.000000
 -0.000000  0.055130  0.036241      6.000000
  0.015915  0.064319  0.042282     12.000000
  0.031829  0.073507  0.048322     12.000000
  0.047744  0.082695  0.054362     12.000000
  0.063659  0.091884  0.060402     12.000000
 -0.159147 -0.036754 -0.024161     12.000000
 -0.143233 -0.027565 -0.018121     12.000000
 -0.127318 -0.018377 -0.012080     12.000000
 -0.111403 -0.009188 -0.006040     12.000000
 -0.095488  0.000000  0.000000      6.000000
  0.000000  0.073507  0.048322      6.000000
  0.015915  0.082695  0.054362     12.000000
  0.031829  0.091884  0.060402     12.000000
  0.047744  0.101072  0.066443     12.000000
 -0.175062 -0.027565 -0.018121     12.000000
 -0.159147 -0.018377 -0.012080     12.000000
 -0.143233 -0.009188 -0.006040     12.000000
 -0.127318 -0.000000  0.000000      6.000000
  0.000000  0.091884  0.060402      6.000000
  0.015915  0.101072  0.066443     12.000000
  0.031829  0.110261  0.072483     12.000000
 -0.190977 -0.018377 -0.012080     12.000000
 -0.175062 -0.009188 -0.006040     12.000000
 -0.159147 -0.000000  0.000000      6.000000
  0.000000  0.110261  0.072483      6.000000
  0.015915  0.119449  0.078523     12.000000
 -0.206892 -0.009188 -0.006040     12.000000
 -0.190977 -0.000000  0.000000      6.000000
  0.000000  0.128637  0.084563      6.000000
 -0.222806  0.000000  0.000000      6.000000
 -0.000000 -0.000000  0.018121      2.000000
  0.015915  0.009188  0.024161      6.000000
  0.031829  0.018377  0.030201      6.000000
  0.047744  0.027565  0.036241      6.000000
  0.063659  0.036754  0.042282      6.000000
  0.079574  0.045942  0.048322      6.000000
  0.095488  0.055130  0.054362      6.000000
 -0.127318 -0.073507 -0.030201      6.000000
 -0.111403 -0.064319 -0.024161      6.000000
 -0.095488 -0.055130 -0.018121      6.000000
 -0.079574 -0.045942 -0.012080      6.000000
 -0.063659 -0.036754 -0.006040      6.000000
 -0.047744 -0.027565  0.000000      6.000000
 -0.031829 -0.018377  0.006040      6.000000
  0.000000  0.018377  0.030201      6.000000
  0.015915  0.027565  0.036241     12.000000
  0.031829  0.036754  0.042282     12.000000
  0.047744  0.045942  0.048322     12.000000
  0.063659  0.055130  0.054362     12.000000
  0.079574  0.064319  0.060402     12.000000
 -0.143233 -0.064319 -0.024161     12.000000
 -0.127318 -0.055130 -0.018121     12.000000
 -0.111403 -0.045942 -0.012080     12.000000
 -0.095488 -0.036754 -0.006040     12.000000
 -0.079574 -0.027565  0.000000     12.000000
 -0.063659 -0.018377  0.006040     12.000000
 -0.047744 -0.009188  0.012080     12.000000
 -0.000000  0.036754  0.042282      6.000000
  0.015915  0.045942  0.048322     12.000000
  0.031829  0.055130  0.054362     12.000000
  0.047744  0.064319  0.060402     12.000000
  0.063659  0.073507  0.066443     12.000000
 -0.159147 -0.055130 -0.018121     12.000000
 -0.143233 -0.045942 -0.012080     12.000000
 -0.127318 -0.036754 -0.006040     12.000000
 -0.111403 -0.027565  0.000000     12.000000
 -0.095488 -0.018377  0.006040     12.000000
 -0.079574 -0.009188  0.012080     12.000000
 -0.063659  0.000000  0.018121     12.000000
 -0.000000  0.055130  0.054362      6.000000
  0.015915  0.064319  0.060402     12.000000
  0.031829  0.073507  0.066443     12.000000
  0.047744  0.082695  0.072483     12.000000
 -0.175062 -0.045942 -0.012080     12.000000
 -0.159147 -0.036754 -0.006040     12.000000
 -0.143233 -0.027565  0.000000     12.000000
 -0.127318 -0.018377  0.006040     12.000000
 -0.111403 -0.009188  0.012080     12.000000
 -0.095488 -0.000000  0.018121     12.000000
 -0.079574  0.009188  0.024161     12.000000
  0.000000  0.073507  0.066443      6.000000
  0.015915  0.082695  0.072483     12.000000
  0.031829  0.091884  0.078523     12.000000
 -0.190977 -0.036754 -0.006040     12.000000
 -0.175062 -0.027565  0.000000     12.000000
 -0.159147 -0.018377  0.006040     12.000000
 -0.143233 -0.009188  0.012080     12.000000
 -0.127318 -0.000000  0.018121     12.000000
 -0.111403  0.009188  0.024161     12.000000
 -0.095488  0.018377  0.030201     12.000000
 -0.000000  0.091884  0.078523      6.000000
  0.015915  0.101072  0.084563     12.000000
 -0.206892 -0.027565  0.000000     12.000000
 -0.190977 -0.018377  0.006040     12.000000
 -0.175062 -0.009188  0.012080     12.000000
 -0.159147 -0.000000  0.018121     12.000000
 -0.143233  0.009188  0.024161     12.000000
 -0.127318  0.018377  0.030201     12.000000
 -0.111403  0.027565  0.036241     12.000000
  0.000000  0.110261  0.090604      6.000000
 -0.222806 -0.018377  0.006040     12.000000
 -0.206892 -0.009188  0.012080     12.000000
 -0.190977  0.000000  0.018121     12.000000
 -0.175062  0.009188  0.024161     12.000000
 -0.159147  0.018377  0.030201     12.000000
 -0.143233  0.027565  0.036241     12.000000
 -0.127318  0.036754  0.042282     12.000000
 -0.000000 -0.147014 -0.078523      6.000000
  0.015915 -0.137826 -0.072483     12.000000
  0.031829 -0.128637 -0.066443     12.000000
  0.047744 -0.119449 -0.060402     12.000000
  0.063659 -0.110261 -0.054362     12.000000
  0.079574 -0.101072 -0.048322     12.000000
 -0.000000 -0.128637 -0.066443      6.000000
  0.015915 -0.119449 -0.060402     12.000000
  0.031829 -0.110261 -0.054362     12.000000
  0.047744 -0.101072 -0.048322     12.000000
  0.063659 -0.091884 -0.042282     12.000000
 -0.000000 -0.110261 -0.054362      6.000000
  0.015915 -0.101072 -0.048322     12.000000
  0.031829 -0.091884 -0.042282     12.000000
  0.047744 -0.082695 -0.036241     12.000000
 -0.000000 -0.091884 -0.042282      6.000000
  0.015915 -0.082695 -0.036241     12.000000
  0.031829 -0.073507 -0.030201     12.000000
  0.000000 -0.073507 -0.030201      6.000000
  0.015915 -0.064319 -0.024161     12.000000
  0.000000 -0.055130 -0.018121      6.000000
  0.000000  0.000000  0.036241      2.000000
  0.015915  0.009188  0.042282      6.000000
  0.031829  0.018377  0.048322      6.000000
  0.047744  0.027565  0.054362      6.000000
  0.063659  0.036754  0.060402      6.000000
  0.079574  0.045942  0.066443      6.000000
 -0.143233 -0.082695 -0.018121      6.000000
 -0.127318 -0.073507 -0.012080      6.000000
 -0.111403 -0.064319 -0.006040      6.000000
 -0.095488 -0.055130  0.000000      6.000000
 -0.079574 -0.045942  0.006040      6.000000
 -0.063659 -0.036754  0.012080      6.000000
 -0.000000  0.018377  0.048322      6.000000
  0.015915  0.027565  0.054362     12.000000
  0.031829  0.036754  0.060402     12.000000
  0.047744  0.045942  0.066443     12.000000
  0.063659  0.055130  0.072483     12.000000
 -0.159147 -0.073507 -0.012080     12.000000
 -0.143233 -0.064319 -0.006040     12.000000
 -0.127318 -0.055130  0.000000     12.000000
 -0.111403 -0.045942  0.006040     12.000000
 -0.095488 -0.036754  0.012080     12.000000
 -0.079574 -0.027565  0.018121     12.000000
  0.000000  0.036754  0.060402      6.000000
  0.015915  0.045942  0.066443     12.000000
  0.031829  0.055130  0.072483     12.000000
  0.047744  0.064319  0.078523     12.000000
 -0.175062 -0.064319 -0.006040     12.000000
 -0.159147 -0.055130  0.000000     12.000000
 -0.143233 -0.045942  0.006040     12.000000
 -0.127318 -0.036754  0.012080     12.000000
 -0.111403 -0.027565  0.018121     12.000000
 -0.095488 -0.018377  0.024161     12.000000
 -0.000000  0.055130  0.072483      6.000000
  0.015915  0.064319  0.078523     12.000000
  0.031829  0.073507  0.084563     12.000000
 -0.190977 -0.055130  0.000000     12.000000
 -0.175062 -0.045942  0.006040     12.000000
 -0.159147 -0.036754  0.012080     12.000000
 -0.143233 -0.027565  0.018121     12.000000
 -0.127318 -0.018377  0.024161     12.000000
 -0.111403 -0.009188  0.030201     12.000000
  0.000000  0.073507  0.084563      6.000000
  0.015915  0.082695  0.090604     12.000000
 -0.206892 -0.045942  0.006040     12.000000
 -0.190977 -0.036754  0.012080     12.000000
 -0.175062 -0.027565  0.018121     12.000000
 -0.159147 -0.018377  0.024161     12.000000
 -0.143233 -0.009188  0.030201     12.000000
 -0.127318 -0.000000  0.036241     12.000000
  0.000000  0.091884  0.096644      6.000000
 -0.222806 -0.036754  0.012080     12.000000
 -0.206892 -0.027565  0.018121     12.000000
 -0.190977 -0.018377  0.024161     12.000000
 -0.175062 -0.009188  0.030201     12.000000
 -0.159147  0.000000  0.036241     12.000000
 -0.143233  0.009188  0.042282     12.000000
 -0.000000 -0.165391 -0.072483      6.000000
  0.015915 -0.156203 -0.066443     12.000000
  0.031829 -0.147014 -0.060402     12.000000
  0.047744 -0.137826 -0.054362     12.000000
  0.063659 -0.128637 -0.048322     12.000000
 -0.000000 -0.147014 -0.060402      6.000000
  0.015915 -0.137826 -0.054362     12.000000
  0.031829 -0.128637 -0.048322     12.000000
  0.047744 -0.119449 -0.042282     12.000000
 -0.000000 -0.128637 -0.048322      6.000000
  0.015915 -0.119449 -0.042282     12.000000
  0.031829 -0.110261 -0.036241     12.000000
 -0.000000 -0.110261 -0.036241      6.000000
  0.015915 -0.101072 -0.030201     12.000000
  0.000000 -0.091884 -0.024161      6.000000
  0.000000  0.000000  0.054362      2.000000
  0.015915  0.009188  0.060402      6.000000
  0.031829  0.018377  0.066443      6.000000
  0.047744  0.027565  0.072483      6.000000
  0.063659  0.036754  0.078523      6.000000
 -0.159147 -0.091884 -0.006040      6.000000
 -0.143233 -0.082695  0.000000      6.000000
 -0.127318 -0.073507  0.006040      6.000000
 -0.111403 -0.064319  0.012080      6.000000
 -0.095488 -0.055130  0.018121      6.000000
 -0.000000  0.018377  0.066443      6.000000
  0.015915  0.027565  0.072483     12.000000
  0.031829  0.036754  0.078523     12.000000
  0.047744  0.045942  0.084563     12.000000
 -0.175062 -0.082695  0.000000     12.000000
 -0.159147 -0.073507  0.006040     12.000000
 -0.143233 -0.064319  0.012080     12.000000
 -0.127318 -0.055130  0.018121     12.000000
 -0.111403 -0.045942  0.024161     12.000000
  0.000000  0.036754  0.078523      6.000000
  0.015915  0.045942  0.084563     12.000000
  0.031829  0.055130  0.090604     12.000000
 -0.190977 -0.073507  0.006040     12.000000
 -0.175062 -0.064319  0.012080     12.000000
 -0.159147 -0.055130  0.018121     12.000000
 -0.143233 -0.045942  0.024161     12.000000
 -0.127318 -0.036754  0.030201     12.000000
  0.000000  0.055130  0.090604      6.000000
  0.015915  0.064319  0.096644     12.000000
 -0.206892 -0.064319  0.012080     12.000000
 -0.190977 -0.055130  0.018121     12.000000
 -0.175062 -0.045942  0.024161     12.000000
 -0.159147 -0.036754  0.030201     12.000000
 -0.143233 -0.027565  0.036241     12.000000
  0.000000  0.073507  0.102684      6.000000
 -0.222806 -0.055130  0.018121     12.000000
 -0.206892 -0.045942  0.024161     12.000000
 -0.190977 -0.036754  0.030201     12.000000
 -0.175062 -0.027565  0.036241     12.000000
 -0.159147 -0.018377  0.042282     12.000000
  0.000000 -0.183768 -0.066443      6.000000
  0.015915 -0.174579 -0.060402     12.000000
  0.031829 -0.165391 -0.054362     12.000000
  0.047744 -0.156203 -0.048322     12.000000
 -0.000000 -0.165391 -0.054362      6.000000
  0.015915 -0.156203 -0.048322     12.000000
  0.031829 -0.147014 -0.042282     12.000000
 -0.000000 -0.147014 -0.042282      6.000000
  0.015915 -0.137826 -0.036241     12.000000
  0.000000 -0.128637 -0.030201      6.000000
  0.000000  0.000000  0.072483      2.000000
  0.015915  0.009188  0.078523      6.000000
  0.031829  0.018377  0.084563      6.000000
  0.047744  0.027565  0.090604      6.000000
 -0.175062 -0.101072  0.006040      6.000000
 -0.159147 -0.091884  0.012080      6.000000
 -0.143233 -0.082695  0.018121      6.000000
 -0.127318 -0.073507  0.024161      6.000000
  0.000000  0.018377  0.084563      6.000000
  0.015915  0.027565  0.090604     12.000000
  0.031829  0.036754  0.096644     12.000000
 -0.190977 -0.091884  0.012080     12.000000
 -0.175062 -0.082695  0.018121     12.000000
 -0.159147 -0.073507  0.024161     12.000000
 -0.143233 -0.064319  0.030201     12.000000
  0.000000  0.036754  0.096644      6.000000
  0.015915  0.045942  0.102684     12.000000
 -0.206892 -0.082695  0.018121     12.000000
 -0.190977 -0.073507  0.024161     12.000000
 -0.175062 -0.064319  0.030201     12.000000
 -0.159147 -0.055130  0.036241     12.000000
  0.000000  0.055130  0.108724      6.000000
 -0.222806 -0.073507  0.024161     12.000000
 -0.206892 -0.064319  0.030201     12.000000
 -0.190977 -0.055130  0.036241     12.000000
 -0.175062 -0.045942  0.042282     12.000000
 -0.000000 -0.202144 -0.060402      6.000000
  0.015915 -0.192956 -0.054362     12.000000
  0.031829 -0.183768 -0.048322     12.000000
 -0.000000 -0.183768 -0.048322      6.000000
  0.015915 -0.174579 -0.042282     12.000000
 -0.000000 -0.165391 -0.036241      6.000000
  0.000000 -0.000000  0.090604      2.000000
  0.015915  0.009188  0.096644      6.000000
  0.031829  0.018377  0.102684      6.000000
 -0.190977 -0.110261  0.018121      6.000000
 -0.175062 -0.101072  0.024161      6.000000
 -0.159147 -0.091884  0.030201      6.000000
  0.000000  0.018377  0.102684      6.000000
  0.015915  0.027565  0.108724     12.000000
 -0.206892 -0.101072  0.024161     12.000000
 -0.190977 -0.091884  0.030201     12.000000
 -0.175062 -0.082695  0.036241     12.000000
  0.000000  0.036754  0.114765      6.000000
 -0.222806 -0.091884  0.030201     12.000000
 -0.206892 -0.082695  0.036241     12.000000
 -0.190977 -0.073507  0.042282     12.000000
  0.000000 -0.220521 -0.054362      6.000000
  0.015915 -0.211333 -0.048322     12.000000
 -0.000000 -0.202144 -0.042282      6.000000
  0.000000 -0.000000  0.108724      2.000000
  0.015915  0.009188  0.114765      6.000000
 -0.206892 -0.119449  0.030201      6.000000
 -0.190977 -0.110261  0.036241      6.000000
  0.000000  0.018377  0.120805      6.000000
 -0.222806 -0.110261  0.036241     12.000000
 -0.206892 -0.101072  0.042282     12.000000
 -0.000000 -0.238898 -0.048322      6.000000
  0.000000  0.000000  0.126845      2.000000
 -0.222806 -0.128637  0.042282      6.000000
 
 
 Subroutine IBZKPT_HF returns following result:
 ==============================================
 
 Found   3375 k-points in 1st BZ
 the following   3375 k-points will be used (e.g. in the exchange kernel)
 Following reciprocal coordinates:   # in IRBZ
  0.000000  0.000000  0.000000    0.00029630   1 t-inv F
  0.066667  0.000000  0.000000    0.00029630   2 t-inv F
  0.133333  0.000000  0.000000    0.00029630   3 t-inv F
  0.200000  0.000000  0.000000    0.00029630   4 t-inv F
  0.266667  0.000000  0.000000    0.00029630   5 t-inv F
  0.333333  0.000000  0.000000    0.00029630   6 t-inv F
  0.400000  0.000000  0.000000    0.00029630   7 t-inv F
  0.466667  0.000000  0.000000    0.00029630   8 t-inv F
  0.066667  0.066667  0.000000    0.00029630   9 t-inv F
  0.133333  0.066667  0.000000    0.00029630  10 t-inv F
  0.200000  0.066667  0.000000    0.00029630  11 t-inv F
  0.266667  0.066667  0.000000    0.00029630  12 t-inv F
  0.333333  0.066667  0.000000    0.00029630  13 t-inv F
  0.400000  0.066667  0.000000    0.00029630  14 t-inv F
  0.466667  0.066667  0.000000    0.00029630  15 t-inv F
 -0.466667  0.066667  0.000000    0.00029630  16 t-inv F
 -0.400000  0.066667  0.000000    0.00029630  17 t-inv F
 -0.333333  0.066667  0.000000    0.00029630  18 t-inv F
 -0.266667  0.066667  0.000000    0.00029630  19 t-inv F
 -0.200000  0.066667  0.000000    0.00029630  20 t-inv F
 -0.133333  0.066667  0.000000    0.00029630  21 t-inv F
 -0.066667  0.066667  0.000000    0.00029630  22 t-inv F
  0.133333  0.133333  0.000000    0.00029630  23 t-inv F
  0.200000  0.133333  0.000000    0.00029630  24 t-inv F
  0.266667  0.133333  0.000000    0.00029630  25 t-inv F
  0.333333  0.133333  0.000000    0.00029630  26 t-inv F
  0.400000  0.133333  0.000000    0.00029630  27 t-inv F
  0.466667  0.133333  0.000000    0.00029630  28 t-inv F
 -0.466667  0.133333  0.000000    0.00029630  29 t-inv F
 -0.400000  0.133333  0.000000    0.00029630  30 t-inv F
 -0.333333  0.133333  0.000000    0.00029630  31 t-inv F
 -0.266667  0.133333  0.000000    0.00029630  32 t-inv F
 -0.200000  0.133333  0.000000    0.00029630  33 t-inv F
 -0.133333  0.133333  0.000000    0.00029630  34 t-inv F
  0.200000  0.200000  0.000000    0.00029630  35 t-inv F
  0.266667  0.200000  0.000000    0.00029630  36 t-inv F
  0.333333  0.200000  0.000000    0.00029630  37 t-inv F
  0.400000  0.200000  0.000000    0.00029630  38 t-inv F
  0.466667  0.200000  0.000000    0.00029630  39 t-inv F
 -0.466667  0.200000  0.000000    0.00029630  40 t-inv F
 -0.400000  0.200000  0.000000    0.00029630  41 t-inv F
 -0.333333  0.200000  0.000000    0.00029630  42 t-inv F
 -0.266667  0.200000  0.000000    0.00029630  43 t-inv F
 -0.200000  0.200000  0.000000    0.00029630  44 t-inv F
  0.266667  0.266667  0.000000    0.00029630  45 t-inv F
  0.333333  0.266667  0.000000    0.00029630  46 t-inv F
  0.400000  0.266667  0.000000    0.00029630  47 t-inv F
  0.466667  0.266667  0.000000    0.00029630  48 t-inv F
 -0.466667  0.266667  0.000000    0.00029630  49 t-inv F
 -0.400000  0.266667  0.000000    0.00029630  50 t-inv F
 -0.333333  0.266667  0.000000    0.00029630  51 t-inv F
 -0.266667  0.266667  0.000000    0.00029630  52 t-inv F
  0.333333  0.333333  0.000000    0.00029630  53 t-inv F
  0.400000  0.333333  0.000000    0.00029630  54 t-inv F
  0.466667  0.333333  0.000000    0.00029630  55 t-inv F
 -0.466667  0.333333  0.000000    0.00029630  56 t-inv F
 -0.400000  0.333333  0.000000    0.00029630  57 t-inv F
 -0.333333  0.333333  0.000000    0.00029630  58 t-inv F
  0.400000  0.400000  0.000000    0.00029630  59 t-inv F
  0.466667  0.400000  0.000000    0.00029630  60 t-inv F
 -0.466667  0.400000  0.000000    0.00029630  61 t-inv F
 -0.400000  0.400000  0.000000    0.00029630  62 t-inv F
  0.466667  0.466667  0.000000    0.00029630  63 t-inv F
 -0.466667  0.466667  0.000000    0.00029630  64 t-inv F
  0.066667  0.066667  0.066667    0.00029630  65 t-inv F
  0.133333  0.066667  0.066667    0.00029630  66 t-inv F
  0.200000  0.066667  0.066667    0.00029630  67 t-inv F
  0.266667  0.066667  0.066667    0.00029630  68 t-inv F
  0.333333  0.066667  0.066667    0.00029630  69 t-inv F
  0.400000  0.066667  0.066667    0.00029630  70 t-inv F
  0.466667  0.066667  0.066667    0.00029630  71 t-inv F
 -0.466667  0.066667  0.066667    0.00029630  72 t-inv F
 -0.400000  0.066667  0.066667    0.00029630  73 t-inv F
 -0.333333  0.066667  0.066667    0.00029630  74 t-inv F
 -0.266667  0.066667  0.066667    0.00029630  75 t-inv F
 -0.200000  0.066667  0.066667    0.00029630  76 t-inv F
 -0.133333  0.066667  0.066667    0.00029630  77 t-inv F
 -0.066667  0.066667  0.066667    0.00029630  78 t-inv F
  0.133333  0.133333  0.066667    0.00029630  79 t-inv F
  0.200000  0.133333  0.066667    0.00029630  80 t-inv F
  0.266667  0.133333  0.066667    0.00029630  81 t-inv F
  0.333333  0.133333  0.066667    0.00029630  82 t-inv F
  0.400000  0.133333  0.066667    0.00029630  83 t-inv F
  0.466667  0.133333  0.066667    0.00029630  84 t-inv F
 -0.466667  0.133333  0.066667    0.00029630  85 t-inv F
 -0.400000  0.133333  0.066667    0.00029630  86 t-inv F
 -0.333333  0.133333  0.066667    0.00029630  87 t-inv F
 -0.266667  0.133333  0.066667    0.00029630  88 t-inv F
 -0.200000  0.133333  0.066667    0.00029630  89 t-inv F
 -0.133333  0.133333  0.066667    0.00029630  90 t-inv F
 -0.066667  0.133333  0.066667    0.00029630  91 t-inv F
  0.200000  0.200000  0.066667    0.00029630  92 t-inv F
  0.266667  0.200000  0.066667    0.00029630  93 t-inv F
  0.333333  0.200000  0.066667    0.00029630  94 t-inv F
  0.400000  0.200000  0.066667    0.00029630  95 t-inv F
  0.466667  0.200000  0.066667    0.00029630  96 t-inv F
 -0.466667  0.200000  0.066667    0.00029630  97 t-inv F
 -0.400000  0.200000  0.066667    0.00029630  98 t-inv F
 -0.333333  0.200000  0.066667    0.00029630  99 t-inv F
 -0.266667  0.200000  0.066667    0.00029630 100 t-inv F
 -0.200000  0.200000  0.066667    0.00029630 101 t-inv F
 -0.133333  0.200000  0.066667    0.00029630 102 t-inv F
 -0.066667  0.200000  0.066667    0.00029630 103 t-inv F
  0.266667  0.266667  0.066667    0.00029630 104 t-inv F
  0.333333  0.266667  0.066667    0.00029630 105 t-inv F
  0.400000  0.266667  0.066667    0.00029630 106 t-inv F
  0.466667  0.266667  0.066667    0.00029630 107 t-inv F
 -0.466667  0.266667  0.066667    0.00029630 108 t-inv F
 -0.400000  0.266667  0.066667    0.00029630 109 t-inv F
 -0.333333  0.266667  0.066667    0.00029630 110 t-inv F
 -0.266667  0.266667  0.066667    0.00029630 111 t-inv F
 -0.200000  0.266667  0.066667    0.00029630 112 t-inv F
 -0.133333  0.266667  0.066667    0.00029630 113 t-inv F
 -0.066667  0.266667  0.066667    0.00029630 114 t-inv F
  0.333333  0.333333  0.066667    0.00029630 115 t-inv F
  0.400000  0.333333  0.066667    0.00029630 116 t-inv F
  0.466667  0.333333  0.066667    0.00029630 117 t-inv F
 -0.466667  0.333333  0.066667    0.00029630 118 t-inv F
 -0.400000  0.333333  0.066667    0.00029630 119 t-inv F
 -0.333333  0.333333  0.066667    0.00029630 120 t-inv F
 -0.266667  0.333333  0.066667    0.00029630 121 t-inv F
 -0.200000  0.333333  0.066667    0.00029630 122 t-inv F
 -0.133333  0.333333  0.066667    0.00029630 123 t-inv F
 -0.066667  0.333333  0.066667    0.00029630 124 t-inv F
  0.400000  0.400000  0.066667    0.00029630 125 t-inv F
  0.466667  0.400000  0.066667    0.00029630 126 t-inv F
 -0.466667  0.400000  0.066667    0.00029630 127 t-inv F
 -0.400000  0.400000  0.066667    0.00029630 128 t-inv F
 -0.333333  0.400000  0.066667    0.00029630 129 t-inv F
 -0.266667  0.400000  0.066667    0.00029630 130 t-inv F
 -0.200000  0.400000  0.066667    0.00029630 131 t-inv F
 -0.133333  0.400000  0.066667    0.00029630 132 t-inv F
 -0.066667  0.400000  0.066667    0.00029630 133 t-inv F
  0.466667  0.466667  0.066667    0.00029630 134 t-inv F
 -0.466667  0.466667  0.066667    0.00029630 135 t-inv F
 -0.400000  0.466667  0.066667    0.00029630 136 t-inv F
 -0.333333  0.466667  0.066667    0.00029630 137 t-inv F
 -0.266667  0.466667  0.066667    0.00029630 138 t-inv F
 -0.200000  0.466667  0.066667    0.00029630 139 t-inv F
 -0.133333  0.466667  0.066667    0.00029630 140 t-inv F
 -0.066667  0.466667  0.066667    0.00029630 141 t-inv F
 -0.466667 -0.466667  0.066667    0.00029630 142 t-inv F
 -0.400000 -0.466667  0.066667    0.00029630 143 t-inv F
 -0.333333 -0.466667  0.066667    0.00029630 144 t-inv F
 -0.266667 -0.466667  0.066667    0.00029630 145 t-inv F
 -0.200000 -0.466667  0.066667    0.00029630 146 t-inv F
 -0.133333 -0.466667  0.066667    0.00029630 147 t-inv F
 -0.400000 -0.400000  0.066667    0.00029630 148 t-inv F
 -0.333333 -0.400000  0.066667    0.00029630 149 t-inv F
 -0.266667 -0.400000  0.066667    0.00029630 150 t-inv F
 -0.200000 -0.400000  0.066667    0.00029630 151 t-inv F
 -0.133333 -0.400000  0.066667    0.00029630 152 t-inv F
 -0.333333 -0.333333  0.066667    0.00029630 153 t-inv F
 -0.266667 -0.333333  0.066667    0.00029630 154 t-inv F
 -0.200000 -0.333333  0.066667    0.00029630 155 t-inv F
 -0.133333 -0.333333  0.066667    0.00029630 156 t-inv F
 -0.266667 -0.266667  0.066667    0.00029630 157 t-inv F
 -0.200000 -0.266667  0.066667    0.00029630 158 t-inv F
 -0.133333 -0.266667  0.066667    0.00029630 159 t-inv F
 -0.200000 -0.200000  0.066667    0.00029630 160 t-inv F
 -0.133333 -0.200000  0.066667    0.00029630 161 t-inv F
 -0.133333 -0.133333  0.066667    0.00029630 162 t-inv F
  0.133333  0.133333  0.133333    0.00029630 163 t-inv F
  0.200000  0.133333  0.133333    0.00029630 164 t-inv F
  0.266667  0.133333  0.133333    0.00029630 165 t-inv F
  0.333333  0.133333  0.133333    0.00029630 166 t-inv F
  0.400000  0.133333  0.133333    0.00029630 167 t-inv F
  0.466667  0.133333  0.133333    0.00029630 168 t-inv F
 -0.466667  0.133333  0.133333    0.00029630 169 t-inv F
 -0.400000  0.133333  0.133333    0.00029630 170 t-inv F
 -0.333333  0.133333  0.133333    0.00029630 171 t-inv F
 -0.266667  0.133333  0.133333    0.00029630 172 t-inv F
 -0.200000  0.133333  0.133333    0.00029630 173 t-inv F
 -0.133333  0.133333  0.133333    0.00029630 174 t-inv F
  0.200000  0.200000  0.133333    0.00029630 175 t-inv F
  0.266667  0.200000  0.133333    0.00029630 176 t-inv F
  0.333333  0.200000  0.133333    0.00029630 177 t-inv F
  0.400000  0.200000  0.133333    0.00029630 178 t-inv F
  0.466667  0.200000  0.133333    0.00029630 179 t-inv F
 -0.466667  0.200000  0.133333    0.00029630 180 t-inv F
 -0.400000  0.200000  0.133333    0.00029630 181 t-inv F
 -0.333333  0.200000  0.133333    0.00029630 182 t-inv F
 -0.266667  0.200000  0.133333    0.00029630 183 t-inv F
 -0.200000  0.200000  0.133333    0.00029630 184 t-inv F
 -0.133333  0.200000  0.133333    0.00029630 185 t-inv F
  0.266667  0.266667  0.133333    0.00029630 186 t-inv F
  0.333333  0.266667  0.133333    0.00029630 187 t-inv F
  0.400000  0.266667  0.133333    0.00029630 188 t-inv F
  0.466667  0.266667  0.133333    0.00029630 189 t-inv F
 -0.466667  0.266667  0.133333    0.00029630 190 t-inv F
 -0.400000  0.266667  0.133333    0.00029630 191 t-inv F
 -0.333333  0.266667  0.133333    0.00029630 192 t-inv F
 -0.266667  0.266667  0.133333    0.00029630 193 t-inv F
 -0.200000  0.266667  0.133333    0.00029630 194 t-inv F
 -0.133333  0.266667  0.133333    0.00029630 195 t-inv F
  0.333333  0.333333  0.133333    0.00029630 196 t-inv F
  0.400000  0.333333  0.133333    0.00029630 197 t-inv F
  0.466667  0.333333  0.133333    0.00029630 198 t-inv F
 -0.466667  0.333333  0.133333    0.00029630 199 t-inv F
 -0.400000  0.333333  0.133333    0.00029630 200 t-inv F
 -0.333333  0.333333  0.133333    0.00029630 201 t-inv F
 -0.266667  0.333333  0.133333    0.00029630 202 t-inv F
 -0.200000  0.333333  0.133333    0.00029630 203 t-inv F
 -0.133333  0.333333  0.133333    0.00029630 204 t-inv F
  0.400000  0.400000  0.133333    0.00029630 205 t-inv F
  0.466667  0.400000  0.133333    0.00029630 206 t-inv F
 -0.466667  0.400000  0.133333    0.00029630 207 t-inv F
 -0.400000  0.400000  0.133333    0.00029630 208 t-inv F
 -0.333333  0.400000  0.133333    0.00029630 209 t-inv F
 -0.266667  0.400000  0.133333    0.00029630 210 t-inv F
 -0.200000  0.400000  0.133333    0.00029630 211 t-inv F
 -0.133333  0.400000  0.133333    0.00029630 212 t-inv F
  0.466667  0.466667  0.133333    0.00029630 213 t-inv F
 -0.466667  0.466667  0.133333    0.00029630 214 t-inv F
 -0.400000  0.466667  0.133333    0.00029630 215 t-inv F
 -0.333333  0.466667  0.133333    0.00029630 216 t-inv F
 -0.266667  0.466667  0.133333    0.00029630 217 t-inv F
 -0.200000  0.466667  0.133333    0.00029630 218 t-inv F
 -0.133333  0.466667  0.133333    0.00029630 219 t-inv F
 -0.466667 -0.466667  0.133333    0.00029630 220 t-inv F
 -0.400000 -0.466667  0.133333    0.00029630 221 t-inv F
 -0.333333 -0.466667  0.133333    0.00029630 222 t-inv F
 -0.266667 -0.466667  0.133333    0.00029630 223 t-inv F
 -0.200000 -0.466667  0.133333    0.00029630 224 t-inv F
 -0.400000 -0.400000  0.133333    0.00029630 225 t-inv F
 -0.333333 -0.400000  0.133333    0.00029630 226 t-inv F
 -0.266667 -0.400000  0.133333    0.00029630 227 t-inv F
 -0.200000 -0.400000  0.133333    0.00029630 228 t-inv F
 -0.333333 -0.333333  0.133333    0.00029630 229 t-inv F
 -0.266667 -0.333333  0.133333    0.00029630 230 t-inv F
 -0.200000 -0.333333  0.133333    0.00029630 231 t-inv F
 -0.266667 -0.266667  0.133333    0.00029630 232 t-inv F
 -0.200000 -0.266667  0.133333    0.00029630 233 t-inv F
 -0.200000 -0.200000  0.133333    0.00029630 234 t-inv F
  0.200000  0.200000  0.200000    0.00029630 235 t-inv F
  0.266667  0.200000  0.200000    0.00029630 236 t-inv F
  0.333333  0.200000  0.200000    0.00029630 237 t-inv F
  0.400000  0.200000  0.200000    0.00029630 238 t-inv F
  0.466667  0.200000  0.200000    0.00029630 239 t-inv F
 -0.466667  0.200000  0.200000    0.00029630 240 t-inv F
 -0.400000  0.200000  0.200000    0.00029630 241 t-inv F
 -0.333333  0.200000  0.200000    0.00029630 242 t-inv F
 -0.266667  0.200000  0.200000    0.00029630 243 t-inv F
 -0.200000  0.200000  0.200000    0.00029630 244 t-inv F
  0.266667  0.266667  0.200000    0.00029630 245 t-inv F
  0.333333  0.266667  0.200000    0.00029630 246 t-inv F
  0.400000  0.266667  0.200000    0.00029630 247 t-inv F
  0.466667  0.266667  0.200000    0.00029630 248 t-inv F
 -0.466667  0.266667  0.200000    0.00029630 249 t-inv F
 -0.400000  0.266667  0.200000    0.00029630 250 t-inv F
 -0.333333  0.266667  0.200000    0.00029630 251 t-inv F
 -0.266667  0.266667  0.200000    0.00029630 252 t-inv F
 -0.200000  0.266667  0.200000    0.00029630 253 t-inv F
  0.333333  0.333333  0.200000    0.00029630 254 t-inv F
  0.400000  0.333333  0.200000    0.00029630 255 t-inv F
  0.466667  0.333333  0.200000    0.00029630 256 t-inv F
 -0.466667  0.333333  0.200000    0.00029630 257 t-inv F
 -0.400000  0.333333  0.200000    0.00029630 258 t-inv F
 -0.333333  0.333333  0.200000    0.00029630 259 t-inv F
 -0.266667  0.333333  0.200000    0.00029630 260 t-inv F
 -0.200000  0.333333  0.200000    0.00029630 261 t-inv F
  0.400000  0.400000  0.200000    0.00029630 262 t-inv F
  0.466667  0.400000  0.200000    0.00029630 263 t-inv F
 -0.466667  0.400000  0.200000    0.00029630 264 t-inv F
 -0.400000  0.400000  0.200000    0.00029630 265 t-inv F
 -0.333333  0.400000  0.200000    0.00029630 266 t-inv F
 -0.266667  0.400000  0.200000    0.00029630 267 t-inv F
 -0.200000  0.400000  0.200000    0.00029630 268 t-inv F
  0.466667  0.466667  0.200000    0.00029630 269 t-inv F
 -0.466667  0.466667  0.200000    0.00029630 270 t-inv F
 -0.400000  0.466667  0.200000    0.00029630 271 t-inv F
 -0.333333  0.466667  0.200000    0.00029630 272 t-inv F
 -0.266667  0.466667  0.200000    0.00029630 273 t-inv F
 -0.200000  0.466667  0.200000    0.00029630 274 t-inv F
 -0.466667 -0.466667  0.200000    0.00029630 275 t-inv F
 -0.400000 -0.466667  0.200000    0.00029630 276 t-inv F
 -0.333333 -0.466667  0.200000    0.00029630 277 t-inv F
 -0.266667 -0.466667  0.200000    0.00029630 278 t-inv F
 -0.400000 -0.400000  0.200000    0.00029630 279 t-inv F
 -0.333333 -0.400000  0.200000    0.00029630 280 t-inv F
 -0.266667 -0.400000  0.200000    0.00029630 281 t-inv F
 -0.333333 -0.333333  0.200000    0.00029630 282 t-inv F
 -0.266667 -0.333333  0.200000    0.00029630 283 t-inv F
 -0.266667 -0.266667  0.200000    0.00029630 284 t-inv F
  0.266667  0.266667  0.266667    0.00029630 285 t-inv F
  0.333333  0.266667  0.266667    0.00029630 286 t-inv F
  0.400000  0.266667  0.266667    0.00029630 287 t-inv F
  0.466667  0.266667  0.266667    0.00029630 288 t-inv F
 -0.466667  0.266667  0.266667    0.00029630 289 t-inv F
 -0.400000  0.266667  0.266667    0.00029630 290 t-inv F
 -0.333333  0.266667  0.266667    0.00029630 291 t-inv F
 -0.266667  0.266667  0.266667    0.00029630 292 t-inv F
  0.333333  0.333333  0.266667    0.00029630 293 t-inv F
  0.400000  0.333333  0.266667    0.00029630 294 t-inv F
  0.466667  0.333333  0.266667    0.00029630 295 t-inv F
 -0.466667  0.333333  0.266667    0.00029630 296 t-inv F
 -0.400000  0.333333  0.266667    0.00029630 297 t-inv F
 -0.333333  0.333333  0.266667    0.00029630 298 t-inv F
 -0.266667  0.333333  0.266667    0.00029630 299 t-inv F
  0.400000  0.400000  0.266667    0.00029630 300 t-inv F
  0.466667  0.400000  0.266667    0.00029630 301 t-inv F
 -0.466667  0.400000  0.266667    0.00029630 302 t-inv F
 -0.400000  0.400000  0.266667    0.00029630 303 t-inv F
 -0.333333  0.400000  0.266667    0.00029630 304 t-inv F
 -0.266667  0.400000  0.266667    0.00029630 305 t-inv F
  0.466667  0.466667  0.266667    0.00029630 306 t-inv F
 -0.466667  0.466667  0.266667    0.00029630 307 t-inv F
 -0.400000  0.466667  0.266667    0.00029630 308 t-inv F
 -0.333333  0.466667  0.266667    0.00029630 309 t-inv F
 -0.266667  0.466667  0.266667    0.00029630 310 t-inv F
 -0.466667 -0.466667  0.266667    0.00029630 311 t-inv F
 -0.400000 -0.466667  0.266667    0.00029630 312 t-inv F
 -0.333333 -0.466667  0.266667    0.00029630 313 t-inv F
 -0.400000 -0.400000  0.266667    0.00029630 314 t-inv F
 -0.333333 -0.400000  0.266667    0.00029630 315 t-inv F
 -0.333333 -0.333333  0.266667    0.00029630 316 t-inv F
  0.333333  0.333333  0.333333    0.00029630 317 t-inv F
  0.400000  0.333333  0.333333    0.00029630 318 t-inv F
  0.466667  0.333333  0.333333    0.00029630 319 t-inv F
 -0.466667  0.333333  0.333333    0.00029630 320 t-inv F
 -0.400000  0.333333  0.333333    0.00029630 321 t-inv F
 -0.333333  0.333333  0.333333    0.00029630 322 t-inv F
  0.400000  0.400000  0.333333    0.00029630 323 t-inv F
  0.466667  0.400000  0.333333    0.00029630 324 t-inv F
 -0.466667  0.400000  0.333333    0.00029630 325 t-inv F
 -0.400000  0.400000  0.333333    0.00029630 326 t-inv F
 -0.333333  0.400000  0.333333    0.00029630 327 t-inv F
  0.466667  0.466667  0.333333    0.00029630 328 t-inv F
 -0.466667  0.466667  0.333333    0.00029630 329 t-inv F
 -0.400000  0.466667  0.333333    0.00029630 330 t-inv F
 -0.333333  0.466667  0.333333    0.00029630 331 t-inv F
 -0.466667 -0.466667  0.333333    0.00029630 332 t-inv F
 -0.400000 -0.466667  0.333333    0.00029630 333 t-inv F
 -0.400000 -0.400000  0.333333    0.00029630 334 t-inv F
  0.400000  0.400000  0.400000    0.00029630 335 t-inv F
  0.466667  0.400000  0.400000    0.00029630 336 t-inv F
 -0.466667  0.400000  0.400000    0.00029630 337 t-inv F
 -0.400000  0.400000  0.400000    0.00029630 338 t-inv F
  0.466667  0.466667  0.400000    0.00029630 339 t-inv F
 -0.466667  0.466667  0.400000    0.00029630 340 t-inv F
 -0.400000  0.466667  0.400000    0.00029630 341 t-inv F
 -0.466667 -0.466667  0.400000    0.00029630 342 t-inv F
  0.466667  0.466667  0.466667    0.00029630 343 t-inv F
 -0.466667  0.466667  0.466667    0.00029630 344 t-inv F
  0.000000  0.066667  0.000000    0.00029630   2 t-inv F
  0.000000  0.000000  0.066667    0.00029630   2 t-inv F
  0.000000  0.133333  0.000000    0.00029630   3 t-inv F
  0.000000  0.000000  0.133333    0.00029630   3 t-inv F
  0.000000  0.200000  0.000000    0.00029630   4 t-inv F
  0.000000  0.000000  0.200000    0.00029630   4 t-inv F
  0.000000  0.266667  0.000000    0.00029630   5 t-inv F
  0.000000  0.000000  0.266667    0.00029630   5 t-inv F
  0.000000  0.333333  0.000000    0.00029630   6 t-inv F
  0.000000  0.000000  0.333333    0.00029630   6 t-inv F
  0.000000  0.400000  0.000000    0.00029630   7 t-inv F
  0.000000  0.000000  0.400000    0.00029630   7 t-inv F
  0.000000  0.466667  0.000000    0.00029630   8 t-inv F
  0.000000  0.000000  0.466667    0.00029630   8 t-inv F
  0.066667  0.000000  0.066667    0.00029630   9 t-inv F
  0.000000  0.066667  0.066667    0.00029630   9 t-inv F
  0.133333  0.000000  0.066667    0.00029630  10 t-inv F
  0.000000  0.133333  0.066667    0.00029630  10 t-inv F
  0.066667  0.133333  0.000000    0.00029630  10 t-inv F
  0.066667  0.000000  0.133333    0.00029630  10 t-inv F
  0.000000  0.066667  0.133333    0.00029630  10 t-inv F
  0.200000  0.000000  0.066667    0.00029630  11 t-inv F
  0.000000  0.200000  0.066667    0.00029630  11 t-inv F
  0.066667  0.200000  0.000000    0.00029630  11 t-inv F
  0.066667  0.000000  0.200000    0.00029630  11 t-inv F
  0.000000  0.066667  0.200000    0.00029630  11 t-inv F
  0.266667  0.000000  0.066667    0.00029630  12 t-inv F
  0.000000  0.266667  0.066667    0.00029630  12 t-inv F
  0.066667  0.266667  0.000000    0.00029630  12 t-inv F
  0.066667  0.000000  0.266667    0.00029630  12 t-inv F
  0.000000  0.066667  0.266667    0.00029630  12 t-inv F
  0.333333  0.000000  0.066667    0.00029630  13 t-inv F
  0.000000  0.333333  0.066667    0.00029630  13 t-inv F
  0.066667  0.333333  0.000000    0.00029630  13 t-inv F
  0.066667  0.000000  0.333333    0.00029630  13 t-inv F
  0.000000  0.066667  0.333333    0.00029630  13 t-inv F
  0.400000  0.000000  0.066667    0.00029630  14 t-inv F
  0.000000  0.400000  0.066667    0.00029630  14 t-inv F
  0.066667  0.400000  0.000000    0.00029630  14 t-inv F
  0.066667  0.000000  0.400000    0.00029630  14 t-inv F
  0.000000  0.066667  0.400000    0.00029630  14 t-inv F
  0.466667  0.000000  0.066667    0.00029630  15 t-inv F
  0.000000  0.466667  0.066667    0.00029630  15 t-inv F
  0.066667  0.466667  0.000000    0.00029630  15 t-inv F
  0.066667  0.000000  0.466667    0.00029630  15 t-inv F
  0.000000  0.066667  0.466667    0.00029630  15 t-inv F
 -0.466667  0.000000  0.066667    0.00029630  16 t-inv F
  0.000000 -0.466667  0.066667    0.00029630  16 t-inv F
  0.066667 -0.466667  0.000000    0.00029630  16 t-inv F
  0.066667  0.000000 -0.466667    0.00029630  16 t-inv F
  0.000000  0.066667 -0.466667    0.00029630  16 t-inv F
 -0.400000  0.000000  0.066667    0.00029630  17 t-inv F
  0.000000 -0.400000  0.066667    0.00029630  17 t-inv F
  0.066667 -0.400000  0.000000    0.00029630  17 t-inv F
  0.066667  0.000000 -0.400000    0.00029630  17 t-inv F
  0.000000  0.066667 -0.400000    0.00029630  17 t-inv F
 -0.333333  0.000000  0.066667    0.00029630  18 t-inv F
  0.000000 -0.333333  0.066667    0.00029630  18 t-inv F
  0.066667 -0.333333  0.000000    0.00029630  18 t-inv F
  0.066667  0.000000 -0.333333    0.00029630  18 t-inv F
  0.000000  0.066667 -0.333333    0.00029630  18 t-inv F
 -0.266667  0.000000  0.066667    0.00029630  19 t-inv F
  0.000000 -0.266667  0.066667    0.00029630  19 t-inv F
  0.066667 -0.266667  0.000000    0.00029630  19 t-inv F
  0.066667  0.000000 -0.266667    0.00029630  19 t-inv F
  0.000000  0.066667 -0.266667    0.00029630  19 t-inv F
 -0.200000  0.000000  0.066667    0.00029630  20 t-inv F
  0.000000 -0.200000  0.066667    0.00029630  20 t-inv F
  0.066667 -0.200000  0.000000    0.00029630  20 t-inv F
  0.066667  0.000000 -0.200000    0.00029630  20 t-inv F
  0.000000  0.066667 -0.200000    0.00029630  20 t-inv F
 -0.133333  0.000000  0.066667    0.00029630  21 t-inv F
  0.000000 -0.133333  0.066667    0.00029630  21 t-inv F
  0.066667 -0.133333  0.000000    0.00029630  21 t-inv F
  0.066667  0.000000 -0.133333    0.00029630  21 t-inv F
  0.000000  0.066667 -0.133333    0.00029630  21 t-inv F
 -0.066667  0.000000  0.066667    0.00029630  22 t-inv F
  0.000000 -0.066667  0.066667    0.00029630  22 t-inv F
  0.066667 -0.066667  0.000000    0.00029630  22 t-inv F
  0.066667  0.000000 -0.066667    0.00029630  22 t-inv F
  0.000000  0.066667 -0.066667    0.00029630  22 t-inv F
  0.133333  0.000000  0.133333    0.00029630  23 t-inv F
  0.000000  0.133333  0.133333    0.00029630  23 t-inv F
  0.200000  0.000000  0.133333    0.00029630  24 t-inv F
  0.000000  0.200000  0.133333    0.00029630  24 t-inv F
  0.133333  0.200000  0.000000    0.00029630  24 t-inv F
  0.133333  0.000000  0.200000    0.00029630  24 t-inv F
  0.000000  0.133333  0.200000    0.00029630  24 t-inv F
  0.266667  0.000000  0.133333    0.00029630  25 t-inv F
  0.000000  0.266667  0.133333    0.00029630  25 t-inv F
  0.133333  0.266667  0.000000    0.00029630  25 t-inv F
  0.133333  0.000000  0.266667    0.00029630  25 t-inv F
  0.000000  0.133333  0.266667    0.00029630  25 t-inv F
  0.333333  0.000000  0.133333    0.00029630  26 t-inv F
  0.000000  0.333333  0.133333    0.00029630  26 t-inv F
  0.133333  0.333333  0.000000    0.00029630  26 t-inv F
  0.133333  0.000000  0.333333    0.00029630  26 t-inv F
  0.000000  0.133333  0.333333    0.00029630  26 t-inv F
  0.400000  0.000000  0.133333    0.00029630  27 t-inv F
  0.000000  0.400000  0.133333    0.00029630  27 t-inv F
  0.133333  0.400000  0.000000    0.00029630  27 t-inv F
  0.133333  0.000000  0.400000    0.00029630  27 t-inv F
  0.000000  0.133333  0.400000    0.00029630  27 t-inv F
  0.466667  0.000000  0.133333    0.00029630  28 t-inv F
  0.000000  0.466667  0.133333    0.00029630  28 t-inv F
  0.133333  0.466667  0.000000    0.00029630  28 t-inv F
  0.133333  0.000000  0.466667    0.00029630  28 t-inv F
  0.000000  0.133333  0.466667    0.00029630  28 t-inv F
 -0.466667  0.000000  0.133333    0.00029630  29 t-inv F
  0.000000 -0.466667  0.133333    0.00029630  29 t-inv F
  0.133333 -0.466667  0.000000    0.00029630  29 t-inv F
  0.133333  0.000000 -0.466667    0.00029630  29 t-inv F
  0.000000  0.133333 -0.466667    0.00029630  29 t-inv F
 -0.400000  0.000000  0.133333    0.00029630  30 t-inv F
  0.000000 -0.400000  0.133333    0.00029630  30 t-inv F
  0.133333 -0.400000  0.000000    0.00029630  30 t-inv F
  0.133333  0.000000 -0.400000    0.00029630  30 t-inv F
  0.000000  0.133333 -0.400000    0.00029630  30 t-inv F
 -0.333333  0.000000  0.133333    0.00029630  31 t-inv F
  0.000000 -0.333333  0.133333    0.00029630  31 t-inv F
  0.133333 -0.333333  0.000000    0.00029630  31 t-inv F
  0.133333  0.000000 -0.333333    0.00029630  31 t-inv F
  0.000000  0.133333 -0.333333    0.00029630  31 t-inv F
 -0.266667  0.000000  0.133333    0.00029630  32 t-inv F
  0.000000 -0.266667  0.133333    0.00029630  32 t-inv F
  0.133333 -0.266667  0.000000    0.00029630  32 t-inv F
  0.133333  0.000000 -0.266667    0.00029630  32 t-inv F
  0.000000  0.133333 -0.266667    0.00029630  32 t-inv F
 -0.200000  0.000000  0.133333    0.00029630  33 t-inv F
  0.000000 -0.200000  0.133333    0.00029630  33 t-inv F
  0.133333 -0.200000  0.000000    0.00029630  33 t-inv F
  0.133333  0.000000 -0.200000    0.00029630  33 t-inv F
  0.000000  0.133333 -0.200000    0.00029630  33 t-inv F
 -0.133333  0.000000  0.133333    0.00029630  34 t-inv F
  0.000000 -0.133333  0.133333    0.00029630  34 t-inv F
  0.133333 -0.133333  0.000000    0.00029630  34 t-inv F
  0.133333  0.000000 -0.133333    0.00029630  34 t-inv F
  0.000000  0.133333 -0.133333    0.00029630  34 t-inv F
  0.200000  0.000000  0.200000    0.00029630  35 t-inv F
  0.000000  0.200000  0.200000    0.00029630  35 t-inv F
  0.266667  0.000000  0.200000    0.00029630  36 t-inv F
  0.000000  0.266667  0.200000    0.00029630  36 t-inv F
  0.200000  0.266667  0.000000    0.00029630  36 t-inv F
  0.200000  0.000000  0.266667    0.00029630  36 t-inv F
  0.000000  0.200000  0.266667    0.00029630  36 t-inv F
  0.333333  0.000000  0.200000    0.00029630  37 t-inv F
  0.000000  0.333333  0.200000    0.00029630  37 t-inv F
  0.200000  0.333333  0.000000    0.00029630  37 t-inv F
  0.200000  0.000000  0.333333    0.00029630  37 t-inv F
  0.000000  0.200000  0.333333    0.00029630  37 t-inv F
  0.400000  0.000000  0.200000    0.00029630  38 t-inv F
  0.000000  0.400000  0.200000    0.00029630  38 t-inv F
  0.200000  0.400000  0.000000    0.00029630  38 t-inv F
  0.200000  0.000000  0.400000    0.00029630  38 t-inv F
  0.000000  0.200000  0.400000    0.00029630  38 t-inv F
  0.466667  0.000000  0.200000    0.00029630  39 t-inv F
  0.000000  0.466667  0.200000    0.00029630  39 t-inv F
  0.200000  0.466667  0.000000    0.00029630  39 t-inv F
  0.200000  0.000000  0.466667    0.00029630  39 t-inv F
  0.000000  0.200000  0.466667    0.00029630  39 t-inv F
 -0.466667  0.000000  0.200000    0.00029630  40 t-inv F
  0.000000 -0.466667  0.200000    0.00029630  40 t-inv F
  0.200000 -0.466667  0.000000    0.00029630  40 t-inv F
  0.200000  0.000000 -0.466667    0.00029630  40 t-inv F
  0.000000  0.200000 -0.466667    0.00029630  40 t-inv F
 -0.400000  0.000000  0.200000    0.00029630  41 t-inv F
  0.000000 -0.400000  0.200000    0.00029630  41 t-inv F
  0.200000 -0.400000  0.000000    0.00029630  41 t-inv F
  0.200000  0.000000 -0.400000    0.00029630  41 t-inv F
  0.000000  0.200000 -0.400000    0.00029630  41 t-inv F
 -0.333333  0.000000  0.200000    0.00029630  42 t-inv F
  0.000000 -0.333333  0.200000    0.00029630  42 t-inv F
  0.200000 -0.333333  0.000000    0.00029630  42 t-inv F
  0.200000  0.000000 -0.333333    0.00029630  42 t-inv F
  0.000000  0.200000 -0.333333    0.00029630  42 t-inv F
 -0.266667  0.000000  0.200000    0.00029630  43 t-inv F
  0.000000 -0.266667  0.200000    0.00029630  43 t-inv F
  0.200000 -0.266667  0.000000    0.00029630  43 t-inv F
  0.200000  0.000000 -0.266667    0.00029630  43 t-inv F
  0.000000  0.200000 -0.266667    0.00029630  43 t-inv F
 -0.200000  0.000000  0.200000    0.00029630  44 t-inv F
  0.000000 -0.200000  0.200000    0.00029630  44 t-inv F
  0.200000 -0.200000  0.000000    0.00029630  44 t-inv F
  0.200000  0.000000 -0.200000    0.00029630  44 t-inv F
  0.000000  0.200000 -0.200000    0.00029630  44 t-inv F
  0.266667  0.000000  0.266667    0.00029630  45 t-inv F
  0.000000  0.266667  0.266667    0.00029630  45 t-inv F
  0.333333  0.000000  0.266667    0.00029630  46 t-inv F
  0.000000  0.333333  0.266667    0.00029630  46 t-inv F
  0.266667  0.333333  0.000000    0.00029630  46 t-inv F
  0.266667  0.000000  0.333333    0.00029630  46 t-inv F
  0.000000  0.266667  0.333333    0.00029630  46 t-inv F
  0.400000  0.000000  0.266667    0.00029630  47 t-inv F
  0.000000  0.400000  0.266667    0.00029630  47 t-inv F
  0.266667  0.400000  0.000000    0.00029630  47 t-inv F
  0.266667  0.000000  0.400000    0.00029630  47 t-inv F
  0.000000  0.266667  0.400000    0.00029630  47 t-inv F
  0.466667  0.000000  0.266667    0.00029630  48 t-inv F
  0.000000  0.466667  0.266667    0.00029630  48 t-inv F
  0.266667  0.466667  0.000000    0.00029630  48 t-inv F
  0.266667  0.000000  0.466667    0.00029630  48 t-inv F
  0.000000  0.266667  0.466667    0.00029630  48 t-inv F
 -0.466667  0.000000  0.266667    0.00029630  49 t-inv F
  0.000000 -0.466667  0.266667    0.00029630  49 t-inv F
  0.266667 -0.466667  0.000000    0.00029630  49 t-inv F
  0.266667  0.000000 -0.466667    0.00029630  49 t-inv F
  0.000000  0.266667 -0.466667    0.00029630  49 t-inv F
 -0.400000  0.000000  0.266667    0.00029630  50 t-inv F
  0.000000 -0.400000  0.266667    0.00029630  50 t-inv F
  0.266667 -0.400000  0.000000    0.00029630  50 t-inv F
  0.266667  0.000000 -0.400000    0.00029630  50 t-inv F
  0.000000  0.266667 -0.400000    0.00029630  50 t-inv F
 -0.333333  0.000000  0.266667    0.00029630  51 t-inv F
  0.000000 -0.333333  0.266667    0.00029630  51 t-inv F
  0.266667 -0.333333  0.000000    0.00029630  51 t-inv F
  0.266667  0.000000 -0.333333    0.00029630  51 t-inv F
  0.000000  0.266667 -0.333333    0.00029630  51 t-inv F
 -0.266667  0.000000  0.266667    0.00029630  52 t-inv F
  0.000000 -0.266667  0.266667    0.00029630  52 t-inv F
  0.266667 -0.266667  0.000000    0.00029630  52 t-inv F
  0.266667  0.000000 -0.266667    0.00029630  52 t-inv F
  0.000000  0.266667 -0.266667    0.00029630  52 t-inv F
  0.333333  0.000000  0.333333    0.00029630  53 t-inv F
  0.000000  0.333333  0.333333    0.00029630  53 t-inv F
  0.400000  0.000000  0.333333    0.00029630  54 t-inv F
  0.000000  0.400000  0.333333    0.00029630  54 t-inv F
  0.333333  0.400000  0.000000    0.00029630  54 t-inv F
  0.333333  0.000000  0.400000    0.00029630  54 t-inv F
  0.000000  0.333333  0.400000    0.00029630  54 t-inv F
  0.466667  0.000000  0.333333    0.00029630  55 t-inv F
  0.000000  0.466667  0.333333    0.00029630  55 t-inv F
  0.333333  0.466667  0.000000    0.00029630  55 t-inv F
  0.333333  0.000000  0.466667    0.00029630  55 t-inv F
  0.000000  0.333333  0.466667    0.00029630  55 t-inv F
 -0.466667  0.000000  0.333333    0.00029630  56 t-inv F
  0.000000 -0.466667  0.333333    0.00029630  56 t-inv F
  0.333333 -0.466667  0.000000    0.00029630  56 t-inv F
  0.333333  0.000000 -0.466667    0.00029630  56 t-inv F
  0.000000  0.333333 -0.466667    0.00029630  56 t-inv F
 -0.400000  0.000000  0.333333    0.00029630  57 t-inv F
  0.000000 -0.400000  0.333333    0.00029630  57 t-inv F
  0.333333 -0.400000  0.000000    0.00029630  57 t-inv F
  0.333333  0.000000 -0.400000    0.00029630  57 t-inv F
  0.000000  0.333333 -0.400000    0.00029630  57 t-inv F
 -0.333333  0.000000  0.333333    0.00029630  58 t-inv F
  0.000000 -0.333333  0.333333    0.00029630  58 t-inv F
  0.333333 -0.333333  0.000000    0.00029630  58 t-inv F
  0.333333  0.000000 -0.333333    0.00029630  58 t-inv F
  0.000000  0.333333 -0.333333    0.00029630  58 t-inv F
  0.400000  0.000000  0.400000    0.00029630  59 t-inv F
  0.000000  0.400000  0.400000    0.00029630  59 t-inv F
  0.466667  0.000000  0.400000    0.00029630  60 t-inv F
  0.000000  0.466667  0.400000    0.00029630  60 t-inv F
  0.400000  0.466667  0.000000    0.00029630  60 t-inv F
  0.400000  0.000000  0.466667    0.00029630  60 t-inv F
  0.000000  0.400000  0.466667    0.00029630  60 t-inv F
 -0.466667  0.000000  0.400000    0.00029630  61 t-inv F
  0.000000 -0.466667  0.400000    0.00029630  61 t-inv F
  0.400000 -0.466667  0.000000    0.00029630  61 t-inv F
  0.400000  0.000000 -0.466667    0.00029630  61 t-inv F
  0.000000  0.400000 -0.466667    0.00029630  61 t-inv F
 -0.400000  0.000000  0.400000    0.00029630  62 t-inv F
  0.000000 -0.400000  0.400000    0.00029630  62 t-inv F
  0.400000 -0.400000  0.000000    0.00029630  62 t-inv F
  0.400000  0.000000 -0.400000    0.00029630  62 t-inv F
  0.000000  0.400000 -0.400000    0.00029630  62 t-inv F
  0.466667  0.000000  0.466667    0.00029630  63 t-inv F
  0.000000  0.466667  0.466667    0.00029630  63 t-inv F
 -0.466667  0.000000  0.466667    0.00029630  64 t-inv F
  0.000000 -0.466667  0.466667    0.00029630  64 t-inv F
  0.466667 -0.466667  0.000000    0.00029630  64 t-inv F
  0.466667  0.000000 -0.466667    0.00029630  64 t-inv F
  0.000000  0.466667 -0.466667    0.00029630  64 t-inv F
  0.066667  0.133333  0.066667    0.00029630  66 t-inv F
  0.066667  0.066667  0.133333    0.00029630  66 t-inv F
  0.066667  0.200000  0.066667    0.00029630  67 t-inv F
  0.066667  0.066667  0.200000    0.00029630  67 t-inv F
  0.066667  0.266667  0.066667    0.00029630  68 t-inv F
  0.066667  0.066667  0.266667    0.00029630  68 t-inv F
  0.066667  0.333333  0.066667    0.00029630  69 t-inv F
  0.066667  0.066667  0.333333    0.00029630  69 t-inv F
  0.066667  0.400000  0.066667    0.00029630  70 t-inv F
  0.066667  0.066667  0.400000    0.00029630  70 t-inv F
  0.066667  0.466667  0.066667    0.00029630  71 t-inv F
  0.066667  0.066667  0.466667    0.00029630  71 t-inv F
  0.066667 -0.466667  0.066667    0.00029630  72 t-inv F
  0.066667  0.066667 -0.466667    0.00029630  72 t-inv F
  0.066667 -0.400000  0.066667    0.00029630  73 t-inv F
  0.066667  0.066667 -0.400000    0.00029630  73 t-inv F
  0.066667 -0.333333  0.066667    0.00029630  74 t-inv F
  0.066667  0.066667 -0.333333    0.00029630  74 t-inv F
  0.066667 -0.266667  0.066667    0.00029630  75 t-inv F
  0.066667  0.066667 -0.266667    0.00029630  75 t-inv F
  0.066667 -0.200000  0.066667    0.00029630  76 t-inv F
  0.066667  0.066667 -0.200000    0.00029630  76 t-inv F
  0.066667 -0.133333  0.066667    0.00029630  77 t-inv F
  0.066667  0.066667 -0.133333    0.00029630  77 t-inv F
  0.066667 -0.066667  0.066667    0.00029630  78 t-inv F
  0.066667  0.066667 -0.066667    0.00029630  78 t-inv F
  0.133333  0.066667  0.133333    0.00029630  79 t-inv F
  0.066667  0.133333  0.133333    0.00029630  79 t-inv F
  0.200000  0.066667  0.133333    0.00029630  80 t-inv F
  0.066667  0.200000  0.133333    0.00029630  80 t-inv F
  0.133333  0.200000  0.066667    0.00029630  80 t-inv F
  0.133333  0.066667  0.200000    0.00029630  80 t-inv F
  0.066667  0.133333  0.200000    0.00029630  80 t-inv F
  0.266667  0.066667  0.133333    0.00029630  81 t-inv F
  0.066667  0.266667  0.133333    0.00029630  81 t-inv F
  0.133333  0.266667  0.066667    0.00029630  81 t-inv F
  0.133333  0.066667  0.266667    0.00029630  81 t-inv F
  0.066667  0.133333  0.266667    0.00029630  81 t-inv F
  0.333333  0.066667  0.133333    0.00029630  82 t-inv F
  0.066667  0.333333  0.133333    0.00029630  82 t-inv F
  0.133333  0.333333  0.066667    0.00029630  82 t-inv F
  0.133333  0.066667  0.333333    0.00029630  82 t-inv F
  0.066667  0.133333  0.333333    0.00029630  82 t-inv F
  0.400000  0.066667  0.133333    0.00029630  83 t-inv F
  0.066667  0.400000  0.133333    0.00029630  83 t-inv F
  0.133333  0.400000  0.066667    0.00029630  83 t-inv F
  0.133333  0.066667  0.400000    0.00029630  83 t-inv F
  0.066667  0.133333  0.400000    0.00029630  83 t-inv F
  0.466667  0.066667  0.133333    0.00029630  84 t-inv F
  0.066667  0.466667  0.133333    0.00029630  84 t-inv F
  0.133333  0.466667  0.066667    0.00029630  84 t-inv F
  0.133333  0.066667  0.466667    0.00029630  84 t-inv F
  0.066667  0.133333  0.466667    0.00029630  84 t-inv F
 -0.466667  0.066667  0.133333    0.00029630  85 t-inv F
  0.066667 -0.466667  0.133333    0.00029630  85 t-inv F
  0.133333 -0.466667  0.066667    0.00029630  85 t-inv F
  0.133333  0.066667 -0.466667    0.00029630  85 t-inv F
  0.066667  0.133333 -0.466667    0.00029630  85 t-inv F
 -0.400000  0.066667  0.133333    0.00029630  86 t-inv F
  0.066667 -0.400000  0.133333    0.00029630  86 t-inv F
  0.133333 -0.400000  0.066667    0.00029630  86 t-inv F
  0.133333  0.066667 -0.400000    0.00029630  86 t-inv F
  0.066667  0.133333 -0.400000    0.00029630  86 t-inv F
 -0.333333  0.066667  0.133333    0.00029630  87 t-inv F
  0.066667 -0.333333  0.133333    0.00029630  87 t-inv F
  0.133333 -0.333333  0.066667    0.00029630  87 t-inv F
  0.133333  0.066667 -0.333333    0.00029630  87 t-inv F
  0.066667  0.133333 -0.333333    0.00029630  87 t-inv F
 -0.266667  0.066667  0.133333    0.00029630  88 t-inv F
  0.066667 -0.266667  0.133333    0.00029630  88 t-inv F
  0.133333 -0.266667  0.066667    0.00029630  88 t-inv F
  0.133333  0.066667 -0.266667    0.00029630  88 t-inv F
  0.066667  0.133333 -0.266667    0.00029630  88 t-inv F
 -0.200000  0.066667  0.133333    0.00029630  89 t-inv F
  0.066667 -0.200000  0.133333    0.00029630  89 t-inv F
  0.133333 -0.200000  0.066667    0.00029630  89 t-inv F
  0.133333  0.066667 -0.200000    0.00029630  89 t-inv F
  0.066667  0.133333 -0.200000    0.00029630  89 t-inv F
 -0.133333  0.066667  0.133333    0.00029630  90 t-inv F
  0.066667 -0.133333  0.133333    0.00029630  90 t-inv F
  0.133333 -0.133333  0.066667    0.00029630  90 t-inv F
  0.133333  0.066667 -0.133333    0.00029630  90 t-inv F
  0.066667  0.133333 -0.133333    0.00029630  90 t-inv F
 -0.066667  0.066667  0.133333    0.00029630  91 t-inv F
  0.066667 -0.066667  0.133333    0.00029630  91 t-inv F
  0.133333 -0.066667  0.066667    0.00029630  91 t-inv F
  0.133333  0.066667 -0.066667    0.00029630  91 t-inv F
  0.066667  0.133333 -0.066667    0.00029630  91 t-inv F
  0.200000  0.066667  0.200000    0.00029630  92 t-inv F
  0.066667  0.200000  0.200000    0.00029630  92 t-inv F
  0.266667  0.066667  0.200000    0.00029630  93 t-inv F
  0.066667  0.266667  0.200000    0.00029630  93 t-inv F
  0.200000  0.266667  0.066667    0.00029630  93 t-inv F
  0.200000  0.066667  0.266667    0.00029630  93 t-inv F
  0.066667  0.200000  0.266667    0.00029630  93 t-inv F
  0.333333  0.066667  0.200000    0.00029630  94 t-inv F
  0.066667  0.333333  0.200000    0.00029630  94 t-inv F
  0.200000  0.333333  0.066667    0.00029630  94 t-inv F
  0.200000  0.066667  0.333333    0.00029630  94 t-inv F
  0.066667  0.200000  0.333333    0.00029630  94 t-inv F
  0.400000  0.066667  0.200000    0.00029630  95 t-inv F
  0.066667  0.400000  0.200000    0.00029630  95 t-inv F
  0.200000  0.400000  0.066667    0.00029630  95 t-inv F
  0.200000  0.066667  0.400000    0.00029630  95 t-inv F
  0.066667  0.200000  0.400000    0.00029630  95 t-inv F
  0.466667  0.066667  0.200000    0.00029630  96 t-inv F
  0.066667  0.466667  0.200000    0.00029630  96 t-inv F
  0.200000  0.466667  0.066667    0.00029630  96 t-inv F
  0.200000  0.066667  0.466667    0.00029630  96 t-inv F
  0.066667  0.200000  0.466667    0.00029630  96 t-inv F
 -0.466667  0.066667  0.200000    0.00029630  97 t-inv F
  0.066667 -0.466667  0.200000    0.00029630  97 t-inv F
  0.200000 -0.466667  0.066667    0.00029630  97 t-inv F
  0.200000  0.066667 -0.466667    0.00029630  97 t-inv F
  0.066667  0.200000 -0.466667    0.00029630  97 t-inv F
 -0.400000  0.066667  0.200000    0.00029630  98 t-inv F
  0.066667 -0.400000  0.200000    0.00029630  98 t-inv F
  0.200000 -0.400000  0.066667    0.00029630  98 t-inv F
  0.200000  0.066667 -0.400000    0.00029630  98 t-inv F
  0.066667  0.200000 -0.400000    0.00029630  98 t-inv F
 -0.333333  0.066667  0.200000    0.00029630  99 t-inv F
  0.066667 -0.333333  0.200000    0.00029630  99 t-inv F
  0.200000 -0.333333  0.066667    0.00029630  99 t-inv F
  0.200000  0.066667 -0.333333    0.00029630  99 t-inv F
  0.066667  0.200000 -0.333333    0.00029630  99 t-inv F
 -0.266667  0.066667  0.200000    0.00029630 100 t-inv F
  0.066667 -0.266667  0.200000    0.00029630 100 t-inv F
  0.200000 -0.266667  0.066667    0.00029630 100 t-inv F
  0.200000  0.066667 -0.266667    0.00029630 100 t-inv F
  0.066667  0.200000 -0.266667    0.00029630 100 t-inv F
 -0.200000  0.066667  0.200000    0.00029630 101 t-inv F
  0.066667 -0.200000  0.200000    0.00029630 101 t-inv F
  0.200000 -0.200000  0.066667    0.00029630 101 t-inv F
  0.200000  0.066667 -0.200000    0.00029630 101 t-inv F
  0.066667  0.200000 -0.200000    0.00029630 101 t-inv F
 -0.133333  0.066667  0.200000    0.00029630 102 t-inv F
  0.066667 -0.133333  0.200000    0.00029630 102 t-inv F
  0.200000 -0.133333  0.066667    0.00029630 102 t-inv F
  0.200000  0.066667 -0.133333    0.00029630 102 t-inv F
  0.066667  0.200000 -0.133333    0.00029630 102 t-inv F
 -0.066667  0.066667  0.200000    0.00029630 103 t-inv F
  0.066667 -0.066667  0.200000    0.00029630 103 t-inv F
  0.200000 -0.066667  0.066667    0.00029630 103 t-inv F
  0.200000  0.066667 -0.066667    0.00029630 103 t-inv F
  0.066667  0.200000 -0.066667    0.00029630 103 t-inv F
  0.266667  0.066667  0.266667    0.00029630 104 t-inv F
  0.066667  0.266667  0.266667    0.00029630 104 t-inv F
  0.333333  0.066667  0.266667    0.00029630 105 t-inv F
  0.066667  0.333333  0.266667    0.00029630 105 t-inv F
  0.266667  0.333333  0.066667    0.00029630 105 t-inv F
  0.266667  0.066667  0.333333    0.00029630 105 t-inv F
  0.066667  0.266667  0.333333    0.00029630 105 t-inv F
  0.400000  0.066667  0.266667    0.00029630 106 t-inv F
  0.066667  0.400000  0.266667    0.00029630 106 t-inv F
  0.266667  0.400000  0.066667    0.00029630 106 t-inv F
  0.266667  0.066667  0.400000    0.00029630 106 t-inv F
  0.066667  0.266667  0.400000    0.00029630 106 t-inv F
  0.466667  0.066667  0.266667    0.00029630 107 t-inv F
  0.066667  0.466667  0.266667    0.00029630 107 t-inv F
  0.266667  0.466667  0.066667    0.00029630 107 t-inv F
  0.266667  0.066667  0.466667    0.00029630 107 t-inv F
  0.066667  0.266667  0.466667    0.00029630 107 t-inv F
 -0.466667  0.066667  0.266667    0.00029630 108 t-inv F
  0.066667 -0.466667  0.266667    0.00029630 108 t-inv F
  0.266667 -0.466667  0.066667    0.00029630 108 t-inv F
  0.266667  0.066667 -0.466667    0.00029630 108 t-inv F
  0.066667  0.266667 -0.466667    0.00029630 108 t-inv F
 -0.400000  0.066667  0.266667    0.00029630 109 t-inv F
  0.066667 -0.400000  0.266667    0.00029630 109 t-inv F
  0.266667 -0.400000  0.066667    0.00029630 109 t-inv F
  0.266667  0.066667 -0.400000    0.00029630 109 t-inv F
  0.066667  0.266667 -0.400000    0.00029630 109 t-inv F
 -0.333333  0.066667  0.266667    0.00029630 110 t-inv F
  0.066667 -0.333333  0.266667    0.00029630 110 t-inv F
  0.266667 -0.333333  0.066667    0.00029630 110 t-inv F
  0.266667  0.066667 -0.333333    0.00029630 110 t-inv F
  0.066667  0.266667 -0.333333    0.00029630 110 t-inv F
 -0.266667  0.066667  0.266667    0.00029630 111 t-inv F
  0.066667 -0.266667  0.266667    0.00029630 111 t-inv F
  0.266667 -0.266667  0.066667    0.00029630 111 t-inv F
  0.266667  0.066667 -0.266667    0.00029630 111 t-inv F
  0.066667  0.266667 -0.266667    0.00029630 111 t-inv F
 -0.200000  0.066667  0.266667    0.00029630 112 t-inv F
  0.066667 -0.200000  0.266667    0.00029630 112 t-inv F
  0.266667 -0.200000  0.066667    0.00029630 112 t-inv F
  0.266667  0.066667 -0.200000    0.00029630 112 t-inv F
  0.066667  0.266667 -0.200000    0.00029630 112 t-inv F
 -0.133333  0.066667  0.266667    0.00029630 113 t-inv F
  0.066667 -0.133333  0.266667    0.00029630 113 t-inv F
  0.266667 -0.133333  0.066667    0.00029630 113 t-inv F
  0.266667  0.066667 -0.133333    0.00029630 113 t-inv F
  0.066667  0.266667 -0.133333    0.00029630 113 t-inv F
 -0.066667  0.066667  0.266667    0.00029630 114 t-inv F
  0.066667 -0.066667  0.266667    0.00029630 114 t-inv F
  0.266667 -0.066667  0.066667    0.00029630 114 t-inv F
  0.266667  0.066667 -0.066667    0.00029630 114 t-inv F
  0.066667  0.266667 -0.066667    0.00029630 114 t-inv F
  0.333333  0.066667  0.333333    0.00029630 115 t-inv F
  0.066667  0.333333  0.333333    0.00029630 115 t-inv F
  0.400000  0.066667  0.333333    0.00029630 116 t-inv F
  0.066667  0.400000  0.333333    0.00029630 116 t-inv F
  0.333333  0.400000  0.066667    0.00029630 116 t-inv F
  0.333333  0.066667  0.400000    0.00029630 116 t-inv F
  0.066667  0.333333  0.400000    0.00029630 116 t-inv F
  0.466667  0.066667  0.333333    0.00029630 117 t-inv F
  0.066667  0.466667  0.333333    0.00029630 117 t-inv F
  0.333333  0.466667  0.066667    0.00029630 117 t-inv F
  0.333333  0.066667  0.466667    0.00029630 117 t-inv F
  0.066667  0.333333  0.466667    0.00029630 117 t-inv F
 -0.466667  0.066667  0.333333    0.00029630 118 t-inv F
  0.066667 -0.466667  0.333333    0.00029630 118 t-inv F
  0.333333 -0.466667  0.066667    0.00029630 118 t-inv F
  0.333333  0.066667 -0.466667    0.00029630 118 t-inv F
  0.066667  0.333333 -0.466667    0.00029630 118 t-inv F
 -0.400000  0.066667  0.333333    0.00029630 119 t-inv F
  0.066667 -0.400000  0.333333    0.00029630 119 t-inv F
  0.333333 -0.400000  0.066667    0.00029630 119 t-inv F
  0.333333  0.066667 -0.400000    0.00029630 119 t-inv F
  0.066667  0.333333 -0.400000    0.00029630 119 t-inv F
 -0.333333  0.066667  0.333333    0.00029630 120 t-inv F
  0.066667 -0.333333  0.333333    0.00029630 120 t-inv F
  0.333333 -0.333333  0.066667    0.00029630 120 t-inv F
  0.333333  0.066667 -0.333333    0.00029630 120 t-inv F
  0.066667  0.333333 -0.333333    0.00029630 120 t-inv F
 -0.266667  0.066667  0.333333    0.00029630 121 t-inv F
  0.066667 -0.266667  0.333333    0.00029630 121 t-inv F
  0.333333 -0.266667  0.066667    0.00029630 121 t-inv F
  0.333333  0.066667 -0.266667    0.00029630 121 t-inv F
  0.066667  0.333333 -0.266667    0.00029630 121 t-inv F
 -0.200000  0.066667  0.333333    0.00029630 122 t-inv F
  0.066667 -0.200000  0.333333    0.00029630 122 t-inv F
  0.333333 -0.200000  0.066667    0.00029630 122 t-inv F
  0.333333  0.066667 -0.200000    0.00029630 122 t-inv F
  0.066667  0.333333 -0.200000    0.00029630 122 t-inv F
 -0.133333  0.066667  0.333333    0.00029630 123 t-inv F
  0.066667 -0.133333  0.333333    0.00029630 123 t-inv F
  0.333333 -0.133333  0.066667    0.00029630 123 t-inv F
  0.333333  0.066667 -0.133333    0.00029630 123 t-inv F
  0.066667  0.333333 -0.133333    0.00029630 123 t-inv F
 -0.066667  0.066667  0.333333    0.00029630 124 t-inv F
  0.066667 -0.066667  0.333333    0.00029630 124 t-inv F
  0.333333 -0.066667  0.066667    0.00029630 124 t-inv F
  0.333333  0.066667 -0.066667    0.00029630 124 t-inv F
  0.066667  0.333333 -0.066667    0.00029630 124 t-inv F
  0.400000  0.066667  0.400000    0.00029630 125 t-inv F
  0.066667  0.400000  0.400000    0.00029630 125 t-inv F
  0.466667  0.066667  0.400000    0.00029630 126 t-inv F
  0.066667  0.466667  0.400000    0.00029630 126 t-inv F
  0.400000  0.466667  0.066667    0.00029630 126 t-inv F
  0.400000  0.066667  0.466667    0.00029630 126 t-inv F
  0.066667  0.400000  0.466667    0.00029630 126 t-inv F
 -0.466667  0.066667  0.400000    0.00029630 127 t-inv F
  0.066667 -0.466667  0.400000    0.00029630 127 t-inv F
  0.400000 -0.466667  0.066667    0.00029630 127 t-inv F
  0.400000  0.066667 -0.466667    0.00029630 127 t-inv F
  0.066667  0.400000 -0.466667    0.00029630 127 t-inv F
 -0.400000  0.066667  0.400000    0.00029630 128 t-inv F
  0.066667 -0.400000  0.400000    0.00029630 128 t-inv F
  0.400000 -0.400000  0.066667    0.00029630 128 t-inv F
  0.400000  0.066667 -0.400000    0.00029630 128 t-inv F
  0.066667  0.400000 -0.400000    0.00029630 128 t-inv F
 -0.333333  0.066667  0.400000    0.00029630 129 t-inv F
  0.066667 -0.333333  0.400000    0.00029630 129 t-inv F
  0.400000 -0.333333  0.066667    0.00029630 129 t-inv F
  0.400000  0.066667 -0.333333    0.00029630 129 t-inv F
  0.066667  0.400000 -0.333333    0.00029630 129 t-inv F
 -0.266667  0.066667  0.400000    0.00029630 130 t-inv F
  0.066667 -0.266667  0.400000    0.00029630 130 t-inv F
  0.400000 -0.266667  0.066667    0.00029630 130 t-inv F
  0.400000  0.066667 -0.266667    0.00029630 130 t-inv F
  0.066667  0.400000 -0.266667    0.00029630 130 t-inv F
 -0.200000  0.066667  0.400000    0.00029630 131 t-inv F
  0.066667 -0.200000  0.400000    0.00029630 131 t-inv F
  0.400000 -0.200000  0.066667    0.00029630 131 t-inv F
  0.400000  0.066667 -0.200000    0.00029630 131 t-inv F
  0.066667  0.400000 -0.200000    0.00029630 131 t-inv F
 -0.133333  0.066667  0.400000    0.00029630 132 t-inv F
  0.066667 -0.133333  0.400000    0.00029630 132 t-inv F
  0.400000 -0.133333  0.066667    0.00029630 132 t-inv F
  0.400000  0.066667 -0.133333    0.00029630 132 t-inv F
  0.066667  0.400000 -0.133333    0.00029630 132 t-inv F
 -0.066667  0.066667  0.400000    0.00029630 133 t-inv F
  0.066667 -0.066667  0.400000    0.00029630 133 t-inv F
  0.400000 -0.066667  0.066667    0.00029630 133 t-inv F
  0.400000  0.066667 -0.066667    0.00029630 133 t-inv F
  0.066667  0.400000 -0.066667    0.00029630 133 t-inv F
  0.466667  0.066667  0.466667    0.00029630 134 t-inv F
  0.066667  0.466667  0.466667    0.00029630 134 t-inv F
 -0.466667  0.066667  0.466667    0.00029630 135 t-inv F
  0.066667 -0.466667  0.466667    0.00029630 135 t-inv F
  0.466667 -0.466667  0.066667    0.00029630 135 t-inv F
  0.466667  0.066667 -0.466667    0.00029630 135 t-inv F
  0.066667  0.466667 -0.466667    0.00029630 135 t-inv F
 -0.400000  0.066667  0.466667    0.00029630 136 t-inv F
  0.066667 -0.400000  0.466667    0.00029630 136 t-inv F
  0.466667 -0.400000  0.066667    0.00029630 136 t-inv F
  0.466667  0.066667 -0.400000    0.00029630 136 t-inv F
  0.066667  0.466667 -0.400000    0.00029630 136 t-inv F
 -0.333333  0.066667  0.466667    0.00029630 137 t-inv F
  0.066667 -0.333333  0.466667    0.00029630 137 t-inv F
  0.466667 -0.333333  0.066667    0.00029630 137 t-inv F
  0.466667  0.066667 -0.333333    0.00029630 137 t-inv F
  0.066667  0.466667 -0.333333    0.00029630 137 t-inv F
 -0.266667  0.066667  0.466667    0.00029630 138 t-inv F
  0.066667 -0.266667  0.466667    0.00029630 138 t-inv F
  0.466667 -0.266667  0.066667    0.00029630 138 t-inv F
  0.466667  0.066667 -0.266667    0.00029630 138 t-inv F
  0.066667  0.466667 -0.266667    0.00029630 138 t-inv F
 -0.200000  0.066667  0.466667    0.00029630 139 t-inv F
  0.066667 -0.200000  0.466667    0.00029630 139 t-inv F
  0.466667 -0.200000  0.066667    0.00029630 139 t-inv F
  0.466667  0.066667 -0.200000    0.00029630 139 t-inv F
  0.066667  0.466667 -0.200000    0.00029630 139 t-inv F
 -0.133333  0.066667  0.466667    0.00029630 140 t-inv F
  0.066667 -0.133333  0.466667    0.00029630 140 t-inv F
  0.466667 -0.133333  0.066667    0.00029630 140 t-inv F
  0.466667  0.066667 -0.133333    0.00029630 140 t-inv F
  0.066667  0.466667 -0.133333    0.00029630 140 t-inv F
 -0.066667  0.066667  0.466667    0.00029630 141 t-inv F
  0.066667 -0.066667  0.466667    0.00029630 141 t-inv F
  0.466667 -0.066667  0.066667    0.00029630 141 t-inv F
  0.466667  0.066667 -0.066667    0.00029630 141 t-inv F
  0.066667  0.466667 -0.066667    0.00029630 141 t-inv F
 -0.466667  0.066667 -0.466667    0.00029630 142 t-inv F
  0.066667 -0.466667 -0.466667    0.00029630 142 t-inv F
 -0.400000  0.066667 -0.466667    0.00029630 143 t-inv F
  0.066667 -0.400000 -0.466667    0.00029630 143 t-inv F
 -0.466667 -0.400000  0.066667    0.00029630 143 t-inv F
 -0.466667  0.066667 -0.400000    0.00029630 143 t-inv F
  0.066667 -0.466667 -0.400000    0.00029630 143 t-inv F
 -0.333333  0.066667 -0.466667    0.00029630 144 t-inv F
  0.066667 -0.333333 -0.466667    0.00029630 144 t-inv F
 -0.466667 -0.333333  0.066667    0.00029630 144 t-inv F
 -0.466667  0.066667 -0.333333    0.00029630 144 t-inv F
  0.066667 -0.466667 -0.333333    0.00029630 144 t-inv F
 -0.266667  0.066667 -0.466667    0.00029630 145 t-inv F
  0.066667 -0.266667 -0.466667    0.00029630 145 t-inv F
 -0.466667 -0.266667  0.066667    0.00029630 145 t-inv F
 -0.466667  0.066667 -0.266667    0.00029630 145 t-inv F
  0.066667 -0.466667 -0.266667    0.00029630 145 t-inv F
 -0.200000  0.066667 -0.466667    0.00029630 146 t-inv F
  0.066667 -0.200000 -0.466667    0.00029630 146 t-inv F
 -0.466667 -0.200000  0.066667    0.00029630 146 t-inv F
 -0.466667  0.066667 -0.200000    0.00029630 146 t-inv F
  0.066667 -0.466667 -0.200000    0.00029630 146 t-inv F
 -0.133333  0.066667 -0.466667    0.00029630 147 t-inv F
  0.066667 -0.133333 -0.466667    0.00029630 147 t-inv F
 -0.466667 -0.133333  0.066667    0.00029630 147 t-inv F
 -0.466667  0.066667 -0.133333    0.00029630 147 t-inv F
  0.066667 -0.466667 -0.133333    0.00029630 147 t-inv F
 -0.400000  0.066667 -0.400000    0.00029630 148 t-inv F
  0.066667 -0.400000 -0.400000    0.00029630 148 t-inv F
 -0.333333  0.066667 -0.400000    0.00029630 149 t-inv F
  0.066667 -0.333333 -0.400000    0.00029630 149 t-inv F
 -0.400000 -0.333333  0.066667    0.00029630 149 t-inv F
 -0.400000  0.066667 -0.333333    0.00029630 149 t-inv F
  0.066667 -0.400000 -0.333333    0.00029630 149 t-inv F
 -0.266667  0.066667 -0.400000    0.00029630 150 t-inv F
  0.066667 -0.266667 -0.400000    0.00029630 150 t-inv F
 -0.400000 -0.266667  0.066667    0.00029630 150 t-inv F
 -0.400000  0.066667 -0.266667    0.00029630 150 t-inv F
  0.066667 -0.400000 -0.266667    0.00029630 150 t-inv F
 -0.200000  0.066667 -0.400000    0.00029630 151 t-inv F
  0.066667 -0.200000 -0.400000    0.00029630 151 t-inv F
 -0.400000 -0.200000  0.066667    0.00029630 151 t-inv F
 -0.400000  0.066667 -0.200000    0.00029630 151 t-inv F
  0.066667 -0.400000 -0.200000    0.00029630 151 t-inv F
 -0.133333  0.066667 -0.400000    0.00029630 152 t-inv F
  0.066667 -0.133333 -0.400000    0.00029630 152 t-inv F
 -0.400000 -0.133333  0.066667    0.00029630 152 t-inv F
 -0.400000  0.066667 -0.133333    0.00029630 152 t-inv F
  0.066667 -0.400000 -0.133333    0.00029630 152 t-inv F
 -0.333333  0.066667 -0.333333    0.00029630 153 t-inv F
  0.066667 -0.333333 -0.333333    0.00029630 153 t-inv F
 -0.266667  0.066667 -0.333333    0.00029630 154 t-inv F
  0.066667 -0.266667 -0.333333    0.00029630 154 t-inv F
 -0.333333 -0.266667  0.066667    0.00029630 154 t-inv F
 -0.333333  0.066667 -0.266667    0.00029630 154 t-inv F
  0.066667 -0.333333 -0.266667    0.00029630 154 t-inv F
 -0.200000  0.066667 -0.333333    0.00029630 155 t-inv F
  0.066667 -0.200000 -0.333333    0.00029630 155 t-inv F
 -0.333333 -0.200000  0.066667    0.00029630 155 t-inv F
 -0.333333  0.066667 -0.200000    0.00029630 155 t-inv F
  0.066667 -0.333333 -0.200000    0.00029630 155 t-inv F
 -0.133333  0.066667 -0.333333    0.00029630 156 t-inv F
  0.066667 -0.133333 -0.333333    0.00029630 156 t-inv F
 -0.333333 -0.133333  0.066667    0.00029630 156 t-inv F
 -0.333333  0.066667 -0.133333    0.00029630 156 t-inv F
  0.066667 -0.333333 -0.133333    0.00029630 156 t-inv F
 -0.266667  0.066667 -0.266667    0.00029630 157 t-inv F
  0.066667 -0.266667 -0.266667    0.00029630 157 t-inv F
 -0.200000  0.066667 -0.266667    0.00029630 158 t-inv F
  0.066667 -0.200000 -0.266667    0.00029630 158 t-inv F
 -0.266667 -0.200000  0.066667    0.00029630 158 t-inv F
 -0.266667  0.066667 -0.200000    0.00029630 158 t-inv F
  0.066667 -0.266667 -0.200000    0.00029630 158 t-inv F
 -0.133333  0.066667 -0.266667    0.00029630 159 t-inv F
  0.066667 -0.133333 -0.266667    0.00029630 159 t-inv F
 -0.266667 -0.133333  0.066667    0.00029630 159 t-inv F
 -0.266667  0.066667 -0.133333    0.00029630 159 t-inv F
  0.066667 -0.266667 -0.133333    0.00029630 159 t-inv F
 -0.200000  0.066667 -0.200000    0.00029630 160 t-inv F
  0.066667 -0.200000 -0.200000    0.00029630 160 t-inv F
 -0.133333  0.066667 -0.200000    0.00029630 161 t-inv F
  0.066667 -0.133333 -0.200000    0.00029630 161 t-inv F
 -0.200000 -0.133333  0.066667    0.00029630 161 t-inv F
 -0.200000  0.066667 -0.133333    0.00029630 161 t-inv F
  0.066667 -0.200000 -0.133333    0.00029630 161 t-inv F
 -0.133333  0.066667 -0.133333    0.00029630 162 t-inv F
  0.066667 -0.133333 -0.133333    0.00029630 162 t-inv F
  0.133333  0.200000  0.133333    0.00029630 164 t-inv F
  0.133333  0.133333  0.200000    0.00029630 164 t-inv F
  0.133333  0.266667  0.133333    0.00029630 165 t-inv F
  0.133333  0.133333  0.266667    0.00029630 165 t-inv F
  0.133333  0.333333  0.133333    0.00029630 166 t-inv F
  0.133333  0.133333  0.333333    0.00029630 166 t-inv F
  0.133333  0.400000  0.133333    0.00029630 167 t-inv F
  0.133333  0.133333  0.400000    0.00029630 167 t-inv F
  0.133333  0.466667  0.133333    0.00029630 168 t-inv F
  0.133333  0.133333  0.466667    0.00029630 168 t-inv F
  0.133333 -0.466667  0.133333    0.00029630 169 t-inv F
  0.133333  0.133333 -0.466667    0.00029630 169 t-inv F
  0.133333 -0.400000  0.133333    0.00029630 170 t-inv F
  0.133333  0.133333 -0.400000    0.00029630 170 t-inv F
  0.133333 -0.333333  0.133333    0.00029630 171 t-inv F
  0.133333  0.133333 -0.333333    0.00029630 171 t-inv F
  0.133333 -0.266667  0.133333    0.00029630 172 t-inv F
  0.133333  0.133333 -0.266667    0.00029630 172 t-inv F
  0.133333 -0.200000  0.133333    0.00029630 173 t-inv F
  0.133333  0.133333 -0.200000    0.00029630 173 t-inv F
  0.133333 -0.133333  0.133333    0.00029630 174 t-inv F
  0.133333  0.133333 -0.133333    0.00029630 174 t-inv F
  0.200000  0.133333  0.200000    0.00029630 175 t-inv F
  0.133333  0.200000  0.200000    0.00029630 175 t-inv F
  0.266667  0.133333  0.200000    0.00029630 176 t-inv F
  0.133333  0.266667  0.200000    0.00029630 176 t-inv F
  0.200000  0.266667  0.133333    0.00029630 176 t-inv F
  0.200000  0.133333  0.266667    0.00029630 176 t-inv F
  0.133333  0.200000  0.266667    0.00029630 176 t-inv F
  0.333333  0.133333  0.200000    0.00029630 177 t-inv F
  0.133333  0.333333  0.200000    0.00029630 177 t-inv F
  0.200000  0.333333  0.133333    0.00029630 177 t-inv F
  0.200000  0.133333  0.333333    0.00029630 177 t-inv F
  0.133333  0.200000  0.333333    0.00029630 177 t-inv F
  0.400000  0.133333  0.200000    0.00029630 178 t-inv F
  0.133333  0.400000  0.200000    0.00029630 178 t-inv F
  0.200000  0.400000  0.133333    0.00029630 178 t-inv F
  0.200000  0.133333  0.400000    0.00029630 178 t-inv F
  0.133333  0.200000  0.400000    0.00029630 178 t-inv F
  0.466667  0.133333  0.200000    0.00029630 179 t-inv F
  0.133333  0.466667  0.200000    0.00029630 179 t-inv F
  0.200000  0.466667  0.133333    0.00029630 179 t-inv F
  0.200000  0.133333  0.466667    0.00029630 179 t-inv F
  0.133333  0.200000  0.466667    0.00029630 179 t-inv F
 -0.466667  0.133333  0.200000    0.00029630 180 t-inv F
  0.133333 -0.466667  0.200000    0.00029630 180 t-inv F
  0.200000 -0.466667  0.133333    0.00029630 180 t-inv F
  0.200000  0.133333 -0.466667    0.00029630 180 t-inv F
  0.133333  0.200000 -0.466667    0.00029630 180 t-inv F
 -0.400000  0.133333  0.200000    0.00029630 181 t-inv F
  0.133333 -0.400000  0.200000    0.00029630 181 t-inv F
  0.200000 -0.400000  0.133333    0.00029630 181 t-inv F
  0.200000  0.133333 -0.400000    0.00029630 181 t-inv F
  0.133333  0.200000 -0.400000    0.00029630 181 t-inv F
 -0.333333  0.133333  0.200000    0.00029630 182 t-inv F
  0.133333 -0.333333  0.200000    0.00029630 182 t-inv F
  0.200000 -0.333333  0.133333    0.00029630 182 t-inv F
  0.200000  0.133333 -0.333333    0.00029630 182 t-inv F
  0.133333  0.200000 -0.333333    0.00029630 182 t-inv F
 -0.266667  0.133333  0.200000    0.00029630 183 t-inv F
  0.133333 -0.266667  0.200000    0.00029630 183 t-inv F
  0.200000 -0.266667  0.133333    0.00029630 183 t-inv F
  0.200000  0.133333 -0.266667    0.00029630 183 t-inv F
  0.133333  0.200000 -0.266667    0.00029630 183 t-inv F
 -0.200000  0.133333  0.200000    0.00029630 184 t-inv F
  0.133333 -0.200000  0.200000    0.00029630 184 t-inv F
  0.200000 -0.200000  0.133333    0.00029630 184 t-inv F
  0.200000  0.133333 -0.200000    0.00029630 184 t-inv F
  0.133333  0.200000 -0.200000    0.00029630 184 t-inv F
 -0.133333  0.133333  0.200000    0.00029630 185 t-inv F
  0.133333 -0.133333  0.200000    0.00029630 185 t-inv F
  0.200000 -0.133333  0.133333    0.00029630 185 t-inv F
  0.200000  0.133333 -0.133333    0.00029630 185 t-inv F
  0.133333  0.200000 -0.133333    0.00029630 185 t-inv F
  0.266667  0.133333  0.266667    0.00029630 186 t-inv F
  0.133333  0.266667  0.266667    0.00029630 186 t-inv F
  0.333333  0.133333  0.266667    0.00029630 187 t-inv F
  0.133333  0.333333  0.266667    0.00029630 187 t-inv F
  0.266667  0.333333  0.133333    0.00029630 187 t-inv F
  0.266667  0.133333  0.333333    0.00029630 187 t-inv F
  0.133333  0.266667  0.333333    0.00029630 187 t-inv F
  0.400000  0.133333  0.266667    0.00029630 188 t-inv F
  0.133333  0.400000  0.266667    0.00029630 188 t-inv F
  0.266667  0.400000  0.133333    0.00029630 188 t-inv F
  0.266667  0.133333  0.400000    0.00029630 188 t-inv F
  0.133333  0.266667  0.400000    0.00029630 188 t-inv F
  0.466667  0.133333  0.266667    0.00029630 189 t-inv F
  0.133333  0.466667  0.266667    0.00029630 189 t-inv F
  0.266667  0.466667  0.133333    0.00029630 189 t-inv F
  0.266667  0.133333  0.466667    0.00029630 189 t-inv F
  0.133333  0.266667  0.466667    0.00029630 189 t-inv F
 -0.466667  0.133333  0.266667    0.00029630 190 t-inv F
  0.133333 -0.466667  0.266667    0.00029630 190 t-inv F
  0.266667 -0.466667  0.133333    0.00029630 190 t-inv F
  0.266667  0.133333 -0.466667    0.00029630 190 t-inv F
  0.133333  0.266667 -0.466667    0.00029630 190 t-inv F
 -0.400000  0.133333  0.266667    0.00029630 191 t-inv F
  0.133333 -0.400000  0.266667    0.00029630 191 t-inv F
  0.266667 -0.400000  0.133333    0.00029630 191 t-inv F
  0.266667  0.133333 -0.400000    0.00029630 191 t-inv F
  0.133333  0.266667 -0.400000    0.00029630 191 t-inv F
 -0.333333  0.133333  0.266667    0.00029630 192 t-inv F
  0.133333 -0.333333  0.266667    0.00029630 192 t-inv F
  0.266667 -0.333333  0.133333    0.00029630 192 t-inv F
  0.266667  0.133333 -0.333333    0.00029630 192 t-inv F
  0.133333  0.266667 -0.333333    0.00029630 192 t-inv F
 -0.266667  0.133333  0.266667    0.00029630 193 t-inv F
  0.133333 -0.266667  0.266667    0.00029630 193 t-inv F
  0.266667 -0.266667  0.133333    0.00029630 193 t-inv F
  0.266667  0.133333 -0.266667    0.00029630 193 t-inv F
  0.133333  0.266667 -0.266667    0.00029630 193 t-inv F
 -0.200000  0.133333  0.266667    0.00029630 194 t-inv F
  0.133333 -0.200000  0.266667    0.00029630 194 t-inv F
  0.266667 -0.200000  0.133333    0.00029630 194 t-inv F
  0.266667  0.133333 -0.200000    0.00029630 194 t-inv F
  0.133333  0.266667 -0.200000    0.00029630 194 t-inv F
 -0.133333  0.133333  0.266667    0.00029630 195 t-inv F
  0.133333 -0.133333  0.266667    0.00029630 195 t-inv F
  0.266667 -0.133333  0.133333    0.00029630 195 t-inv F
  0.266667  0.133333 -0.133333    0.00029630 195 t-inv F
  0.133333  0.266667 -0.133333    0.00029630 195 t-inv F
  0.333333  0.133333  0.333333    0.00029630 196 t-inv F
  0.133333  0.333333  0.333333    0.00029630 196 t-inv F
  0.400000  0.133333  0.333333    0.00029630 197 t-inv F
  0.133333  0.400000  0.333333    0.00029630 197 t-inv F
  0.333333  0.400000  0.133333    0.00029630 197 t-inv F
  0.333333  0.133333  0.400000    0.00029630 197 t-inv F
  0.133333  0.333333  0.400000    0.00029630 197 t-inv F
  0.466667  0.133333  0.333333    0.00029630 198 t-inv F
  0.133333  0.466667  0.333333    0.00029630 198 t-inv F
  0.333333  0.466667  0.133333    0.00029630 198 t-inv F
  0.333333  0.133333  0.466667    0.00029630 198 t-inv F
  0.133333  0.333333  0.466667    0.00029630 198 t-inv F
 -0.466667  0.133333  0.333333    0.00029630 199 t-inv F
  0.133333 -0.466667  0.333333    0.00029630 199 t-inv F
  0.333333 -0.466667  0.133333    0.00029630 199 t-inv F
  0.333333  0.133333 -0.466667    0.00029630 199 t-inv F
  0.133333  0.333333 -0.466667    0.00029630 199 t-inv F
 -0.400000  0.133333  0.333333    0.00029630 200 t-inv F
  0.133333 -0.400000  0.333333    0.00029630 200 t-inv F
  0.333333 -0.400000  0.133333    0.00029630 200 t-inv F
  0.333333  0.133333 -0.400000    0.00029630 200 t-inv F
  0.133333  0.333333 -0.400000    0.00029630 200 t-inv F
 -0.333333  0.133333  0.333333    0.00029630 201 t-inv F
  0.133333 -0.333333  0.333333    0.00029630 201 t-inv F
  0.333333 -0.333333  0.133333    0.00029630 201 t-inv F
  0.333333  0.133333 -0.333333    0.00029630 201 t-inv F
  0.133333  0.333333 -0.333333    0.00029630 201 t-inv F
 -0.266667  0.133333  0.333333    0.00029630 202 t-inv F
  0.133333 -0.266667  0.333333    0.00029630 202 t-inv F
  0.333333 -0.266667  0.133333    0.00029630 202 t-inv F
  0.333333  0.133333 -0.266667    0.00029630 202 t-inv F
  0.133333  0.333333 -0.266667    0.00029630 202 t-inv F
 -0.200000  0.133333  0.333333    0.00029630 203 t-inv F
  0.133333 -0.200000  0.333333    0.00029630 203 t-inv F
  0.333333 -0.200000  0.133333    0.00029630 203 t-inv F
  0.333333  0.133333 -0.200000    0.00029630 203 t-inv F
  0.133333  0.333333 -0.200000    0.00029630 203 t-inv F
 -0.133333  0.133333  0.333333    0.00029630 204 t-inv F
  0.133333 -0.133333  0.333333    0.00029630 204 t-inv F
  0.333333 -0.133333  0.133333    0.00029630 204 t-inv F
  0.333333  0.133333 -0.133333    0.00029630 204 t-inv F
  0.133333  0.333333 -0.133333    0.00029630 204 t-inv F
  0.400000  0.133333  0.400000    0.00029630 205 t-inv F
  0.133333  0.400000  0.400000    0.00029630 205 t-inv F
  0.466667  0.133333  0.400000    0.00029630 206 t-inv F
  0.133333  0.466667  0.400000    0.00029630 206 t-inv F
  0.400000  0.466667  0.133333    0.00029630 206 t-inv F
  0.400000  0.133333  0.466667    0.00029630 206 t-inv F
  0.133333  0.400000  0.466667    0.00029630 206 t-inv F
 -0.466667  0.133333  0.400000    0.00029630 207 t-inv F
  0.133333 -0.466667  0.400000    0.00029630 207 t-inv F
  0.400000 -0.466667  0.133333    0.00029630 207 t-inv F
  0.400000  0.133333 -0.466667    0.00029630 207 t-inv F
  0.133333  0.400000 -0.466667    0.00029630 207 t-inv F
 -0.400000  0.133333  0.400000    0.00029630 208 t-inv F
  0.133333 -0.400000  0.400000    0.00029630 208 t-inv F
  0.400000 -0.400000  0.133333    0.00029630 208 t-inv F
  0.400000  0.133333 -0.400000    0.00029630 208 t-inv F
  0.133333  0.400000 -0.400000    0.00029630 208 t-inv F
 -0.333333  0.133333  0.400000    0.00029630 209 t-inv F
  0.133333 -0.333333  0.400000    0.00029630 209 t-inv F
  0.400000 -0.333333  0.133333    0.00029630 209 t-inv F
  0.400000  0.133333 -0.333333    0.00029630 209 t-inv F
  0.133333  0.400000 -0.333333    0.00029630 209 t-inv F
 -0.266667  0.133333  0.400000    0.00029630 210 t-inv F
  0.133333 -0.266667  0.400000    0.00029630 210 t-inv F
  0.400000 -0.266667  0.133333    0.00029630 210 t-inv F
  0.400000  0.133333 -0.266667    0.00029630 210 t-inv F
  0.133333  0.400000 -0.266667    0.00029630 210 t-inv F
 -0.200000  0.133333  0.400000    0.00029630 211 t-inv F
  0.133333 -0.200000  0.400000    0.00029630 211 t-inv F
  0.400000 -0.200000  0.133333    0.00029630 211 t-inv F
  0.400000  0.133333 -0.200000    0.00029630 211 t-inv F
  0.133333  0.400000 -0.200000    0.00029630 211 t-inv F
 -0.133333  0.133333  0.400000    0.00029630 212 t-inv F
  0.133333 -0.133333  0.400000    0.00029630 212 t-inv F
  0.400000 -0.133333  0.133333    0.00029630 212 t-inv F
  0.400000  0.133333 -0.133333    0.00029630 212 t-inv F
  0.133333  0.400000 -0.133333    0.00029630 212 t-inv F
  0.466667  0.133333  0.466667    0.00029630 213 t-inv F
  0.133333  0.466667  0.466667    0.00029630 213 t-inv F
 -0.466667  0.133333  0.466667    0.00029630 214 t-inv F
  0.133333 -0.466667  0.466667    0.00029630 214 t-inv F
  0.466667 -0.466667  0.133333    0.00029630 214 t-inv F
  0.466667  0.133333 -0.466667    0.00029630 214 t-inv F
  0.133333  0.466667 -0.466667    0.00029630 214 t-inv F
 -0.400000  0.133333  0.466667    0.00029630 215 t-inv F
  0.133333 -0.400000  0.466667    0.00029630 215 t-inv F
  0.466667 -0.400000  0.133333    0.00029630 215 t-inv F
  0.466667  0.133333 -0.400000    0.00029630 215 t-inv F
  0.133333  0.466667 -0.400000    0.00029630 215 t-inv F
 -0.333333  0.133333  0.466667    0.00029630 216 t-inv F
  0.133333 -0.333333  0.466667    0.00029630 216 t-inv F
  0.466667 -0.333333  0.133333    0.00029630 216 t-inv F
  0.466667  0.133333 -0.333333    0.00029630 216 t-inv F
  0.133333  0.466667 -0.333333    0.00029630 216 t-inv F
 -0.266667  0.133333  0.466667    0.00029630 217 t-inv F
  0.133333 -0.266667  0.466667    0.00029630 217 t-inv F
  0.466667 -0.266667  0.133333    0.00029630 217 t-inv F
  0.466667  0.133333 -0.266667    0.00029630 217 t-inv F
  0.133333  0.466667 -0.266667    0.00029630 217 t-inv F
 -0.200000  0.133333  0.466667    0.00029630 218 t-inv F
  0.133333 -0.200000  0.466667    0.00029630 218 t-inv F
  0.466667 -0.200000  0.133333    0.00029630 218 t-inv F
  0.466667  0.133333 -0.200000    0.00029630 218 t-inv F
  0.133333  0.466667 -0.200000    0.00029630 218 t-inv F
 -0.133333  0.133333  0.466667    0.00029630 219 t-inv F
  0.133333 -0.133333  0.466667    0.00029630 219 t-inv F
  0.466667 -0.133333  0.133333    0.00029630 219 t-inv F
  0.466667  0.133333 -0.133333    0.00029630 219 t-inv F
  0.133333  0.466667 -0.133333    0.00029630 219 t-inv F
 -0.466667  0.133333 -0.466667    0.00029630 220 t-inv F
  0.133333 -0.466667 -0.466667    0.00029630 220 t-inv F
 -0.400000  0.133333 -0.466667    0.00029630 221 t-inv F
  0.133333 -0.400000 -0.466667    0.00029630 221 t-inv F
 -0.466667 -0.400000  0.133333    0.00029630 221 t-inv F
 -0.466667  0.133333 -0.400000    0.00029630 221 t-inv F
  0.133333 -0.466667 -0.400000    0.00029630 221 t-inv F
 -0.333333  0.133333 -0.466667    0.00029630 222 t-inv F
  0.133333 -0.333333 -0.466667    0.00029630 222 t-inv F
 -0.466667 -0.333333  0.133333    0.00029630 222 t-inv F
 -0.466667  0.133333 -0.333333    0.00029630 222 t-inv F
  0.133333 -0.466667 -0.333333    0.00029630 222 t-inv F
 -0.266667  0.133333 -0.466667    0.00029630 223 t-inv F
  0.133333 -0.266667 -0.466667    0.00029630 223 t-inv F
 -0.466667 -0.266667  0.133333    0.00029630 223 t-inv F
 -0.466667  0.133333 -0.266667    0.00029630 223 t-inv F
  0.133333 -0.466667 -0.266667    0.00029630 223 t-inv F
 -0.200000  0.133333 -0.466667    0.00029630 224 t-inv F
  0.133333 -0.200000 -0.466667    0.00029630 224 t-inv F
 -0.466667 -0.200000  0.133333    0.00029630 224 t-inv F
 -0.466667  0.133333 -0.200000    0.00029630 224 t-inv F
  0.133333 -0.466667 -0.200000    0.00029630 224 t-inv F
 -0.400000  0.133333 -0.400000    0.00029630 225 t-inv F
  0.133333 -0.400000 -0.400000    0.00029630 225 t-inv F
 -0.333333  0.133333 -0.400000    0.00029630 226 t-inv F
  0.133333 -0.333333 -0.400000    0.00029630 226 t-inv F
 -0.400000 -0.333333  0.133333    0.00029630 226 t-inv F
 -0.400000  0.133333 -0.333333    0.00029630 226 t-inv F
  0.133333 -0.400000 -0.333333    0.00029630 226 t-inv F
 -0.266667  0.133333 -0.400000    0.00029630 227 t-inv F
  0.133333 -0.266667 -0.400000    0.00029630 227 t-inv F
 -0.400000 -0.266667  0.133333    0.00029630 227 t-inv F
 -0.400000  0.133333 -0.266667    0.00029630 227 t-inv F
  0.133333 -0.400000 -0.266667    0.00029630 227 t-inv F
 -0.200000  0.133333 -0.400000    0.00029630 228 t-inv F
  0.133333 -0.200000 -0.400000    0.00029630 228 t-inv F
 -0.400000 -0.200000  0.133333    0.00029630 228 t-inv F
 -0.400000  0.133333 -0.200000    0.00029630 228 t-inv F
  0.133333 -0.400000 -0.200000    0.00029630 228 t-inv F
 -0.333333  0.133333 -0.333333    0.00029630 229 t-inv F
  0.133333 -0.333333 -0.333333    0.00029630 229 t-inv F
 -0.266667  0.133333 -0.333333    0.00029630 230 t-inv F
  0.133333 -0.266667 -0.333333    0.00029630 230 t-inv F
 -0.333333 -0.266667  0.133333    0.00029630 230 t-inv F
 -0.333333  0.133333 -0.266667    0.00029630 230 t-inv F
  0.133333 -0.333333 -0.266667    0.00029630 230 t-inv F
 -0.200000  0.133333 -0.333333    0.00029630 231 t-inv F
  0.133333 -0.200000 -0.333333    0.00029630 231 t-inv F
 -0.333333 -0.200000  0.133333    0.00029630 231 t-inv F
 -0.333333  0.133333 -0.200000    0.00029630 231 t-inv F
  0.133333 -0.333333 -0.200000    0.00029630 231 t-inv F
 -0.266667  0.133333 -0.266667    0.00029630 232 t-inv F
  0.133333 -0.266667 -0.266667    0.00029630 232 t-inv F
 -0.200000  0.133333 -0.266667    0.00029630 233 t-inv F
  0.133333 -0.200000 -0.266667    0.00029630 233 t-inv F
 -0.266667 -0.200000  0.133333    0.00029630 233 t-inv F
 -0.266667  0.133333 -0.200000    0.00029630 233 t-inv F
  0.133333 -0.266667 -0.200000    0.00029630 233 t-inv F
 -0.200000  0.133333 -0.200000    0.00029630 234 t-inv F
  0.133333 -0.200000 -0.200000    0.00029630 234 t-inv F
  0.200000  0.266667  0.200000    0.00029630 236 t-inv F
  0.200000  0.200000  0.266667    0.00029630 236 t-inv F
  0.200000  0.333333  0.200000    0.00029630 237 t-inv F
  0.200000  0.200000  0.333333    0.00029630 237 t-inv F
  0.200000  0.400000  0.200000    0.00029630 238 t-inv F
  0.200000  0.200000  0.400000    0.00029630 238 t-inv F
  0.200000  0.466667  0.200000    0.00029630 239 t-inv F
  0.200000  0.200000  0.466667    0.00029630 239 t-inv F
  0.200000 -0.466667  0.200000    0.00029630 240 t-inv F
  0.200000  0.200000 -0.466667    0.00029630 240 t-inv F
  0.200000 -0.400000  0.200000    0.00029630 241 t-inv F
  0.200000  0.200000 -0.400000    0.00029630 241 t-inv F
  0.200000 -0.333333  0.200000    0.00029630 242 t-inv F
  0.200000  0.200000 -0.333333    0.00029630 242 t-inv F
  0.200000 -0.266667  0.200000    0.00029630 243 t-inv F
  0.200000  0.200000 -0.266667    0.00029630 243 t-inv F
  0.200000 -0.200000  0.200000    0.00029630 244 t-inv F
  0.200000  0.200000 -0.200000    0.00029630 244 t-inv F
  0.266667  0.200000  0.266667    0.00029630 245 t-inv F
  0.200000  0.266667  0.266667    0.00029630 245 t-inv F
  0.333333  0.200000  0.266667    0.00029630 246 t-inv F
  0.200000  0.333333  0.266667    0.00029630 246 t-inv F
  0.266667  0.333333  0.200000    0.00029630 246 t-inv F
  0.266667  0.200000  0.333333    0.00029630 246 t-inv F
  0.200000  0.266667  0.333333    0.00029630 246 t-inv F
  0.400000  0.200000  0.266667    0.00029630 247 t-inv F
  0.200000  0.400000  0.266667    0.00029630 247 t-inv F
  0.266667  0.400000  0.200000    0.00029630 247 t-inv F
  0.266667  0.200000  0.400000    0.00029630 247 t-inv F
  0.200000  0.266667  0.400000    0.00029630 247 t-inv F
  0.466667  0.200000  0.266667    0.00029630 248 t-inv F
  0.200000  0.466667  0.266667    0.00029630 248 t-inv F
  0.266667  0.466667  0.200000    0.00029630 248 t-inv F
  0.266667  0.200000  0.466667    0.00029630 248 t-inv F
  0.200000  0.266667  0.466667    0.00029630 248 t-inv F
 -0.466667  0.200000  0.266667    0.00029630 249 t-inv F
  0.200000 -0.466667  0.266667    0.00029630 249 t-inv F
  0.266667 -0.466667  0.200000    0.00029630 249 t-inv F
  0.266667  0.200000 -0.466667    0.00029630 249 t-inv F
  0.200000  0.266667 -0.466667    0.00029630 249 t-inv F
 -0.400000  0.200000  0.266667    0.00029630 250 t-inv F
  0.200000 -0.400000  0.266667    0.00029630 250 t-inv F
  0.266667 -0.400000  0.200000    0.00029630 250 t-inv F
  0.266667  0.200000 -0.400000    0.00029630 250 t-inv F
  0.200000  0.266667 -0.400000    0.00029630 250 t-inv F
 -0.333333  0.200000  0.266667    0.00029630 251 t-inv F
  0.200000 -0.333333  0.266667    0.00029630 251 t-inv F
  0.266667 -0.333333  0.200000    0.00029630 251 t-inv F
  0.266667  0.200000 -0.333333    0.00029630 251 t-inv F
  0.200000  0.266667 -0.333333    0.00029630 251 t-inv F
 -0.266667  0.200000  0.266667    0.00029630 252 t-inv F
  0.200000 -0.266667  0.266667    0.00029630 252 t-inv F
  0.266667 -0.266667  0.200000    0.00029630 252 t-inv F
  0.266667  0.200000 -0.266667    0.00029630 252 t-inv F
  0.200000  0.266667 -0.266667    0.00029630 252 t-inv F
 -0.200000  0.200000  0.266667    0.00029630 253 t-inv F
  0.200000 -0.200000  0.266667    0.00029630 253 t-inv F
  0.266667 -0.200000  0.200000    0.00029630 253 t-inv F
  0.266667  0.200000 -0.200000    0.00029630 253 t-inv F
  0.200000  0.266667 -0.200000    0.00029630 253 t-inv F
  0.333333  0.200000  0.333333    0.00029630 254 t-inv F
  0.200000  0.333333  0.333333    0.00029630 254 t-inv F
  0.400000  0.200000  0.333333    0.00029630 255 t-inv F
  0.200000  0.400000  0.333333    0.00029630 255 t-inv F
  0.333333  0.400000  0.200000    0.00029630 255 t-inv F
  0.333333  0.200000  0.400000    0.00029630 255 t-inv F
  0.200000  0.333333  0.400000    0.00029630 255 t-inv F
  0.466667  0.200000  0.333333    0.00029630 256 t-inv F
  0.200000  0.466667  0.333333    0.00029630 256 t-inv F
  0.333333  0.466667  0.200000    0.00029630 256 t-inv F
  0.333333  0.200000  0.466667    0.00029630 256 t-inv F
  0.200000  0.333333  0.466667    0.00029630 256 t-inv F
 -0.466667  0.200000  0.333333    0.00029630 257 t-inv F
  0.200000 -0.466667  0.333333    0.00029630 257 t-inv F
  0.333333 -0.466667  0.200000    0.00029630 257 t-inv F
  0.333333  0.200000 -0.466667    0.00029630 257 t-inv F
  0.200000  0.333333 -0.466667    0.00029630 257 t-inv F
 -0.400000  0.200000  0.333333    0.00029630 258 t-inv F
  0.200000 -0.400000  0.333333    0.00029630 258 t-inv F
  0.333333 -0.400000  0.200000    0.00029630 258 t-inv F
  0.333333  0.200000 -0.400000    0.00029630 258 t-inv F
  0.200000  0.333333 -0.400000    0.00029630 258 t-inv F
 -0.333333  0.200000  0.333333    0.00029630 259 t-inv F
  0.200000 -0.333333  0.333333    0.00029630 259 t-inv F
  0.333333 -0.333333  0.200000    0.00029630 259 t-inv F
  0.333333  0.200000 -0.333333    0.00029630 259 t-inv F
  0.200000  0.333333 -0.333333    0.00029630 259 t-inv F
 -0.266667  0.200000  0.333333    0.00029630 260 t-inv F
  0.200000 -0.266667  0.333333    0.00029630 260 t-inv F
  0.333333 -0.266667  0.200000    0.00029630 260 t-inv F
  0.333333  0.200000 -0.266667    0.00029630 260 t-inv F
  0.200000  0.333333 -0.266667    0.00029630 260 t-inv F
 -0.200000  0.200000  0.333333    0.00029630 261 t-inv F
  0.200000 -0.200000  0.333333    0.00029630 261 t-inv F
  0.333333 -0.200000  0.200000    0.00029630 261 t-inv F
  0.333333  0.200000 -0.200000    0.00029630 261 t-inv F
  0.200000  0.333333 -0.200000    0.00029630 261 t-inv F
  0.400000  0.200000  0.400000    0.00029630 262 t-inv F
  0.200000  0.400000  0.400000    0.00029630 262 t-inv F
  0.466667  0.200000  0.400000    0.00029630 263 t-inv F
  0.200000  0.466667  0.400000    0.00029630 263 t-inv F
  0.400000  0.466667  0.200000    0.00029630 263 t-inv F
  0.400000  0.200000  0.466667    0.00029630 263 t-inv F
  0.200000  0.400000  0.466667    0.00029630 263 t-inv F
 -0.466667  0.200000  0.400000    0.00029630 264 t-inv F
  0.200000 -0.466667  0.400000    0.00029630 264 t-inv F
  0.400000 -0.466667  0.200000    0.00029630 264 t-inv F
  0.400000  0.200000 -0.466667    0.00029630 264 t-inv F
  0.200000  0.400000 -0.466667    0.00029630 264 t-inv F
 -0.400000  0.200000  0.400000    0.00029630 265 t-inv F
  0.200000 -0.400000  0.400000    0.00029630 265 t-inv F
  0.400000 -0.400000  0.200000    0.00029630 265 t-inv F
  0.400000  0.200000 -0.400000    0.00029630 265 t-inv F
  0.200000  0.400000 -0.400000    0.00029630 265 t-inv F
 -0.333333  0.200000  0.400000    0.00029630 266 t-inv F
  0.200000 -0.333333  0.400000    0.00029630 266 t-inv F
  0.400000 -0.333333  0.200000    0.00029630 266 t-inv F
  0.400000  0.200000 -0.333333    0.00029630 266 t-inv F
  0.200000  0.400000 -0.333333    0.00029630 266 t-inv F
 -0.266667  0.200000  0.400000    0.00029630 267 t-inv F
  0.200000 -0.266667  0.400000    0.00029630 267 t-inv F
  0.400000 -0.266667  0.200000    0.00029630 267 t-inv F
  0.400000  0.200000 -0.266667    0.00029630 267 t-inv F
  0.200000  0.400000 -0.266667    0.00029630 267 t-inv F
 -0.200000  0.200000  0.400000    0.00029630 268 t-inv F
  0.200000 -0.200000  0.400000    0.00029630 268 t-inv F
  0.400000 -0.200000  0.200000    0.00029630 268 t-inv F
  0.400000  0.200000 -0.200000    0.00029630 268 t-inv F
  0.200000  0.400000 -0.200000    0.00029630 268 t-inv F
  0.466667  0.200000  0.466667    0.00029630 269 t-inv F
  0.200000  0.466667  0.466667    0.00029630 269 t-inv F
 -0.466667  0.200000  0.466667    0.00029630 270 t-inv F
  0.200000 -0.466667  0.466667    0.00029630 270 t-inv F
  0.466667 -0.466667  0.200000    0.00029630 270 t-inv F
  0.466667  0.200000 -0.466667    0.00029630 270 t-inv F
  0.200000  0.466667 -0.466667    0.00029630 270 t-inv F
 -0.400000  0.200000  0.466667    0.00029630 271 t-inv F
  0.200000 -0.400000  0.466667    0.00029630 271 t-inv F
  0.466667 -0.400000  0.200000    0.00029630 271 t-inv F
  0.466667  0.200000 -0.400000    0.00029630 271 t-inv F
  0.200000  0.466667 -0.400000    0.00029630 271 t-inv F
 -0.333333  0.200000  0.466667    0.00029630 272 t-inv F
  0.200000 -0.333333  0.466667    0.00029630 272 t-inv F
  0.466667 -0.333333  0.200000    0.00029630 272 t-inv F
  0.466667  0.200000 -0.333333    0.00029630 272 t-inv F
  0.200000  0.466667 -0.333333    0.00029630 272 t-inv F
 -0.266667  0.200000  0.466667    0.00029630 273 t-inv F
  0.200000 -0.266667  0.466667    0.00029630 273 t-inv F
  0.466667 -0.266667  0.200000    0.00029630 273 t-inv F
  0.466667  0.200000 -0.266667    0.00029630 273 t-inv F
  0.200000  0.466667 -0.266667    0.00029630 273 t-inv F
 -0.200000  0.200000  0.466667    0.00029630 274 t-inv F
  0.200000 -0.200000  0.466667    0.00029630 274 t-inv F
  0.466667 -0.200000  0.200000    0.00029630 274 t-inv F
  0.466667  0.200000 -0.200000    0.00029630 274 t-inv F
  0.200000  0.466667 -0.200000    0.00029630 274 t-inv F
 -0.466667  0.200000 -0.466667    0.00029630 275 t-inv F
  0.200000 -0.466667 -0.466667    0.00029630 275 t-inv F
 -0.400000  0.200000 -0.466667    0.00029630 276 t-inv F
  0.200000 -0.400000 -0.466667    0.00029630 276 t-inv F
 -0.466667 -0.400000  0.200000    0.00029630 276 t-inv F
 -0.466667  0.200000 -0.400000    0.00029630 276 t-inv F
  0.200000 -0.466667 -0.400000    0.00029630 276 t-inv F
 -0.333333  0.200000 -0.466667    0.00029630 277 t-inv F
  0.200000 -0.333333 -0.466667    0.00029630 277 t-inv F
 -0.466667 -0.333333  0.200000    0.00029630 277 t-inv F
 -0.466667  0.200000 -0.333333    0.00029630 277 t-inv F
  0.200000 -0.466667 -0.333333    0.00029630 277 t-inv F
 -0.266667  0.200000 -0.466667    0.00029630 278 t-inv F
  0.200000 -0.266667 -0.466667    0.00029630 278 t-inv F
 -0.466667 -0.266667  0.200000    0.00029630 278 t-inv F
 -0.466667  0.200000 -0.266667    0.00029630 278 t-inv F
  0.200000 -0.466667 -0.266667    0.00029630 278 t-inv F
 -0.400000  0.200000 -0.400000    0.00029630 279 t-inv F
  0.200000 -0.400000 -0.400000    0.00029630 279 t-inv F
 -0.333333  0.200000 -0.400000    0.00029630 280 t-inv F
  0.200000 -0.333333 -0.400000    0.00029630 280 t-inv F
 -0.400000 -0.333333  0.200000    0.00029630 280 t-inv F
 -0.400000  0.200000 -0.333333    0.00029630 280 t-inv F
  0.200000 -0.400000 -0.333333    0.00029630 280 t-inv F
 -0.266667  0.200000 -0.400000    0.00029630 281 t-inv F
  0.200000 -0.266667 -0.400000    0.00029630 281 t-inv F
 -0.400000 -0.266667  0.200000    0.00029630 281 t-inv F
 -0.400000  0.200000 -0.266667    0.00029630 281 t-inv F
  0.200000 -0.400000 -0.266667    0.00029630 281 t-inv F
 -0.333333  0.200000 -0.333333    0.00029630 282 t-inv F
  0.200000 -0.333333 -0.333333    0.00029630 282 t-inv F
 -0.266667  0.200000 -0.333333    0.00029630 283 t-inv F
  0.200000 -0.266667 -0.333333    0.00029630 283 t-inv F
 -0.333333 -0.266667  0.200000    0.00029630 283 t-inv F
 -0.333333  0.200000 -0.266667    0.00029630 283 t-inv F
  0.200000 -0.333333 -0.266667    0.00029630 283 t-inv F
 -0.266667  0.200000 -0.266667    0.00029630 284 t-inv F
  0.200000 -0.266667 -0.266667    0.00029630 284 t-inv F
  0.266667  0.333333  0.266667    0.00029630 286 t-inv F
  0.266667  0.266667  0.333333    0.00029630 286 t-inv F
  0.266667  0.400000  0.266667    0.00029630 287 t-inv F
  0.266667  0.266667  0.400000    0.00029630 287 t-inv F
  0.266667  0.466667  0.266667    0.00029630 288 t-inv F
  0.266667  0.266667  0.466667    0.00029630 288 t-inv F
  0.266667 -0.466667  0.266667    0.00029630 289 t-inv F
  0.266667  0.266667 -0.466667    0.00029630 289 t-inv F
  0.266667 -0.400000  0.266667    0.00029630 290 t-inv F
  0.266667  0.266667 -0.400000    0.00029630 290 t-inv F
  0.266667 -0.333333  0.266667    0.00029630 291 t-inv F
  0.266667  0.266667 -0.333333    0.00029630 291 t-inv F
  0.266667 -0.266667  0.266667    0.00029630 292 t-inv F
  0.266667  0.266667 -0.266667    0.00029630 292 t-inv F
  0.333333  0.266667  0.333333    0.00029630 293 t-inv F
  0.266667  0.333333  0.333333    0.00029630 293 t-inv F
  0.400000  0.266667  0.333333    0.00029630 294 t-inv F
  0.266667  0.400000  0.333333    0.00029630 294 t-inv F
  0.333333  0.400000  0.266667    0.00029630 294 t-inv F
  0.333333  0.266667  0.400000    0.00029630 294 t-inv F
  0.266667  0.333333  0.400000    0.00029630 294 t-inv F
  0.466667  0.266667  0.333333    0.00029630 295 t-inv F
  0.266667  0.466667  0.333333    0.00029630 295 t-inv F
  0.333333  0.466667  0.266667    0.00029630 295 t-inv F
  0.333333  0.266667  0.466667    0.00029630 295 t-inv F
  0.266667  0.333333  0.466667    0.00029630 295 t-inv F
 -0.466667  0.266667  0.333333    0.00029630 296 t-inv F
  0.266667 -0.466667  0.333333    0.00029630 296 t-inv F
  0.333333 -0.466667  0.266667    0.00029630 296 t-inv F
  0.333333  0.266667 -0.466667    0.00029630 296 t-inv F
  0.266667  0.333333 -0.466667    0.00029630 296 t-inv F
 -0.400000  0.266667  0.333333    0.00029630 297 t-inv F
  0.266667 -0.400000  0.333333    0.00029630 297 t-inv F
  0.333333 -0.400000  0.266667    0.00029630 297 t-inv F
  0.333333  0.266667 -0.400000    0.00029630 297 t-inv F
  0.266667  0.333333 -0.400000    0.00029630 297 t-inv F
 -0.333333  0.266667  0.333333    0.00029630 298 t-inv F
  0.266667 -0.333333  0.333333    0.00029630 298 t-inv F
  0.333333 -0.333333  0.266667    0.00029630 298 t-inv F
  0.333333  0.266667 -0.333333    0.00029630 298 t-inv F
  0.266667  0.333333 -0.333333    0.00029630 298 t-inv F
 -0.266667  0.266667  0.333333    0.00029630 299 t-inv F
  0.266667 -0.266667  0.333333    0.00029630 299 t-inv F
  0.333333 -0.266667  0.266667    0.00029630 299 t-inv F
  0.333333  0.266667 -0.266667    0.00029630 299 t-inv F
  0.266667  0.333333 -0.266667    0.00029630 299 t-inv F
  0.400000  0.266667  0.400000    0.00029630 300 t-inv F
  0.266667  0.400000  0.400000    0.00029630 300 t-inv F
  0.466667  0.266667  0.400000    0.00029630 301 t-inv F
  0.266667  0.466667  0.400000    0.00029630 301 t-inv F
  0.400000  0.466667  0.266667    0.00029630 301 t-inv F
  0.400000  0.266667  0.466667    0.00029630 301 t-inv F
  0.266667  0.400000  0.466667    0.00029630 301 t-inv F
 -0.466667  0.266667  0.400000    0.00029630 302 t-inv F
  0.266667 -0.466667  0.400000    0.00029630 302 t-inv F
  0.400000 -0.466667  0.266667    0.00029630 302 t-inv F
  0.400000  0.266667 -0.466667    0.00029630 302 t-inv F
  0.266667  0.400000 -0.466667    0.00029630 302 t-inv F
 -0.400000  0.266667  0.400000    0.00029630 303 t-inv F
  0.266667 -0.400000  0.400000    0.00029630 303 t-inv F
  0.400000 -0.400000  0.266667    0.00029630 303 t-inv F
  0.400000  0.266667 -0.400000    0.00029630 303 t-inv F
  0.266667  0.400000 -0.400000    0.00029630 303 t-inv F
 -0.333333  0.266667  0.400000    0.00029630 304 t-inv F
  0.266667 -0.333333  0.400000    0.00029630 304 t-inv F
  0.400000 -0.333333  0.266667    0.00029630 304 t-inv F
  0.400000  0.266667 -0.333333    0.00029630 304 t-inv F
  0.266667  0.400000 -0.333333    0.00029630 304 t-inv F
 -0.266667  0.266667  0.400000    0.00029630 305 t-inv F
  0.266667 -0.266667  0.400000    0.00029630 305 t-inv F
  0.400000 -0.266667  0.266667    0.00029630 305 t-inv F
  0.400000  0.266667 -0.266667    0.00029630 305 t-inv F
  0.266667  0.400000 -0.266667    0.00029630 305 t-inv F
  0.466667  0.266667  0.466667    0.00029630 306 t-inv F
  0.266667  0.466667  0.466667    0.00029630 306 t-inv F
 -0.466667  0.266667  0.466667    0.00029630 307 t-inv F
  0.266667 -0.466667  0.466667    0.00029630 307 t-inv F
  0.466667 -0.466667  0.266667    0.00029630 307 t-inv F
  0.466667  0.266667 -0.466667    0.00029630 307 t-inv F
  0.266667  0.466667 -0.466667    0.00029630 307 t-inv F
 -0.400000  0.266667  0.466667    0.00029630 308 t-inv F
  0.266667 -0.400000  0.466667    0.00029630 308 t-inv F
  0.466667 -0.400000  0.266667    0.00029630 308 t-inv F
  0.466667  0.266667 -0.400000    0.00029630 308 t-inv F
  0.266667  0.466667 -0.400000    0.00029630 308 t-inv F
 -0.333333  0.266667  0.466667    0.00029630 309 t-inv F
  0.266667 -0.333333  0.466667    0.00029630 309 t-inv F
  0.466667 -0.333333  0.266667    0.00029630 309 t-inv F
  0.466667  0.266667 -0.333333    0.00029630 309 t-inv F
  0.266667  0.466667 -0.333333    0.00029630 309 t-inv F
 -0.266667  0.266667  0.466667    0.00029630 310 t-inv F
  0.266667 -0.266667  0.466667    0.00029630 310 t-inv F
  0.466667 -0.266667  0.266667    0.00029630 310 t-inv F
  0.466667  0.266667 -0.266667    0.00029630 310 t-inv F
  0.266667  0.466667 -0.266667    0.00029630 310 t-inv F
 -0.466667  0.266667 -0.466667    0.00029630 311 t-inv F
  0.266667 -0.466667 -0.466667    0.00029630 311 t-inv F
 -0.400000  0.266667 -0.466667    0.00029630 312 t-inv F
  0.266667 -0.400000 -0.466667    0.00029630 312 t-inv F
 -0.466667 -0.400000  0.266667    0.00029630 312 t-inv F
 -0.466667  0.266667 -0.400000    0.00029630 312 t-inv F
  0.266667 -0.466667 -0.400000    0.00029630 312 t-inv F
 -0.333333  0.266667 -0.466667    0.00029630 313 t-inv F
  0.266667 -0.333333 -0.466667    0.00029630 313 t-inv F
 -0.466667 -0.333333  0.266667    0.00029630 313 t-inv F
 -0.466667  0.266667 -0.333333    0.00029630 313 t-inv F
  0.266667 -0.466667 -0.333333    0.00029630 313 t-inv F
 -0.400000  0.266667 -0.400000    0.00029630 314 t-inv F
  0.266667 -0.400000 -0.400000    0.00029630 314 t-inv F
 -0.333333  0.266667 -0.400000    0.00029630 315 t-inv F
  0.266667 -0.333333 -0.400000    0.00029630 315 t-inv F
 -0.400000 -0.333333  0.266667    0.00029630 315 t-inv F
 -0.400000  0.266667 -0.333333    0.00029630 315 t-inv F
  0.266667 -0.400000 -0.333333    0.00029630 315 t-inv F
 -0.333333  0.266667 -0.333333    0.00029630 316 t-inv F
  0.266667 -0.333333 -0.333333    0.00029630 316 t-inv F
  0.333333  0.400000  0.333333    0.00029630 318 t-inv F
  0.333333  0.333333  0.400000    0.00029630 318 t-inv F
  0.333333  0.466667  0.333333    0.00029630 319 t-inv F
  0.333333  0.333333  0.466667    0.00029630 319 t-inv F
  0.333333 -0.466667  0.333333    0.00029630 320 t-inv F
  0.333333  0.333333 -0.466667    0.00029630 320 t-inv F
  0.333333 -0.400000  0.333333    0.00029630 321 t-inv F
  0.333333  0.333333 -0.400000    0.00029630 321 t-inv F
  0.333333 -0.333333  0.333333    0.00029630 322 t-inv F
  0.333333  0.333333 -0.333333    0.00029630 322 t-inv F
  0.400000  0.333333  0.400000    0.00029630 323 t-inv F
  0.333333  0.400000  0.400000    0.00029630 323 t-inv F
  0.466667  0.333333  0.400000    0.00029630 324 t-inv F
  0.333333  0.466667  0.400000    0.00029630 324 t-inv F
  0.400000  0.466667  0.333333    0.00029630 324 t-inv F
  0.400000  0.333333  0.466667    0.00029630 324 t-inv F
  0.333333  0.400000  0.466667    0.00029630 324 t-inv F
 -0.466667  0.333333  0.400000    0.00029630 325 t-inv F
  0.333333 -0.466667  0.400000    0.00029630 325 t-inv F
  0.400000 -0.466667  0.333333    0.00029630 325 t-inv F
  0.400000  0.333333 -0.466667    0.00029630 325 t-inv F
  0.333333  0.400000 -0.466667    0.00029630 325 t-inv F
 -0.400000  0.333333  0.400000    0.00029630 326 t-inv F
  0.333333 -0.400000  0.400000    0.00029630 326 t-inv F
  0.400000 -0.400000  0.333333    0.00029630 326 t-inv F
  0.400000  0.333333 -0.400000    0.00029630 326 t-inv F
  0.333333  0.400000 -0.400000    0.00029630 326 t-inv F
 -0.333333  0.333333  0.400000    0.00029630 327 t-inv F
  0.333333 -0.333333  0.400000    0.00029630 327 t-inv F
  0.400000 -0.333333  0.333333    0.00029630 327 t-inv F
  0.400000  0.333333 -0.333333    0.00029630 327 t-inv F
  0.333333  0.400000 -0.333333    0.00029630 327 t-inv F
  0.466667  0.333333  0.466667    0.00029630 328 t-inv F
  0.333333  0.466667  0.466667    0.00029630 328 t-inv F
 -0.466667  0.333333  0.466667    0.00029630 329 t-inv F
  0.333333 -0.466667  0.466667    0.00029630 329 t-inv F
  0.466667 -0.466667  0.333333    0.00029630 329 t-inv F
  0.466667  0.333333 -0.466667    0.00029630 329 t-inv F
  0.333333  0.466667 -0.466667    0.00029630 329 t-inv F
 -0.400000  0.333333  0.466667    0.00029630 330 t-inv F
  0.333333 -0.400000  0.466667    0.00029630 330 t-inv F
  0.466667 -0.400000  0.333333    0.00029630 330 t-inv F
  0.466667  0.333333 -0.400000    0.00029630 330 t-inv F
  0.333333  0.466667 -0.400000    0.00029630 330 t-inv F
 -0.333333  0.333333  0.466667    0.00029630 331 t-inv F
  0.333333 -0.333333  0.466667    0.00029630 331 t-inv F
  0.466667 -0.333333  0.333333    0.00029630 331 t-inv F
  0.466667  0.333333 -0.333333    0.00029630 331 t-inv F
  0.333333  0.466667 -0.333333    0.00029630 331 t-inv F
 -0.466667  0.333333 -0.466667    0.00029630 332 t-inv F
  0.333333 -0.466667 -0.466667    0.00029630 332 t-inv F
 -0.400000  0.333333 -0.466667    0.00029630 333 t-inv F
  0.333333 -0.400000 -0.466667    0.00029630 333 t-inv F
 -0.466667 -0.400000  0.333333    0.00029630 333 t-inv F
 -0.466667  0.333333 -0.400000    0.00029630 333 t-inv F
  0.333333 -0.466667 -0.400000    0.00029630 333 t-inv F
 -0.400000  0.333333 -0.400000    0.00029630 334 t-inv F
  0.333333 -0.400000 -0.400000    0.00029630 334 t-inv F
  0.400000  0.466667  0.400000    0.00029630 336 t-inv F
  0.400000  0.400000  0.466667    0.00029630 336 t-inv F
  0.400000 -0.466667  0.400000    0.00029630 337 t-inv F
  0.400000  0.400000 -0.466667    0.00029630 337 t-inv F
  0.400000 -0.400000  0.400000    0.00029630 338 t-inv F
  0.400000  0.400000 -0.400000    0.00029630 338 t-inv F
  0.466667  0.400000  0.466667    0.00029630 339 t-inv F
  0.400000  0.466667  0.466667    0.00029630 339 t-inv F
 -0.466667  0.400000  0.466667    0.00029630 340 t-inv F
  0.400000 -0.466667  0.466667    0.00029630 340 t-inv F
  0.466667 -0.466667  0.400000    0.00029630 340 t-inv F
  0.466667  0.400000 -0.466667    0.00029630 340 t-inv F
  0.400000  0.466667 -0.466667    0.00029630 340 t-inv F
 -0.400000  0.400000  0.466667    0.00029630 341 t-inv F
  0.400000 -0.400000  0.466667    0.00029630 341 t-inv F
  0.466667 -0.400000  0.400000    0.00029630 341 t-inv F
  0.466667  0.400000 -0.400000    0.00029630 341 t-inv F
  0.400000  0.466667 -0.400000    0.00029630 341 t-inv F
 -0.466667  0.400000 -0.466667    0.00029630 342 t-inv F
  0.400000 -0.466667 -0.466667    0.00029630 342 t-inv F
  0.466667 -0.466667  0.466667    0.00029630 344 t-inv F
  0.466667  0.466667 -0.466667    0.00029630 344 t-inv F
 -0.066667 -0.000000 -0.000000    0.00029630   2 t-inv T
 -0.000000 -0.066667 -0.000000    0.00029630   2 t-inv T
 -0.000000 -0.000000 -0.066667    0.00029630   2 t-inv T
 -0.133333 -0.000000 -0.000000    0.00029630   3 t-inv T
 -0.000000 -0.133333 -0.000000    0.00029630   3 t-inv T
 -0.000000 -0.000000 -0.133333    0.00029630   3 t-inv T
 -0.200000 -0.000000 -0.000000    0.00029630   4 t-inv T
 -0.000000 -0.200000 -0.000000    0.00029630   4 t-inv T
 -0.000000 -0.000000 -0.200000    0.00029630   4 t-inv T
 -0.266667 -0.000000 -0.000000    0.00029630   5 t-inv T
 -0.000000 -0.266667 -0.000000    0.00029630   5 t-inv T
 -0.000000 -0.000000 -0.266667    0.00029630   5 t-inv T
 -0.333333 -0.000000 -0.000000    0.00029630   6 t-inv T
 -0.000000 -0.333333 -0.000000    0.00029630   6 t-inv T
 -0.000000 -0.000000 -0.333333    0.00029630   6 t-inv T
 -0.400000 -0.000000 -0.000000    0.00029630   7 t-inv T
 -0.000000 -0.400000 -0.000000    0.00029630   7 t-inv T
 -0.000000 -0.000000 -0.400000    0.00029630   7 t-inv T
 -0.466667 -0.000000 -0.000000    0.00029630   8 t-inv T
 -0.000000 -0.466667 -0.000000    0.00029630   8 t-inv T
 -0.000000 -0.000000 -0.466667    0.00029630   8 t-inv T
 -0.066667 -0.066667 -0.000000    0.00029630   9 t-inv T
 -0.066667 -0.000000 -0.066667    0.00029630   9 t-inv T
 -0.000000 -0.066667 -0.066667    0.00029630   9 t-inv T
 -0.133333 -0.066667 -0.000000    0.00029630  10 t-inv T
 -0.133333 -0.000000 -0.066667    0.00029630  10 t-inv T
 -0.000000 -0.133333 -0.066667    0.00029630  10 t-inv T
 -0.066667 -0.133333 -0.000000    0.00029630  10 t-inv T
 -0.066667 -0.000000 -0.133333    0.00029630  10 t-inv T
 -0.000000 -0.066667 -0.133333    0.00029630  10 t-inv T
 -0.200000 -0.066667 -0.000000    0.00029630  11 t-inv T
 -0.200000 -0.000000 -0.066667    0.00029630  11 t-inv T
 -0.000000 -0.200000 -0.066667    0.00029630  11 t-inv T
 -0.066667 -0.200000 -0.000000    0.00029630  11 t-inv T
 -0.066667 -0.000000 -0.200000    0.00029630  11 t-inv T
 -0.000000 -0.066667 -0.200000    0.00029630  11 t-inv T
 -0.266667 -0.066667 -0.000000    0.00029630  12 t-inv T
 -0.266667 -0.000000 -0.066667    0.00029630  12 t-inv T
 -0.000000 -0.266667 -0.066667    0.00029630  12 t-inv T
 -0.066667 -0.266667 -0.000000    0.00029630  12 t-inv T
 -0.066667 -0.000000 -0.266667    0.00029630  12 t-inv T
 -0.000000 -0.066667 -0.266667    0.00029630  12 t-inv T
 -0.333333 -0.066667 -0.000000    0.00029630  13 t-inv T
 -0.333333 -0.000000 -0.066667    0.00029630  13 t-inv T
 -0.000000 -0.333333 -0.066667    0.00029630  13 t-inv T
 -0.066667 -0.333333 -0.000000    0.00029630  13 t-inv T
 -0.066667 -0.000000 -0.333333    0.00029630  13 t-inv T
 -0.000000 -0.066667 -0.333333    0.00029630  13 t-inv T
 -0.400000 -0.066667 -0.000000    0.00029630  14 t-inv T
 -0.400000 -0.000000 -0.066667    0.00029630  14 t-inv T
 -0.000000 -0.400000 -0.066667    0.00029630  14 t-inv T
 -0.066667 -0.400000 -0.000000    0.00029630  14 t-inv T
 -0.066667 -0.000000 -0.400000    0.00029630  14 t-inv T
 -0.000000 -0.066667 -0.400000    0.00029630  14 t-inv T
 -0.466667 -0.066667 -0.000000    0.00029630  15 t-inv T
 -0.466667 -0.000000 -0.066667    0.00029630  15 t-inv T
 -0.000000 -0.466667 -0.066667    0.00029630  15 t-inv T
 -0.066667 -0.466667 -0.000000    0.00029630  15 t-inv T
 -0.066667 -0.000000 -0.466667    0.00029630  15 t-inv T
 -0.000000 -0.066667 -0.466667    0.00029630  15 t-inv T
  0.466667 -0.066667 -0.000000    0.00029630  16 t-inv T
  0.466667 -0.000000 -0.066667    0.00029630  16 t-inv T
 -0.000000  0.466667 -0.066667    0.00029630  16 t-inv T
 -0.066667  0.466667 -0.000000    0.00029630  16 t-inv T
 -0.066667 -0.000000  0.466667    0.00029630  16 t-inv T
 -0.000000 -0.066667  0.466667    0.00029630  16 t-inv T
  0.400000 -0.066667 -0.000000    0.00029630  17 t-inv T
  0.400000 -0.000000 -0.066667    0.00029630  17 t-inv T
 -0.000000  0.400000 -0.066667    0.00029630  17 t-inv T
 -0.066667  0.400000 -0.000000    0.00029630  17 t-inv T
 -0.066667 -0.000000  0.400000    0.00029630  17 t-inv T
 -0.000000 -0.066667  0.400000    0.00029630  17 t-inv T
  0.333333 -0.066667 -0.000000    0.00029630  18 t-inv T
  0.333333 -0.000000 -0.066667    0.00029630  18 t-inv T
 -0.000000  0.333333 -0.066667    0.00029630  18 t-inv T
 -0.066667  0.333333 -0.000000    0.00029630  18 t-inv T
 -0.066667 -0.000000  0.333333    0.00029630  18 t-inv T
 -0.000000 -0.066667  0.333333    0.00029630  18 t-inv T
  0.266667 -0.066667 -0.000000    0.00029630  19 t-inv T
  0.266667 -0.000000 -0.066667    0.00029630  19 t-inv T
 -0.000000  0.266667 -0.066667    0.00029630  19 t-inv T
 -0.066667  0.266667 -0.000000    0.00029630  19 t-inv T
 -0.066667 -0.000000  0.266667    0.00029630  19 t-inv T
 -0.000000 -0.066667  0.266667    0.00029630  19 t-inv T
  0.200000 -0.066667 -0.000000    0.00029630  20 t-inv T
  0.200000 -0.000000 -0.066667    0.00029630  20 t-inv T
 -0.000000  0.200000 -0.066667    0.00029630  20 t-inv T
 -0.066667  0.200000 -0.000000    0.00029630  20 t-inv T
 -0.066667 -0.000000  0.200000    0.00029630  20 t-inv T
 -0.000000 -0.066667  0.200000    0.00029630  20 t-inv T
  0.133333 -0.066667 -0.000000    0.00029630  21 t-inv T
  0.133333 -0.000000 -0.066667    0.00029630  21 t-inv T
 -0.000000  0.133333 -0.066667    0.00029630  21 t-inv T
 -0.066667  0.133333 -0.000000    0.00029630  21 t-inv T
 -0.066667 -0.000000  0.133333    0.00029630  21 t-inv T
 -0.000000 -0.066667  0.133333    0.00029630  21 t-inv T
 -0.133333 -0.133333 -0.000000    0.00029630  23 t-inv T
 -0.133333 -0.000000 -0.133333    0.00029630  23 t-inv T
 -0.000000 -0.133333 -0.133333    0.00029630  23 t-inv T
 -0.200000 -0.133333 -0.000000    0.00029630  24 t-inv T
 -0.200000 -0.000000 -0.133333    0.00029630  24 t-inv T
 -0.000000 -0.200000 -0.133333    0.00029630  24 t-inv T
 -0.133333 -0.200000 -0.000000    0.00029630  24 t-inv T
 -0.133333 -0.000000 -0.200000    0.00029630  24 t-inv T
 -0.000000 -0.133333 -0.200000    0.00029630  24 t-inv T
 -0.266667 -0.133333 -0.000000    0.00029630  25 t-inv T
 -0.266667 -0.000000 -0.133333    0.00029630  25 t-inv T
 -0.000000 -0.266667 -0.133333    0.00029630  25 t-inv T
 -0.133333 -0.266667 -0.000000    0.00029630  25 t-inv T
 -0.133333 -0.000000 -0.266667    0.00029630  25 t-inv T
 -0.000000 -0.133333 -0.266667    0.00029630  25 t-inv T
 -0.333333 -0.133333 -0.000000    0.00029630  26 t-inv T
 -0.333333 -0.000000 -0.133333    0.00029630  26 t-inv T
 -0.000000 -0.333333 -0.133333    0.00029630  26 t-inv T
 -0.133333 -0.333333 -0.000000    0.00029630  26 t-inv T
 -0.133333 -0.000000 -0.333333    0.00029630  26 t-inv T
 -0.000000 -0.133333 -0.333333    0.00029630  26 t-inv T
 -0.400000 -0.133333 -0.000000    0.00029630  27 t-inv T
 -0.400000 -0.000000 -0.133333    0.00029630  27 t-inv T
 -0.000000 -0.400000 -0.133333    0.00029630  27 t-inv T
 -0.133333 -0.400000 -0.000000    0.00029630  27 t-inv T
 -0.133333 -0.000000 -0.400000    0.00029630  27 t-inv T
 -0.000000 -0.133333 -0.400000    0.00029630  27 t-inv T
 -0.466667 -0.133333 -0.000000    0.00029630  28 t-inv T
 -0.466667 -0.000000 -0.133333    0.00029630  28 t-inv T
 -0.000000 -0.466667 -0.133333    0.00029630  28 t-inv T
 -0.133333 -0.466667 -0.000000    0.00029630  28 t-inv T
 -0.133333 -0.000000 -0.466667    0.00029630  28 t-inv T
 -0.000000 -0.133333 -0.466667    0.00029630  28 t-inv T
  0.466667 -0.133333 -0.000000    0.00029630  29 t-inv T
  0.466667 -0.000000 -0.133333    0.00029630  29 t-inv T
 -0.000000  0.466667 -0.133333    0.00029630  29 t-inv T
 -0.133333  0.466667 -0.000000    0.00029630  29 t-inv T
 -0.133333 -0.000000  0.466667    0.00029630  29 t-inv T
 -0.000000 -0.133333  0.466667    0.00029630  29 t-inv T
  0.400000 -0.133333 -0.000000    0.00029630  30 t-inv T
  0.400000 -0.000000 -0.133333    0.00029630  30 t-inv T
 -0.000000  0.400000 -0.133333    0.00029630  30 t-inv T
 -0.133333  0.400000 -0.000000    0.00029630  30 t-inv T
 -0.133333 -0.000000  0.400000    0.00029630  30 t-inv T
 -0.000000 -0.133333  0.400000    0.00029630  30 t-inv T
  0.333333 -0.133333 -0.000000    0.00029630  31 t-inv T
  0.333333 -0.000000 -0.133333    0.00029630  31 t-inv T
 -0.000000  0.333333 -0.133333    0.00029630  31 t-inv T
 -0.133333  0.333333 -0.000000    0.00029630  31 t-inv T
 -0.133333 -0.000000  0.333333    0.00029630  31 t-inv T
 -0.000000 -0.133333  0.333333    0.00029630  31 t-inv T
  0.266667 -0.133333 -0.000000    0.00029630  32 t-inv T
  0.266667 -0.000000 -0.133333    0.00029630  32 t-inv T
 -0.000000  0.266667 -0.133333    0.00029630  32 t-inv T
 -0.133333  0.266667 -0.000000    0.00029630  32 t-inv T
 -0.133333 -0.000000  0.266667    0.00029630  32 t-inv T
 -0.000000 -0.133333  0.266667    0.00029630  32 t-inv T
  0.200000 -0.133333 -0.000000    0.00029630  33 t-inv T
  0.200000 -0.000000 -0.133333    0.00029630  33 t-inv T
 -0.000000  0.200000 -0.133333    0.00029630  33 t-inv T
 -0.133333  0.200000 -0.000000    0.00029630  33 t-inv T
 -0.133333 -0.000000  0.200000    0.00029630  33 t-inv T
 -0.000000 -0.133333  0.200000    0.00029630  33 t-inv T
 -0.200000 -0.200000 -0.000000    0.00029630  35 t-inv T
 -0.200000 -0.000000 -0.200000    0.00029630  35 t-inv T
 -0.000000 -0.200000 -0.200000    0.00029630  35 t-inv T
 -0.266667 -0.200000 -0.000000    0.00029630  36 t-inv T
 -0.266667 -0.000000 -0.200000    0.00029630  36 t-inv T
 -0.000000 -0.266667 -0.200000    0.00029630  36 t-inv T
 -0.200000 -0.266667 -0.000000    0.00029630  36 t-inv T
 -0.200000 -0.000000 -0.266667    0.00029630  36 t-inv T
 -0.000000 -0.200000 -0.266667    0.00029630  36 t-inv T
 -0.333333 -0.200000 -0.000000    0.00029630  37 t-inv T
 -0.333333 -0.000000 -0.200000    0.00029630  37 t-inv T
 -0.000000 -0.333333 -0.200000    0.00029630  37 t-inv T
 -0.200000 -0.333333 -0.000000    0.00029630  37 t-inv T
 -0.200000 -0.000000 -0.333333    0.00029630  37 t-inv T
 -0.000000 -0.200000 -0.333333    0.00029630  37 t-inv T
 -0.400000 -0.200000 -0.000000    0.00029630  38 t-inv T
 -0.400000 -0.000000 -0.200000    0.00029630  38 t-inv T
 -0.000000 -0.400000 -0.200000    0.00029630  38 t-inv T
 -0.200000 -0.400000 -0.000000    0.00029630  38 t-inv T
 -0.200000 -0.000000 -0.400000    0.00029630  38 t-inv T
 -0.000000 -0.200000 -0.400000    0.00029630  38 t-inv T
 -0.466667 -0.200000 -0.000000    0.00029630  39 t-inv T
 -0.466667 -0.000000 -0.200000    0.00029630  39 t-inv T
 -0.000000 -0.466667 -0.200000    0.00029630  39 t-inv T
 -0.200000 -0.466667 -0.000000    0.00029630  39 t-inv T
 -0.200000 -0.000000 -0.466667    0.00029630  39 t-inv T
 -0.000000 -0.200000 -0.466667    0.00029630  39 t-inv T
  0.466667 -0.200000 -0.000000    0.00029630  40 t-inv T
  0.466667 -0.000000 -0.200000    0.00029630  40 t-inv T
 -0.000000  0.466667 -0.200000    0.00029630  40 t-inv T
 -0.200000  0.466667 -0.000000    0.00029630  40 t-inv T
 -0.200000 -0.000000  0.466667    0.00029630  40 t-inv T
 -0.000000 -0.200000  0.466667    0.00029630  40 t-inv T
  0.400000 -0.200000 -0.000000    0.00029630  41 t-inv T
  0.400000 -0.000000 -0.200000    0.00029630  41 t-inv T
 -0.000000  0.400000 -0.200000    0.00029630  41 t-inv T
 -0.200000  0.400000 -0.000000    0.00029630  41 t-inv T
 -0.200000 -0.000000  0.400000    0.00029630  41 t-inv T
 -0.000000 -0.200000  0.400000    0.00029630  41 t-inv T
  0.333333 -0.200000 -0.000000    0.00029630  42 t-inv T
  0.333333 -0.000000 -0.200000    0.00029630  42 t-inv T
 -0.000000  0.333333 -0.200000    0.00029630  42 t-inv T
 -0.200000  0.333333 -0.000000    0.00029630  42 t-inv T
 -0.200000 -0.000000  0.333333    0.00029630  42 t-inv T
 -0.000000 -0.200000  0.333333    0.00029630  42 t-inv T
  0.266667 -0.200000 -0.000000    0.00029630  43 t-inv T
  0.266667 -0.000000 -0.200000    0.00029630  43 t-inv T
 -0.000000  0.266667 -0.200000    0.00029630  43 t-inv T
 -0.200000  0.266667 -0.000000    0.00029630  43 t-inv T
 -0.200000 -0.000000  0.266667    0.00029630  43 t-inv T
 -0.000000 -0.200000  0.266667    0.00029630  43 t-inv T
 -0.266667 -0.266667 -0.000000    0.00029630  45 t-inv T
 -0.266667 -0.000000 -0.266667    0.00029630  45 t-inv T
 -0.000000 -0.266667 -0.266667    0.00029630  45 t-inv T
 -0.333333 -0.266667 -0.000000    0.00029630  46 t-inv T
 -0.333333 -0.000000 -0.266667    0.00029630  46 t-inv T
 -0.000000 -0.333333 -0.266667    0.00029630  46 t-inv T
 -0.266667 -0.333333 -0.000000    0.00029630  46 t-inv T
 -0.266667 -0.000000 -0.333333    0.00029630  46 t-inv T
 -0.000000 -0.266667 -0.333333    0.00029630  46 t-inv T
 -0.400000 -0.266667 -0.000000    0.00029630  47 t-inv T
 -0.400000 -0.000000 -0.266667    0.00029630  47 t-inv T
 -0.000000 -0.400000 -0.266667    0.00029630  47 t-inv T
 -0.266667 -0.400000 -0.000000    0.00029630  47 t-inv T
 -0.266667 -0.000000 -0.400000    0.00029630  47 t-inv T
 -0.000000 -0.266667 -0.400000    0.00029630  47 t-inv T
 -0.466667 -0.266667 -0.000000    0.00029630  48 t-inv T
 -0.466667 -0.000000 -0.266667    0.00029630  48 t-inv T
 -0.000000 -0.466667 -0.266667    0.00029630  48 t-inv T
 -0.266667 -0.466667 -0.000000    0.00029630  48 t-inv T
 -0.266667 -0.000000 -0.466667    0.00029630  48 t-inv T
 -0.000000 -0.266667 -0.466667    0.00029630  48 t-inv T
  0.466667 -0.266667 -0.000000    0.00029630  49 t-inv T
  0.466667 -0.000000 -0.266667    0.00029630  49 t-inv T
 -0.000000  0.466667 -0.266667    0.00029630  49 t-inv T
 -0.266667  0.466667 -0.000000    0.00029630  49 t-inv T
 -0.266667 -0.000000  0.466667    0.00029630  49 t-inv T
 -0.000000 -0.266667  0.466667    0.00029630  49 t-inv T
  0.400000 -0.266667 -0.000000    0.00029630  50 t-inv T
  0.400000 -0.000000 -0.266667    0.00029630  50 t-inv T
 -0.000000  0.400000 -0.266667    0.00029630  50 t-inv T
 -0.266667  0.400000 -0.000000    0.00029630  50 t-inv T
 -0.266667 -0.000000  0.400000    0.00029630  50 t-inv T
 -0.000000 -0.266667  0.400000    0.00029630  50 t-inv T
  0.333333 -0.266667 -0.000000    0.00029630  51 t-inv T
  0.333333 -0.000000 -0.266667    0.00029630  51 t-inv T
 -0.000000  0.333333 -0.266667    0.00029630  51 t-inv T
 -0.266667  0.333333 -0.000000    0.00029630  51 t-inv T
 -0.266667 -0.000000  0.333333    0.00029630  51 t-inv T
 -0.000000 -0.266667  0.333333    0.00029630  51 t-inv T
 -0.333333 -0.333333 -0.000000    0.00029630  53 t-inv T
 -0.333333 -0.000000 -0.333333    0.00029630  53 t-inv T
 -0.000000 -0.333333 -0.333333    0.00029630  53 t-inv T
 -0.400000 -0.333333 -0.000000    0.00029630  54 t-inv T
 -0.400000 -0.000000 -0.333333    0.00029630  54 t-inv T
 -0.000000 -0.400000 -0.333333    0.00029630  54 t-inv T
 -0.333333 -0.400000 -0.000000    0.00029630  54 t-inv T
 -0.333333 -0.000000 -0.400000    0.00029630  54 t-inv T
 -0.000000 -0.333333 -0.400000    0.00029630  54 t-inv T
 -0.466667 -0.333333 -0.000000    0.00029630  55 t-inv T
 -0.466667 -0.000000 -0.333333    0.00029630  55 t-inv T
 -0.000000 -0.466667 -0.333333    0.00029630  55 t-inv T
 -0.333333 -0.466667 -0.000000    0.00029630  55 t-inv T
 -0.333333 -0.000000 -0.466667    0.00029630  55 t-inv T
 -0.000000 -0.333333 -0.466667    0.00029630  55 t-inv T
  0.466667 -0.333333 -0.000000    0.00029630  56 t-inv T
  0.466667 -0.000000 -0.333333    0.00029630  56 t-inv T
 -0.000000  0.466667 -0.333333    0.00029630  56 t-inv T
 -0.333333  0.466667 -0.000000    0.00029630  56 t-inv T
 -0.333333 -0.000000  0.466667    0.00029630  56 t-inv T
 -0.000000 -0.333333  0.466667    0.00029630  56 t-inv T
  0.400000 -0.333333 -0.000000    0.00029630  57 t-inv T
  0.400000 -0.000000 -0.333333    0.00029630  57 t-inv T
 -0.000000  0.400000 -0.333333    0.00029630  57 t-inv T
 -0.333333  0.400000 -0.000000    0.00029630  57 t-inv T
 -0.333333 -0.000000  0.400000    0.00029630  57 t-inv T
 -0.000000 -0.333333  0.400000    0.00029630  57 t-inv T
 -0.400000 -0.400000 -0.000000    0.00029630  59 t-inv T
 -0.400000 -0.000000 -0.400000    0.00029630  59 t-inv T
 -0.000000 -0.400000 -0.400000    0.00029630  59 t-inv T
 -0.466667 -0.400000 -0.000000    0.00029630  60 t-inv T
 -0.466667 -0.000000 -0.400000    0.00029630  60 t-inv T
 -0.000000 -0.466667 -0.400000    0.00029630  60 t-inv T
 -0.400000 -0.466667 -0.000000    0.00029630  60 t-inv T
 -0.400000 -0.000000 -0.466667    0.00029630  60 t-inv T
 -0.000000 -0.400000 -0.466667    0.00029630  60 t-inv T
  0.466667 -0.400000 -0.000000    0.00029630  61 t-inv T
  0.466667 -0.000000 -0.400000    0.00029630  61 t-inv T
 -0.000000  0.466667 -0.400000    0.00029630  61 t-inv T
 -0.400000  0.466667 -0.000000    0.00029630  61 t-inv T
 -0.400000 -0.000000  0.466667    0.00029630  61 t-inv T
 -0.000000 -0.400000  0.466667    0.00029630  61 t-inv T
 -0.466667 -0.466667 -0.000000    0.00029630  63 t-inv T
 -0.466667 -0.000000 -0.466667    0.00029630  63 t-inv T
 -0.000000 -0.466667 -0.466667    0.00029630  63 t-inv T
 -0.066667 -0.066667 -0.066667    0.00029630  65 t-inv T
 -0.133333 -0.066667 -0.066667    0.00029630  66 t-inv T
 -0.066667 -0.133333 -0.066667    0.00029630  66 t-inv T
 -0.066667 -0.066667 -0.133333    0.00029630  66 t-inv T
 -0.200000 -0.066667 -0.066667    0.00029630  67 t-inv T
 -0.066667 -0.200000 -0.066667    0.00029630  67 t-inv T
 -0.066667 -0.066667 -0.200000    0.00029630  67 t-inv T
 -0.266667 -0.066667 -0.066667    0.00029630  68 t-inv T
 -0.066667 -0.266667 -0.066667    0.00029630  68 t-inv T
 -0.066667 -0.066667 -0.266667    0.00029630  68 t-inv T
 -0.333333 -0.066667 -0.066667    0.00029630  69 t-inv T
 -0.066667 -0.333333 -0.066667    0.00029630  69 t-inv T
 -0.066667 -0.066667 -0.333333    0.00029630  69 t-inv T
 -0.400000 -0.066667 -0.066667    0.00029630  70 t-inv T
 -0.066667 -0.400000 -0.066667    0.00029630  70 t-inv T
 -0.066667 -0.066667 -0.400000    0.00029630  70 t-inv T
 -0.466667 -0.066667 -0.066667    0.00029630  71 t-inv T
 -0.066667 -0.466667 -0.066667    0.00029630  71 t-inv T
 -0.066667 -0.066667 -0.466667    0.00029630  71 t-inv T
  0.466667 -0.066667 -0.066667    0.00029630  72 t-inv T
 -0.066667  0.466667 -0.066667    0.00029630  72 t-inv T
 -0.066667 -0.066667  0.466667    0.00029630  72 t-inv T
  0.400000 -0.066667 -0.066667    0.00029630  73 t-inv T
 -0.066667  0.400000 -0.066667    0.00029630  73 t-inv T
 -0.066667 -0.066667  0.400000    0.00029630  73 t-inv T
  0.333333 -0.066667 -0.066667    0.00029630  74 t-inv T
 -0.066667  0.333333 -0.066667    0.00029630  74 t-inv T
 -0.066667 -0.066667  0.333333    0.00029630  74 t-inv T
  0.266667 -0.066667 -0.066667    0.00029630  75 t-inv T
 -0.066667  0.266667 -0.066667    0.00029630  75 t-inv T
 -0.066667 -0.066667  0.266667    0.00029630  75 t-inv T
  0.200000 -0.066667 -0.066667    0.00029630  76 t-inv T
 -0.066667  0.200000 -0.066667    0.00029630  76 t-inv T
 -0.066667 -0.066667  0.200000    0.00029630  76 t-inv T
  0.133333 -0.066667 -0.066667    0.00029630  77 t-inv T
 -0.066667  0.133333 -0.066667    0.00029630  77 t-inv T
 -0.066667 -0.066667  0.133333    0.00029630  77 t-inv T
  0.066667 -0.066667 -0.066667    0.00029630  78 t-inv T
 -0.066667  0.066667 -0.066667    0.00029630  78 t-inv T
 -0.066667 -0.066667  0.066667    0.00029630  78 t-inv T
 -0.133333 -0.133333 -0.066667    0.00029630  79 t-inv T
 -0.133333 -0.066667 -0.133333    0.00029630  79 t-inv T
 -0.066667 -0.133333 -0.133333    0.00029630  79 t-inv T
 -0.200000 -0.133333 -0.066667    0.00029630  80 t-inv T
 -0.200000 -0.066667 -0.133333    0.00029630  80 t-inv T
 -0.066667 -0.200000 -0.133333    0.00029630  80 t-inv T
 -0.133333 -0.200000 -0.066667    0.00029630  80 t-inv T
 -0.133333 -0.066667 -0.200000    0.00029630  80 t-inv T
 -0.066667 -0.133333 -0.200000    0.00029630  80 t-inv T
 -0.266667 -0.133333 -0.066667    0.00029630  81 t-inv T
 -0.266667 -0.066667 -0.133333    0.00029630  81 t-inv T
 -0.066667 -0.266667 -0.133333    0.00029630  81 t-inv T
 -0.133333 -0.266667 -0.066667    0.00029630  81 t-inv T
 -0.133333 -0.066667 -0.266667    0.00029630  81 t-inv T
 -0.066667 -0.133333 -0.266667    0.00029630  81 t-inv T
 -0.333333 -0.133333 -0.066667    0.00029630  82 t-inv T
 -0.333333 -0.066667 -0.133333    0.00029630  82 t-inv T
 -0.066667 -0.333333 -0.133333    0.00029630  82 t-inv T
 -0.133333 -0.333333 -0.066667    0.00029630  82 t-inv T
 -0.133333 -0.066667 -0.333333    0.00029630  82 t-inv T
 -0.066667 -0.133333 -0.333333    0.00029630  82 t-inv T
 -0.400000 -0.133333 -0.066667    0.00029630  83 t-inv T
 -0.400000 -0.066667 -0.133333    0.00029630  83 t-inv T
 -0.066667 -0.400000 -0.133333    0.00029630  83 t-inv T
 -0.133333 -0.400000 -0.066667    0.00029630  83 t-inv T
 -0.133333 -0.066667 -0.400000    0.00029630  83 t-inv T
 -0.066667 -0.133333 -0.400000    0.00029630  83 t-inv T
 -0.466667 -0.133333 -0.066667    0.00029630  84 t-inv T
 -0.466667 -0.066667 -0.133333    0.00029630  84 t-inv T
 -0.066667 -0.466667 -0.133333    0.00029630  84 t-inv T
 -0.133333 -0.466667 -0.066667    0.00029630  84 t-inv T
 -0.133333 -0.066667 -0.466667    0.00029630  84 t-inv T
 -0.066667 -0.133333 -0.466667    0.00029630  84 t-inv T
  0.466667 -0.133333 -0.066667    0.00029630  85 t-inv T
  0.466667 -0.066667 -0.133333    0.00029630  85 t-inv T
 -0.066667  0.466667 -0.133333    0.00029630  85 t-inv T
 -0.133333  0.466667 -0.066667    0.00029630  85 t-inv T
 -0.133333 -0.066667  0.466667    0.00029630  85 t-inv T
 -0.066667 -0.133333  0.466667    0.00029630  85 t-inv T
  0.400000 -0.133333 -0.066667    0.00029630  86 t-inv T
  0.400000 -0.066667 -0.133333    0.00029630  86 t-inv T
 -0.066667  0.400000 -0.133333    0.00029630  86 t-inv T
 -0.133333  0.400000 -0.066667    0.00029630  86 t-inv T
 -0.133333 -0.066667  0.400000    0.00029630  86 t-inv T
 -0.066667 -0.133333  0.400000    0.00029630  86 t-inv T
  0.333333 -0.133333 -0.066667    0.00029630  87 t-inv T
  0.333333 -0.066667 -0.133333    0.00029630  87 t-inv T
 -0.066667  0.333333 -0.133333    0.00029630  87 t-inv T
 -0.133333  0.333333 -0.066667    0.00029630  87 t-inv T
 -0.133333 -0.066667  0.333333    0.00029630  87 t-inv T
 -0.066667 -0.133333  0.333333    0.00029630  87 t-inv T
  0.266667 -0.133333 -0.066667    0.00029630  88 t-inv T
  0.266667 -0.066667 -0.133333    0.00029630  88 t-inv T
 -0.066667  0.266667 -0.133333    0.00029630  88 t-inv T
 -0.133333  0.266667 -0.066667    0.00029630  88 t-inv T
 -0.133333 -0.066667  0.266667    0.00029630  88 t-inv T
 -0.066667 -0.133333  0.266667    0.00029630  88 t-inv T
  0.200000 -0.133333 -0.066667    0.00029630  89 t-inv T
  0.200000 -0.066667 -0.133333    0.00029630  89 t-inv T
 -0.066667  0.200000 -0.133333    0.00029630  89 t-inv T
 -0.133333  0.200000 -0.066667    0.00029630  89 t-inv T
 -0.133333 -0.066667  0.200000    0.00029630  89 t-inv T
 -0.066667 -0.133333  0.200000    0.00029630  89 t-inv T
  0.133333 -0.133333 -0.066667    0.00029630  90 t-inv T
  0.133333 -0.066667 -0.133333    0.00029630  90 t-inv T
 -0.066667  0.133333 -0.133333    0.00029630  90 t-inv T
 -0.133333  0.133333 -0.066667    0.00029630  90 t-inv T
 -0.133333 -0.066667  0.133333    0.00029630  90 t-inv T
 -0.066667 -0.133333  0.133333    0.00029630  90 t-inv T
  0.066667 -0.133333 -0.066667    0.00029630  91 t-inv T
  0.066667 -0.066667 -0.133333    0.00029630  91 t-inv T
 -0.066667  0.066667 -0.133333    0.00029630  91 t-inv T
 -0.133333  0.066667 -0.066667    0.00029630  91 t-inv T
 -0.133333 -0.066667  0.066667    0.00029630  91 t-inv T
 -0.066667 -0.133333  0.066667    0.00029630  91 t-inv T
 -0.200000 -0.200000 -0.066667    0.00029630  92 t-inv T
 -0.200000 -0.066667 -0.200000    0.00029630  92 t-inv T
 -0.066667 -0.200000 -0.200000    0.00029630  92 t-inv T
 -0.266667 -0.200000 -0.066667    0.00029630  93 t-inv T
 -0.266667 -0.066667 -0.200000    0.00029630  93 t-inv T
 -0.066667 -0.266667 -0.200000    0.00029630  93 t-inv T
 -0.200000 -0.266667 -0.066667    0.00029630  93 t-inv T
 -0.200000 -0.066667 -0.266667    0.00029630  93 t-inv T
 -0.066667 -0.200000 -0.266667    0.00029630  93 t-inv T
 -0.333333 -0.200000 -0.066667    0.00029630  94 t-inv T
 -0.333333 -0.066667 -0.200000    0.00029630  94 t-inv T
 -0.066667 -0.333333 -0.200000    0.00029630  94 t-inv T
 -0.200000 -0.333333 -0.066667    0.00029630  94 t-inv T
 -0.200000 -0.066667 -0.333333    0.00029630  94 t-inv T
 -0.066667 -0.200000 -0.333333    0.00029630  94 t-inv T
 -0.400000 -0.200000 -0.066667    0.00029630  95 t-inv T
 -0.400000 -0.066667 -0.200000    0.00029630  95 t-inv T
 -0.066667 -0.400000 -0.200000    0.00029630  95 t-inv T
 -0.200000 -0.400000 -0.066667    0.00029630  95 t-inv T
 -0.200000 -0.066667 -0.400000    0.00029630  95 t-inv T
 -0.066667 -0.200000 -0.400000    0.00029630  95 t-inv T
 -0.466667 -0.200000 -0.066667    0.00029630  96 t-inv T
 -0.466667 -0.066667 -0.200000    0.00029630  96 t-inv T
 -0.066667 -0.466667 -0.200000    0.00029630  96 t-inv T
 -0.200000 -0.466667 -0.066667    0.00029630  96 t-inv T
 -0.200000 -0.066667 -0.466667    0.00029630  96 t-inv T
 -0.066667 -0.200000 -0.466667    0.00029630  96 t-inv T
  0.466667 -0.200000 -0.066667    0.00029630  97 t-inv T
  0.466667 -0.066667 -0.200000    0.00029630  97 t-inv T
 -0.066667  0.466667 -0.200000    0.00029630  97 t-inv T
 -0.200000  0.466667 -0.066667    0.00029630  97 t-inv T
 -0.200000 -0.066667  0.466667    0.00029630  97 t-inv T
 -0.066667 -0.200000  0.466667    0.00029630  97 t-inv T
  0.400000 -0.200000 -0.066667    0.00029630  98 t-inv T
  0.400000 -0.066667 -0.200000    0.00029630  98 t-inv T
 -0.066667  0.400000 -0.200000    0.00029630  98 t-inv T
 -0.200000  0.400000 -0.066667    0.00029630  98 t-inv T
 -0.200000 -0.066667  0.400000    0.00029630  98 t-inv T
 -0.066667 -0.200000  0.400000    0.00029630  98 t-inv T
  0.333333 -0.200000 -0.066667    0.00029630  99 t-inv T
  0.333333 -0.066667 -0.200000    0.00029630  99 t-inv T
 -0.066667  0.333333 -0.200000    0.00029630  99 t-inv T
 -0.200000  0.333333 -0.066667    0.00029630  99 t-inv T
 -0.200000 -0.066667  0.333333    0.00029630  99 t-inv T
 -0.066667 -0.200000  0.333333    0.00029630  99 t-inv T
  0.266667 -0.200000 -0.066667    0.00029630 100 t-inv T
  0.266667 -0.066667 -0.200000    0.00029630 100 t-inv T
 -0.066667  0.266667 -0.200000    0.00029630 100 t-inv T
 -0.200000  0.266667 -0.066667    0.00029630 100 t-inv T
 -0.200000 -0.066667  0.266667    0.00029630 100 t-inv T
 -0.066667 -0.200000  0.266667    0.00029630 100 t-inv T
  0.200000 -0.200000 -0.066667    0.00029630 101 t-inv T
  0.200000 -0.066667 -0.200000    0.00029630 101 t-inv T
 -0.066667  0.200000 -0.200000    0.00029630 101 t-inv T
 -0.200000  0.200000 -0.066667    0.00029630 101 t-inv T
 -0.200000 -0.066667  0.200000    0.00029630 101 t-inv T
 -0.066667 -0.200000  0.200000    0.00029630 101 t-inv T
  0.133333 -0.200000 -0.066667    0.00029630 102 t-inv T
  0.133333 -0.066667 -0.200000    0.00029630 102 t-inv T
 -0.066667  0.133333 -0.200000    0.00029630 102 t-inv T
 -0.200000  0.133333 -0.066667    0.00029630 102 t-inv T
 -0.200000 -0.066667  0.133333    0.00029630 102 t-inv T
 -0.066667 -0.200000  0.133333    0.00029630 102 t-inv T
  0.066667 -0.200000 -0.066667    0.00029630 103 t-inv T
  0.066667 -0.066667 -0.200000    0.00029630 103 t-inv T
 -0.066667  0.066667 -0.200000    0.00029630 103 t-inv T
 -0.200000  0.066667 -0.066667    0.00029630 103 t-inv T
 -0.200000 -0.066667  0.066667    0.00029630 103 t-inv T
 -0.066667 -0.200000  0.066667    0.00029630 103 t-inv T
 -0.266667 -0.266667 -0.066667    0.00029630 104 t-inv T
 -0.266667 -0.066667 -0.266667    0.00029630 104 t-inv T
 -0.066667 -0.266667 -0.266667    0.00029630 104 t-inv T
 -0.333333 -0.266667 -0.066667    0.00029630 105 t-inv T
 -0.333333 -0.066667 -0.266667    0.00029630 105 t-inv T
 -0.066667 -0.333333 -0.266667    0.00029630 105 t-inv T
 -0.266667 -0.333333 -0.066667    0.00029630 105 t-inv T
 -0.266667 -0.066667 -0.333333    0.00029630 105 t-inv T
 -0.066667 -0.266667 -0.333333    0.00029630 105 t-inv T
 -0.400000 -0.266667 -0.066667    0.00029630 106 t-inv T
 -0.400000 -0.066667 -0.266667    0.00029630 106 t-inv T
 -0.066667 -0.400000 -0.266667    0.00029630 106 t-inv T
 -0.266667 -0.400000 -0.066667    0.00029630 106 t-inv T
 -0.266667 -0.066667 -0.400000    0.00029630 106 t-inv T
 -0.066667 -0.266667 -0.400000    0.00029630 106 t-inv T
 -0.466667 -0.266667 -0.066667    0.00029630 107 t-inv T
 -0.466667 -0.066667 -0.266667    0.00029630 107 t-inv T
 -0.066667 -0.466667 -0.266667    0.00029630 107 t-inv T
 -0.266667 -0.466667 -0.066667    0.00029630 107 t-inv T
 -0.266667 -0.066667 -0.466667    0.00029630 107 t-inv T
 -0.066667 -0.266667 -0.466667    0.00029630 107 t-inv T
  0.466667 -0.266667 -0.066667    0.00029630 108 t-inv T
  0.466667 -0.066667 -0.266667    0.00029630 108 t-inv T
 -0.066667  0.466667 -0.266667    0.00029630 108 t-inv T
 -0.266667  0.466667 -0.066667    0.00029630 108 t-inv T
 -0.266667 -0.066667  0.466667    0.00029630 108 t-inv T
 -0.066667 -0.266667  0.466667    0.00029630 108 t-inv T
  0.400000 -0.266667 -0.066667    0.00029630 109 t-inv T
  0.400000 -0.066667 -0.266667    0.00029630 109 t-inv T
 -0.066667  0.400000 -0.266667    0.00029630 109 t-inv T
 -0.266667  0.400000 -0.066667    0.00029630 109 t-inv T
 -0.266667 -0.066667  0.400000    0.00029630 109 t-inv T
 -0.066667 -0.266667  0.400000    0.00029630 109 t-inv T
  0.333333 -0.266667 -0.066667    0.00029630 110 t-inv T
  0.333333 -0.066667 -0.266667    0.00029630 110 t-inv T
 -0.066667  0.333333 -0.266667    0.00029630 110 t-inv T
 -0.266667  0.333333 -0.066667    0.00029630 110 t-inv T
 -0.266667 -0.066667  0.333333    0.00029630 110 t-inv T
 -0.066667 -0.266667  0.333333    0.00029630 110 t-inv T
  0.266667 -0.266667 -0.066667    0.00029630 111 t-inv T
  0.266667 -0.066667 -0.266667    0.00029630 111 t-inv T
 -0.066667  0.266667 -0.266667    0.00029630 111 t-inv T
 -0.266667  0.266667 -0.066667    0.00029630 111 t-inv T
 -0.266667 -0.066667  0.266667    0.00029630 111 t-inv T
 -0.066667 -0.266667  0.266667    0.00029630 111 t-inv T
  0.200000 -0.266667 -0.066667    0.00029630 112 t-inv T
  0.200000 -0.066667 -0.266667    0.00029630 112 t-inv T
 -0.066667  0.200000 -0.266667    0.00029630 112 t-inv T
 -0.266667  0.200000 -0.066667    0.00029630 112 t-inv T
 -0.266667 -0.066667  0.200000    0.00029630 112 t-inv T
 -0.066667 -0.266667  0.200000    0.00029630 112 t-inv T
  0.133333 -0.266667 -0.066667    0.00029630 113 t-inv T
  0.133333 -0.066667 -0.266667    0.00029630 113 t-inv T
 -0.066667  0.133333 -0.266667    0.00029630 113 t-inv T
 -0.266667  0.133333 -0.066667    0.00029630 113 t-inv T
 -0.266667 -0.066667  0.133333    0.00029630 113 t-inv T
 -0.066667 -0.266667  0.133333    0.00029630 113 t-inv T
  0.066667 -0.266667 -0.066667    0.00029630 114 t-inv T
  0.066667 -0.066667 -0.266667    0.00029630 114 t-inv T
 -0.066667  0.066667 -0.266667    0.00029630 114 t-inv T
 -0.266667  0.066667 -0.066667    0.00029630 114 t-inv T
 -0.266667 -0.066667  0.066667    0.00029630 114 t-inv T
 -0.066667 -0.266667  0.066667    0.00029630 114 t-inv T
 -0.333333 -0.333333 -0.066667    0.00029630 115 t-inv T
 -0.333333 -0.066667 -0.333333    0.00029630 115 t-inv T
 -0.066667 -0.333333 -0.333333    0.00029630 115 t-inv T
 -0.400000 -0.333333 -0.066667    0.00029630 116 t-inv T
 -0.400000 -0.066667 -0.333333    0.00029630 116 t-inv T
 -0.066667 -0.400000 -0.333333    0.00029630 116 t-inv T
 -0.333333 -0.400000 -0.066667    0.00029630 116 t-inv T
 -0.333333 -0.066667 -0.400000    0.00029630 116 t-inv T
 -0.066667 -0.333333 -0.400000    0.00029630 116 t-inv T
 -0.466667 -0.333333 -0.066667    0.00029630 117 t-inv T
 -0.466667 -0.066667 -0.333333    0.00029630 117 t-inv T
 -0.066667 -0.466667 -0.333333    0.00029630 117 t-inv T
 -0.333333 -0.466667 -0.066667    0.00029630 117 t-inv T
 -0.333333 -0.066667 -0.466667    0.00029630 117 t-inv T
 -0.066667 -0.333333 -0.466667    0.00029630 117 t-inv T
  0.466667 -0.333333 -0.066667    0.00029630 118 t-inv T
  0.466667 -0.066667 -0.333333    0.00029630 118 t-inv T
 -0.066667  0.466667 -0.333333    0.00029630 118 t-inv T
 -0.333333  0.466667 -0.066667    0.00029630 118 t-inv T
 -0.333333 -0.066667  0.466667    0.00029630 118 t-inv T
 -0.066667 -0.333333  0.466667    0.00029630 118 t-inv T
  0.400000 -0.333333 -0.066667    0.00029630 119 t-inv T
  0.400000 -0.066667 -0.333333    0.00029630 119 t-inv T
 -0.066667  0.400000 -0.333333    0.00029630 119 t-inv T
 -0.333333  0.400000 -0.066667    0.00029630 119 t-inv T
 -0.333333 -0.066667  0.400000    0.00029630 119 t-inv T
 -0.066667 -0.333333  0.400000    0.00029630 119 t-inv T
  0.333333 -0.333333 -0.066667    0.00029630 120 t-inv T
  0.333333 -0.066667 -0.333333    0.00029630 120 t-inv T
 -0.066667  0.333333 -0.333333    0.00029630 120 t-inv T
 -0.333333  0.333333 -0.066667    0.00029630 120 t-inv T
 -0.333333 -0.066667  0.333333    0.00029630 120 t-inv T
 -0.066667 -0.333333  0.333333    0.00029630 120 t-inv T
  0.266667 -0.333333 -0.066667    0.00029630 121 t-inv T
  0.266667 -0.066667 -0.333333    0.00029630 121 t-inv T
 -0.066667  0.266667 -0.333333    0.00029630 121 t-inv T
 -0.333333  0.266667 -0.066667    0.00029630 121 t-inv T
 -0.333333 -0.066667  0.266667    0.00029630 121 t-inv T
 -0.066667 -0.333333  0.266667    0.00029630 121 t-inv T
  0.200000 -0.333333 -0.066667    0.00029630 122 t-inv T
  0.200000 -0.066667 -0.333333    0.00029630 122 t-inv T
 -0.066667  0.200000 -0.333333    0.00029630 122 t-inv T
 -0.333333  0.200000 -0.066667    0.00029630 122 t-inv T
 -0.333333 -0.066667  0.200000    0.00029630 122 t-inv T
 -0.066667 -0.333333  0.200000    0.00029630 122 t-inv T
  0.133333 -0.333333 -0.066667    0.00029630 123 t-inv T
  0.133333 -0.066667 -0.333333    0.00029630 123 t-inv T
 -0.066667  0.133333 -0.333333    0.00029630 123 t-inv T
 -0.333333  0.133333 -0.066667    0.00029630 123 t-inv T
 -0.333333 -0.066667  0.133333    0.00029630 123 t-inv T
 -0.066667 -0.333333  0.133333    0.00029630 123 t-inv T
  0.066667 -0.333333 -0.066667    0.00029630 124 t-inv T
  0.066667 -0.066667 -0.333333    0.00029630 124 t-inv T
 -0.066667  0.066667 -0.333333    0.00029630 124 t-inv T
 -0.333333  0.066667 -0.066667    0.00029630 124 t-inv T
 -0.333333 -0.066667  0.066667    0.00029630 124 t-inv T
 -0.066667 -0.333333  0.066667    0.00029630 124 t-inv T
 -0.400000 -0.400000 -0.066667    0.00029630 125 t-inv T
 -0.400000 -0.066667 -0.400000    0.00029630 125 t-inv T
 -0.066667 -0.400000 -0.400000    0.00029630 125 t-inv T
 -0.466667 -0.400000 -0.066667    0.00029630 126 t-inv T
 -0.466667 -0.066667 -0.400000    0.00029630 126 t-inv T
 -0.066667 -0.466667 -0.400000    0.00029630 126 t-inv T
 -0.400000 -0.466667 -0.066667    0.00029630 126 t-inv T
 -0.400000 -0.066667 -0.466667    0.00029630 126 t-inv T
 -0.066667 -0.400000 -0.466667    0.00029630 126 t-inv T
  0.466667 -0.400000 -0.066667    0.00029630 127 t-inv T
  0.466667 -0.066667 -0.400000    0.00029630 127 t-inv T
 -0.066667  0.466667 -0.400000    0.00029630 127 t-inv T
 -0.400000  0.466667 -0.066667    0.00029630 127 t-inv T
 -0.400000 -0.066667  0.466667    0.00029630 127 t-inv T
 -0.066667 -0.400000  0.466667    0.00029630 127 t-inv T
  0.400000 -0.400000 -0.066667    0.00029630 128 t-inv T
  0.400000 -0.066667 -0.400000    0.00029630 128 t-inv T
 -0.066667  0.400000 -0.400000    0.00029630 128 t-inv T
 -0.400000  0.400000 -0.066667    0.00029630 128 t-inv T
 -0.400000 -0.066667  0.400000    0.00029630 128 t-inv T
 -0.066667 -0.400000  0.400000    0.00029630 128 t-inv T
  0.333333 -0.400000 -0.066667    0.00029630 129 t-inv T
  0.333333 -0.066667 -0.400000    0.00029630 129 t-inv T
 -0.066667  0.333333 -0.400000    0.00029630 129 t-inv T
 -0.400000  0.333333 -0.066667    0.00029630 129 t-inv T
 -0.400000 -0.066667  0.333333    0.00029630 129 t-inv T
 -0.066667 -0.400000  0.333333    0.00029630 129 t-inv T
  0.266667 -0.400000 -0.066667    0.00029630 130 t-inv T
  0.266667 -0.066667 -0.400000    0.00029630 130 t-inv T
 -0.066667  0.266667 -0.400000    0.00029630 130 t-inv T
 -0.400000  0.266667 -0.066667    0.00029630 130 t-inv T
 -0.400000 -0.066667  0.266667    0.00029630 130 t-inv T
 -0.066667 -0.400000  0.266667    0.00029630 130 t-inv T
  0.200000 -0.400000 -0.066667    0.00029630 131 t-inv T
  0.200000 -0.066667 -0.400000    0.00029630 131 t-inv T
 -0.066667  0.200000 -0.400000    0.00029630 131 t-inv T
 -0.400000  0.200000 -0.066667    0.00029630 131 t-inv T
 -0.400000 -0.066667  0.200000    0.00029630 131 t-inv T
 -0.066667 -0.400000  0.200000    0.00029630 131 t-inv T
  0.133333 -0.400000 -0.066667    0.00029630 132 t-inv T
  0.133333 -0.066667 -0.400000    0.00029630 132 t-inv T
 -0.066667  0.133333 -0.400000    0.00029630 132 t-inv T
 -0.400000  0.133333 -0.066667    0.00029630 132 t-inv T
 -0.400000 -0.066667  0.133333    0.00029630 132 t-inv T
 -0.066667 -0.400000  0.133333    0.00029630 132 t-inv T
  0.066667 -0.400000 -0.066667    0.00029630 133 t-inv T
  0.066667 -0.066667 -0.400000    0.00029630 133 t-inv T
 -0.066667  0.066667 -0.400000    0.00029630 133 t-inv T
 -0.400000  0.066667 -0.066667    0.00029630 133 t-inv T
 -0.400000 -0.066667  0.066667    0.00029630 133 t-inv T
 -0.066667 -0.400000  0.066667    0.00029630 133 t-inv T
 -0.466667 -0.466667 -0.066667    0.00029630 134 t-inv T
 -0.466667 -0.066667 -0.466667    0.00029630 134 t-inv T
 -0.066667 -0.466667 -0.466667    0.00029630 134 t-inv T
  0.466667 -0.466667 -0.066667    0.00029630 135 t-inv T
  0.466667 -0.066667 -0.466667    0.00029630 135 t-inv T
 -0.066667  0.466667 -0.466667    0.00029630 135 t-inv T
 -0.466667  0.466667 -0.066667    0.00029630 135 t-inv T
 -0.466667 -0.066667  0.466667    0.00029630 135 t-inv T
 -0.066667 -0.466667  0.466667    0.00029630 135 t-inv T
  0.400000 -0.466667 -0.066667    0.00029630 136 t-inv T
  0.400000 -0.066667 -0.466667    0.00029630 136 t-inv T
 -0.066667  0.400000 -0.466667    0.00029630 136 t-inv T
 -0.466667  0.400000 -0.066667    0.00029630 136 t-inv T
 -0.466667 -0.066667  0.400000    0.00029630 136 t-inv T
 -0.066667 -0.466667  0.400000    0.00029630 136 t-inv T
  0.333333 -0.466667 -0.066667    0.00029630 137 t-inv T
  0.333333 -0.066667 -0.466667    0.00029630 137 t-inv T
 -0.066667  0.333333 -0.466667    0.00029630 137 t-inv T
 -0.466667  0.333333 -0.066667    0.00029630 137 t-inv T
 -0.466667 -0.066667  0.333333    0.00029630 137 t-inv T
 -0.066667 -0.466667  0.333333    0.00029630 137 t-inv T
  0.266667 -0.466667 -0.066667    0.00029630 138 t-inv T
  0.266667 -0.066667 -0.466667    0.00029630 138 t-inv T
 -0.066667  0.266667 -0.466667    0.00029630 138 t-inv T
 -0.466667  0.266667 -0.066667    0.00029630 138 t-inv T
 -0.466667 -0.066667  0.266667    0.00029630 138 t-inv T
 -0.066667 -0.466667  0.266667    0.00029630 138 t-inv T
  0.200000 -0.466667 -0.066667    0.00029630 139 t-inv T
  0.200000 -0.066667 -0.466667    0.00029630 139 t-inv T
 -0.066667  0.200000 -0.466667    0.00029630 139 t-inv T
 -0.466667  0.200000 -0.066667    0.00029630 139 t-inv T
 -0.466667 -0.066667  0.200000    0.00029630 139 t-inv T
 -0.066667 -0.466667  0.200000    0.00029630 139 t-inv T
  0.133333 -0.466667 -0.066667    0.00029630 140 t-inv T
  0.133333 -0.066667 -0.466667    0.00029630 140 t-inv T
 -0.066667  0.133333 -0.466667    0.00029630 140 t-inv T
 -0.466667  0.133333 -0.066667    0.00029630 140 t-inv T
 -0.466667 -0.066667  0.133333    0.00029630 140 t-inv T
 -0.066667 -0.466667  0.133333    0.00029630 140 t-inv T
  0.066667 -0.466667 -0.066667    0.00029630 141 t-inv T
  0.066667 -0.066667 -0.466667    0.00029630 141 t-inv T
 -0.066667  0.066667 -0.466667    0.00029630 141 t-inv T
 -0.466667  0.066667 -0.066667    0.00029630 141 t-inv T
 -0.466667 -0.066667  0.066667    0.00029630 141 t-inv T
 -0.066667 -0.466667  0.066667    0.00029630 141 t-inv T
  0.466667  0.466667 -0.066667    0.00029630 142 t-inv T
  0.466667 -0.066667  0.466667    0.00029630 142 t-inv T
 -0.066667  0.466667  0.466667    0.00029630 142 t-inv T
  0.400000  0.466667 -0.066667    0.00029630 143 t-inv T
  0.400000 -0.066667  0.466667    0.00029630 143 t-inv T
 -0.066667  0.400000  0.466667    0.00029630 143 t-inv T
  0.466667  0.400000 -0.066667    0.00029630 143 t-inv T
  0.466667 -0.066667  0.400000    0.00029630 143 t-inv T
 -0.066667  0.466667  0.400000    0.00029630 143 t-inv T
  0.333333  0.466667 -0.066667    0.00029630 144 t-inv T
  0.333333 -0.066667  0.466667    0.00029630 144 t-inv T
 -0.066667  0.333333  0.466667    0.00029630 144 t-inv T
  0.466667  0.333333 -0.066667    0.00029630 144 t-inv T
  0.466667 -0.066667  0.333333    0.00029630 144 t-inv T
 -0.066667  0.466667  0.333333    0.00029630 144 t-inv T
  0.266667  0.466667 -0.066667    0.00029630 145 t-inv T
  0.266667 -0.066667  0.466667    0.00029630 145 t-inv T
 -0.066667  0.266667  0.466667    0.00029630 145 t-inv T
  0.466667  0.266667 -0.066667    0.00029630 145 t-inv T
  0.466667 -0.066667  0.266667    0.00029630 145 t-inv T
 -0.066667  0.466667  0.266667    0.00029630 145 t-inv T
  0.200000  0.466667 -0.066667    0.00029630 146 t-inv T
  0.200000 -0.066667  0.466667    0.00029630 146 t-inv T
 -0.066667  0.200000  0.466667    0.00029630 146 t-inv T
  0.466667  0.200000 -0.066667    0.00029630 146 t-inv T
  0.466667 -0.066667  0.200000    0.00029630 146 t-inv T
 -0.066667  0.466667  0.200000    0.00029630 146 t-inv T
  0.133333  0.466667 -0.066667    0.00029630 147 t-inv T
  0.133333 -0.066667  0.466667    0.00029630 147 t-inv T
 -0.066667  0.133333  0.466667    0.00029630 147 t-inv T
  0.466667  0.133333 -0.066667    0.00029630 147 t-inv T
  0.466667 -0.066667  0.133333    0.00029630 147 t-inv T
 -0.066667  0.466667  0.133333    0.00029630 147 t-inv T
  0.400000  0.400000 -0.066667    0.00029630 148 t-inv T
  0.400000 -0.066667  0.400000    0.00029630 148 t-inv T
 -0.066667  0.400000  0.400000    0.00029630 148 t-inv T
  0.333333  0.400000 -0.066667    0.00029630 149 t-inv T
  0.333333 -0.066667  0.400000    0.00029630 149 t-inv T
 -0.066667  0.333333  0.400000    0.00029630 149 t-inv T
  0.400000  0.333333 -0.066667    0.00029630 149 t-inv T
  0.400000 -0.066667  0.333333    0.00029630 149 t-inv T
 -0.066667  0.400000  0.333333    0.00029630 149 t-inv T
  0.266667  0.400000 -0.066667    0.00029630 150 t-inv T
  0.266667 -0.066667  0.400000    0.00029630 150 t-inv T
 -0.066667  0.266667  0.400000    0.00029630 150 t-inv T
  0.400000  0.266667 -0.066667    0.00029630 150 t-inv T
  0.400000 -0.066667  0.266667    0.00029630 150 t-inv T
 -0.066667  0.400000  0.266667    0.00029630 150 t-inv T
  0.200000  0.400000 -0.066667    0.00029630 151 t-inv T
  0.200000 -0.066667  0.400000    0.00029630 151 t-inv T
 -0.066667  0.200000  0.400000    0.00029630 151 t-inv T
  0.400000  0.200000 -0.066667    0.00029630 151 t-inv T
  0.400000 -0.066667  0.200000    0.00029630 151 t-inv T
 -0.066667  0.400000  0.200000    0.00029630 151 t-inv T
  0.133333  0.400000 -0.066667    0.00029630 152 t-inv T
  0.133333 -0.066667  0.400000    0.00029630 152 t-inv T
 -0.066667  0.133333  0.400000    0.00029630 152 t-inv T
  0.400000  0.133333 -0.066667    0.00029630 152 t-inv T
  0.400000 -0.066667  0.133333    0.00029630 152 t-inv T
 -0.066667  0.400000  0.133333    0.00029630 152 t-inv T
  0.333333  0.333333 -0.066667    0.00029630 153 t-inv T
  0.333333 -0.066667  0.333333    0.00029630 153 t-inv T
 -0.066667  0.333333  0.333333    0.00029630 153 t-inv T
  0.266667  0.333333 -0.066667    0.00029630 154 t-inv T
  0.266667 -0.066667  0.333333    0.00029630 154 t-inv T
 -0.066667  0.266667  0.333333    0.00029630 154 t-inv T
  0.333333  0.266667 -0.066667    0.00029630 154 t-inv T
  0.333333 -0.066667  0.266667    0.00029630 154 t-inv T
 -0.066667  0.333333  0.266667    0.00029630 154 t-inv T
  0.200000  0.333333 -0.066667    0.00029630 155 t-inv T
  0.200000 -0.066667  0.333333    0.00029630 155 t-inv T
 -0.066667  0.200000  0.333333    0.00029630 155 t-inv T
  0.333333  0.200000 -0.066667    0.00029630 155 t-inv T
  0.333333 -0.066667  0.200000    0.00029630 155 t-inv T
 -0.066667  0.333333  0.200000    0.00029630 155 t-inv T
  0.133333  0.333333 -0.066667    0.00029630 156 t-inv T
  0.133333 -0.066667  0.333333    0.00029630 156 t-inv T
 -0.066667  0.133333  0.333333    0.00029630 156 t-inv T
  0.333333  0.133333 -0.066667    0.00029630 156 t-inv T
  0.333333 -0.066667  0.133333    0.00029630 156 t-inv T
 -0.066667  0.333333  0.133333    0.00029630 156 t-inv T
  0.266667  0.266667 -0.066667    0.00029630 157 t-inv T
  0.266667 -0.066667  0.266667    0.00029630 157 t-inv T
 -0.066667  0.266667  0.266667    0.00029630 157 t-inv T
  0.200000  0.266667 -0.066667    0.00029630 158 t-inv T
  0.200000 -0.066667  0.266667    0.00029630 158 t-inv T
 -0.066667  0.200000  0.266667    0.00029630 158 t-inv T
  0.266667  0.200000 -0.066667    0.00029630 158 t-inv T
  0.266667 -0.066667  0.200000    0.00029630 158 t-inv T
 -0.066667  0.266667  0.200000    0.00029630 158 t-inv T
  0.133333  0.266667 -0.066667    0.00029630 159 t-inv T
  0.133333 -0.066667  0.266667    0.00029630 159 t-inv T
 -0.066667  0.133333  0.266667    0.00029630 159 t-inv T
  0.266667  0.133333 -0.066667    0.00029630 159 t-inv T
  0.266667 -0.066667  0.133333    0.00029630 159 t-inv T
 -0.066667  0.266667  0.133333    0.00029630 159 t-inv T
  0.200000  0.200000 -0.066667    0.00029630 160 t-inv T
  0.200000 -0.066667  0.200000    0.00029630 160 t-inv T
 -0.066667  0.200000  0.200000    0.00029630 160 t-inv T
  0.133333  0.200000 -0.066667    0.00029630 161 t-inv T
  0.133333 -0.066667  0.200000    0.00029630 161 t-inv T
 -0.066667  0.133333  0.200000    0.00029630 161 t-inv T
  0.200000  0.133333 -0.066667    0.00029630 161 t-inv T
  0.200000 -0.066667  0.133333    0.00029630 161 t-inv T
 -0.066667  0.200000  0.133333    0.00029630 161 t-inv T
  0.133333  0.133333 -0.066667    0.00029630 162 t-inv T
  0.133333 -0.066667  0.133333    0.00029630 162 t-inv T
 -0.066667  0.133333  0.133333    0.00029630 162 t-inv T
 -0.133333 -0.133333 -0.133333    0.00029630 163 t-inv T
 -0.200000 -0.133333 -0.133333    0.00029630 164 t-inv T
 -0.133333 -0.200000 -0.133333    0.00029630 164 t-inv T
 -0.133333 -0.133333 -0.200000    0.00029630 164 t-inv T
 -0.266667 -0.133333 -0.133333    0.00029630 165 t-inv T
 -0.133333 -0.266667 -0.133333    0.00029630 165 t-inv T
 -0.133333 -0.133333 -0.266667    0.00029630 165 t-inv T
 -0.333333 -0.133333 -0.133333    0.00029630 166 t-inv T
 -0.133333 -0.333333 -0.133333    0.00029630 166 t-inv T
 -0.133333 -0.133333 -0.333333    0.00029630 166 t-inv T
 -0.400000 -0.133333 -0.133333    0.00029630 167 t-inv T
 -0.133333 -0.400000 -0.133333    0.00029630 167 t-inv T
 -0.133333 -0.133333 -0.400000    0.00029630 167 t-inv T
 -0.466667 -0.133333 -0.133333    0.00029630 168 t-inv T
 -0.133333 -0.466667 -0.133333    0.00029630 168 t-inv T
 -0.133333 -0.133333 -0.466667    0.00029630 168 t-inv T
  0.466667 -0.133333 -0.133333    0.00029630 169 t-inv T
 -0.133333  0.466667 -0.133333    0.00029630 169 t-inv T
 -0.133333 -0.133333  0.466667    0.00029630 169 t-inv T
  0.400000 -0.133333 -0.133333    0.00029630 170 t-inv T
 -0.133333  0.400000 -0.133333    0.00029630 170 t-inv T
 -0.133333 -0.133333  0.400000    0.00029630 170 t-inv T
  0.333333 -0.133333 -0.133333    0.00029630 171 t-inv T
 -0.133333  0.333333 -0.133333    0.00029630 171 t-inv T
 -0.133333 -0.133333  0.333333    0.00029630 171 t-inv T
  0.266667 -0.133333 -0.133333    0.00029630 172 t-inv T
 -0.133333  0.266667 -0.133333    0.00029630 172 t-inv T
 -0.133333 -0.133333  0.266667    0.00029630 172 t-inv T
  0.200000 -0.133333 -0.133333    0.00029630 173 t-inv T
 -0.133333  0.200000 -0.133333    0.00029630 173 t-inv T
 -0.133333 -0.133333  0.200000    0.00029630 173 t-inv T
  0.133333 -0.133333 -0.133333    0.00029630 174 t-inv T
 -0.133333  0.133333 -0.133333    0.00029630 174 t-inv T
 -0.133333 -0.133333  0.133333    0.00029630 174 t-inv T
 -0.200000 -0.200000 -0.133333    0.00029630 175 t-inv T
 -0.200000 -0.133333 -0.200000    0.00029630 175 t-inv T
 -0.133333 -0.200000 -0.200000    0.00029630 175 t-inv T
 -0.266667 -0.200000 -0.133333    0.00029630 176 t-inv T
 -0.266667 -0.133333 -0.200000    0.00029630 176 t-inv T
 -0.133333 -0.266667 -0.200000    0.00029630 176 t-inv T
 -0.200000 -0.266667 -0.133333    0.00029630 176 t-inv T
 -0.200000 -0.133333 -0.266667    0.00029630 176 t-inv T
 -0.133333 -0.200000 -0.266667    0.00029630 176 t-inv T
 -0.333333 -0.200000 -0.133333    0.00029630 177 t-inv T
 -0.333333 -0.133333 -0.200000    0.00029630 177 t-inv T
 -0.133333 -0.333333 -0.200000    0.00029630 177 t-inv T
 -0.200000 -0.333333 -0.133333    0.00029630 177 t-inv T
 -0.200000 -0.133333 -0.333333    0.00029630 177 t-inv T
 -0.133333 -0.200000 -0.333333    0.00029630 177 t-inv T
 -0.400000 -0.200000 -0.133333    0.00029630 178 t-inv T
 -0.400000 -0.133333 -0.200000    0.00029630 178 t-inv T
 -0.133333 -0.400000 -0.200000    0.00029630 178 t-inv T
 -0.200000 -0.400000 -0.133333    0.00029630 178 t-inv T
 -0.200000 -0.133333 -0.400000    0.00029630 178 t-inv T
 -0.133333 -0.200000 -0.400000    0.00029630 178 t-inv T
 -0.466667 -0.200000 -0.133333    0.00029630 179 t-inv T
 -0.466667 -0.133333 -0.200000    0.00029630 179 t-inv T
 -0.133333 -0.466667 -0.200000    0.00029630 179 t-inv T
 -0.200000 -0.466667 -0.133333    0.00029630 179 t-inv T
 -0.200000 -0.133333 -0.466667    0.00029630 179 t-inv T
 -0.133333 -0.200000 -0.466667    0.00029630 179 t-inv T
  0.466667 -0.200000 -0.133333    0.00029630 180 t-inv T
  0.466667 -0.133333 -0.200000    0.00029630 180 t-inv T
 -0.133333  0.466667 -0.200000    0.00029630 180 t-inv T
 -0.200000  0.466667 -0.133333    0.00029630 180 t-inv T
 -0.200000 -0.133333  0.466667    0.00029630 180 t-inv T
 -0.133333 -0.200000  0.466667    0.00029630 180 t-inv T
  0.400000 -0.200000 -0.133333    0.00029630 181 t-inv T
  0.400000 -0.133333 -0.200000    0.00029630 181 t-inv T
 -0.133333  0.400000 -0.200000    0.00029630 181 t-inv T
 -0.200000  0.400000 -0.133333    0.00029630 181 t-inv T
 -0.200000 -0.133333  0.400000    0.00029630 181 t-inv T
 -0.133333 -0.200000  0.400000    0.00029630 181 t-inv T
  0.333333 -0.200000 -0.133333    0.00029630 182 t-inv T
  0.333333 -0.133333 -0.200000    0.00029630 182 t-inv T
 -0.133333  0.333333 -0.200000    0.00029630 182 t-inv T
 -0.200000  0.333333 -0.133333    0.00029630 182 t-inv T
 -0.200000 -0.133333  0.333333    0.00029630 182 t-inv T
 -0.133333 -0.200000  0.333333    0.00029630 182 t-inv T
  0.266667 -0.200000 -0.133333    0.00029630 183 t-inv T
  0.266667 -0.133333 -0.200000    0.00029630 183 t-inv T
 -0.133333  0.266667 -0.200000    0.00029630 183 t-inv T
 -0.200000  0.266667 -0.133333    0.00029630 183 t-inv T
 -0.200000 -0.133333  0.266667    0.00029630 183 t-inv T
 -0.133333 -0.200000  0.266667    0.00029630 183 t-inv T
  0.200000 -0.200000 -0.133333    0.00029630 184 t-inv T
  0.200000 -0.133333 -0.200000    0.00029630 184 t-inv T
 -0.133333  0.200000 -0.200000    0.00029630 184 t-inv T
 -0.200000  0.200000 -0.133333    0.00029630 184 t-inv T
 -0.200000 -0.133333  0.200000    0.00029630 184 t-inv T
 -0.133333 -0.200000  0.200000    0.00029630 184 t-inv T
  0.133333 -0.200000 -0.133333    0.00029630 185 t-inv T
  0.133333 -0.133333 -0.200000    0.00029630 185 t-inv T
 -0.133333  0.133333 -0.200000    0.00029630 185 t-inv T
 -0.200000  0.133333 -0.133333    0.00029630 185 t-inv T
 -0.200000 -0.133333  0.133333    0.00029630 185 t-inv T
 -0.133333 -0.200000  0.133333    0.00029630 185 t-inv T
 -0.266667 -0.266667 -0.133333    0.00029630 186 t-inv T
 -0.266667 -0.133333 -0.266667    0.00029630 186 t-inv T
 -0.133333 -0.266667 -0.266667    0.00029630 186 t-inv T
 -0.333333 -0.266667 -0.133333    0.00029630 187 t-inv T
 -0.333333 -0.133333 -0.266667    0.00029630 187 t-inv T
 -0.133333 -0.333333 -0.266667    0.00029630 187 t-inv T
 -0.266667 -0.333333 -0.133333    0.00029630 187 t-inv T
 -0.266667 -0.133333 -0.333333    0.00029630 187 t-inv T
 -0.133333 -0.266667 -0.333333    0.00029630 187 t-inv T
 -0.400000 -0.266667 -0.133333    0.00029630 188 t-inv T
 -0.400000 -0.133333 -0.266667    0.00029630 188 t-inv T
 -0.133333 -0.400000 -0.266667    0.00029630 188 t-inv T
 -0.266667 -0.400000 -0.133333    0.00029630 188 t-inv T
 -0.266667 -0.133333 -0.400000    0.00029630 188 t-inv T
 -0.133333 -0.266667 -0.400000    0.00029630 188 t-inv T
 -0.466667 -0.266667 -0.133333    0.00029630 189 t-inv T
 -0.466667 -0.133333 -0.266667    0.00029630 189 t-inv T
 -0.133333 -0.466667 -0.266667    0.00029630 189 t-inv T
 -0.266667 -0.466667 -0.133333    0.00029630 189 t-inv T
 -0.266667 -0.133333 -0.466667    0.00029630 189 t-inv T
 -0.133333 -0.266667 -0.466667    0.00029630 189 t-inv T
  0.466667 -0.266667 -0.133333    0.00029630 190 t-inv T
  0.466667 -0.133333 -0.266667    0.00029630 190 t-inv T
 -0.133333  0.466667 -0.266667    0.00029630 190 t-inv T
 -0.266667  0.466667 -0.133333    0.00029630 190 t-inv T
 -0.266667 -0.133333  0.466667    0.00029630 190 t-inv T
 -0.133333 -0.266667  0.466667    0.00029630 190 t-inv T
  0.400000 -0.266667 -0.133333    0.00029630 191 t-inv T
  0.400000 -0.133333 -0.266667    0.00029630 191 t-inv T
 -0.133333  0.400000 -0.266667    0.00029630 191 t-inv T
 -0.266667  0.400000 -0.133333    0.00029630 191 t-inv T
 -0.266667 -0.133333  0.400000    0.00029630 191 t-inv T
 -0.133333 -0.266667  0.400000    0.00029630 191 t-inv T
  0.333333 -0.266667 -0.133333    0.00029630 192 t-inv T
  0.333333 -0.133333 -0.266667    0.00029630 192 t-inv T
 -0.133333  0.333333 -0.266667    0.00029630 192 t-inv T
 -0.266667  0.333333 -0.133333    0.00029630 192 t-inv T
 -0.266667 -0.133333  0.333333    0.00029630 192 t-inv T
 -0.133333 -0.266667  0.333333    0.00029630 192 t-inv T
  0.266667 -0.266667 -0.133333    0.00029630 193 t-inv T
  0.266667 -0.133333 -0.266667    0.00029630 193 t-inv T
 -0.133333  0.266667 -0.266667    0.00029630 193 t-inv T
 -0.266667  0.266667 -0.133333    0.00029630 193 t-inv T
 -0.266667 -0.133333  0.266667    0.00029630 193 t-inv T
 -0.133333 -0.266667  0.266667    0.00029630 193 t-inv T
  0.200000 -0.266667 -0.133333    0.00029630 194 t-inv T
  0.200000 -0.133333 -0.266667    0.00029630 194 t-inv T
 -0.133333  0.200000 -0.266667    0.00029630 194 t-inv T
 -0.266667  0.200000 -0.133333    0.00029630 194 t-inv T
 -0.266667 -0.133333  0.200000    0.00029630 194 t-inv T
 -0.133333 -0.266667  0.200000    0.00029630 194 t-inv T
  0.133333 -0.266667 -0.133333    0.00029630 195 t-inv T
  0.133333 -0.133333 -0.266667    0.00029630 195 t-inv T
 -0.133333  0.133333 -0.266667    0.00029630 195 t-inv T
 -0.266667  0.133333 -0.133333    0.00029630 195 t-inv T
 -0.266667 -0.133333  0.133333    0.00029630 195 t-inv T
 -0.133333 -0.266667  0.133333    0.00029630 195 t-inv T
 -0.333333 -0.333333 -0.133333    0.00029630 196 t-inv T
 -0.333333 -0.133333 -0.333333    0.00029630 196 t-inv T
 -0.133333 -0.333333 -0.333333    0.00029630 196 t-inv T
 -0.400000 -0.333333 -0.133333    0.00029630 197 t-inv T
 -0.400000 -0.133333 -0.333333    0.00029630 197 t-inv T
 -0.133333 -0.400000 -0.333333    0.00029630 197 t-inv T
 -0.333333 -0.400000 -0.133333    0.00029630 197 t-inv T
 -0.333333 -0.133333 -0.400000    0.00029630 197 t-inv T
 -0.133333 -0.333333 -0.400000    0.00029630 197 t-inv T
 -0.466667 -0.333333 -0.133333    0.00029630 198 t-inv T
 -0.466667 -0.133333 -0.333333    0.00029630 198 t-inv T
 -0.133333 -0.466667 -0.333333    0.00029630 198 t-inv T
 -0.333333 -0.466667 -0.133333    0.00029630 198 t-inv T
 -0.333333 -0.133333 -0.466667    0.00029630 198 t-inv T
 -0.133333 -0.333333 -0.466667    0.00029630 198 t-inv T
  0.466667 -0.333333 -0.133333    0.00029630 199 t-inv T
  0.466667 -0.133333 -0.333333    0.00029630 199 t-inv T
 -0.133333  0.466667 -0.333333    0.00029630 199 t-inv T
 -0.333333  0.466667 -0.133333    0.00029630 199 t-inv T
 -0.333333 -0.133333  0.466667    0.00029630 199 t-inv T
 -0.133333 -0.333333  0.466667    0.00029630 199 t-inv T
  0.400000 -0.333333 -0.133333    0.00029630 200 t-inv T
  0.400000 -0.133333 -0.333333    0.00029630 200 t-inv T
 -0.133333  0.400000 -0.333333    0.00029630 200 t-inv T
 -0.333333  0.400000 -0.133333    0.00029630 200 t-inv T
 -0.333333 -0.133333  0.400000    0.00029630 200 t-inv T
 -0.133333 -0.333333  0.400000    0.00029630 200 t-inv T
  0.333333 -0.333333 -0.133333    0.00029630 201 t-inv T
  0.333333 -0.133333 -0.333333    0.00029630 201 t-inv T
 -0.133333  0.333333 -0.333333    0.00029630 201 t-inv T
 -0.333333  0.333333 -0.133333    0.00029630 201 t-inv T
 -0.333333 -0.133333  0.333333    0.00029630 201 t-inv T
 -0.133333 -0.333333  0.333333    0.00029630 201 t-inv T
  0.266667 -0.333333 -0.133333    0.00029630 202 t-inv T
  0.266667 -0.133333 -0.333333    0.00029630 202 t-inv T
 -0.133333  0.266667 -0.333333    0.00029630 202 t-inv T
 -0.333333  0.266667 -0.133333    0.00029630 202 t-inv T
 -0.333333 -0.133333  0.266667    0.00029630 202 t-inv T
 -0.133333 -0.333333  0.266667    0.00029630 202 t-inv T
  0.200000 -0.333333 -0.133333    0.00029630 203 t-inv T
  0.200000 -0.133333 -0.333333    0.00029630 203 t-inv T
 -0.133333  0.200000 -0.333333    0.00029630 203 t-inv T
 -0.333333  0.200000 -0.133333    0.00029630 203 t-inv T
 -0.333333 -0.133333  0.200000    0.00029630 203 t-inv T
 -0.133333 -0.333333  0.200000    0.00029630 203 t-inv T
  0.133333 -0.333333 -0.133333    0.00029630 204 t-inv T
  0.133333 -0.133333 -0.333333    0.00029630 204 t-inv T
 -0.133333  0.133333 -0.333333    0.00029630 204 t-inv T
 -0.333333  0.133333 -0.133333    0.00029630 204 t-inv T
 -0.333333 -0.133333  0.133333    0.00029630 204 t-inv T
 -0.133333 -0.333333  0.133333    0.00029630 204 t-inv T
 -0.400000 -0.400000 -0.133333    0.00029630 205 t-inv T
 -0.400000 -0.133333 -0.400000    0.00029630 205 t-inv T
 -0.133333 -0.400000 -0.400000    0.00029630 205 t-inv T
 -0.466667 -0.400000 -0.133333    0.00029630 206 t-inv T
 -0.466667 -0.133333 -0.400000    0.00029630 206 t-inv T
 -0.133333 -0.466667 -0.400000    0.00029630 206 t-inv T
 -0.400000 -0.466667 -0.133333    0.00029630 206 t-inv T
 -0.400000 -0.133333 -0.466667    0.00029630 206 t-inv T
 -0.133333 -0.400000 -0.466667    0.00029630 206 t-inv T
  0.466667 -0.400000 -0.133333    0.00029630 207 t-inv T
  0.466667 -0.133333 -0.400000    0.00029630 207 t-inv T
 -0.133333  0.466667 -0.400000    0.00029630 207 t-inv T
 -0.400000  0.466667 -0.133333    0.00029630 207 t-inv T
 -0.400000 -0.133333  0.466667    0.00029630 207 t-inv T
 -0.133333 -0.400000  0.466667    0.00029630 207 t-inv T
  0.400000 -0.400000 -0.133333    0.00029630 208 t-inv T
  0.400000 -0.133333 -0.400000    0.00029630 208 t-inv T
 -0.133333  0.400000 -0.400000    0.00029630 208 t-inv T
 -0.400000  0.400000 -0.133333    0.00029630 208 t-inv T
 -0.400000 -0.133333  0.400000    0.00029630 208 t-inv T
 -0.133333 -0.400000  0.400000    0.00029630 208 t-inv T
  0.333333 -0.400000 -0.133333    0.00029630 209 t-inv T
  0.333333 -0.133333 -0.400000    0.00029630 209 t-inv T
 -0.133333  0.333333 -0.400000    0.00029630 209 t-inv T
 -0.400000  0.333333 -0.133333    0.00029630 209 t-inv T
 -0.400000 -0.133333  0.333333    0.00029630 209 t-inv T
 -0.133333 -0.400000  0.333333    0.00029630 209 t-inv T
  0.266667 -0.400000 -0.133333    0.00029630 210 t-inv T
  0.266667 -0.133333 -0.400000    0.00029630 210 t-inv T
 -0.133333  0.266667 -0.400000    0.00029630 210 t-inv T
 -0.400000  0.266667 -0.133333    0.00029630 210 t-inv T
 -0.400000 -0.133333  0.266667    0.00029630 210 t-inv T
 -0.133333 -0.400000  0.266667    0.00029630 210 t-inv T
  0.200000 -0.400000 -0.133333    0.00029630 211 t-inv T
  0.200000 -0.133333 -0.400000    0.00029630 211 t-inv T
 -0.133333  0.200000 -0.400000    0.00029630 211 t-inv T
 -0.400000  0.200000 -0.133333    0.00029630 211 t-inv T
 -0.400000 -0.133333  0.200000    0.00029630 211 t-inv T
 -0.133333 -0.400000  0.200000    0.00029630 211 t-inv T
  0.133333 -0.400000 -0.133333    0.00029630 212 t-inv T
  0.133333 -0.133333 -0.400000    0.00029630 212 t-inv T
 -0.133333  0.133333 -0.400000    0.00029630 212 t-inv T
 -0.400000  0.133333 -0.133333    0.00029630 212 t-inv T
 -0.400000 -0.133333  0.133333    0.00029630 212 t-inv T
 -0.133333 -0.400000  0.133333    0.00029630 212 t-inv T
 -0.466667 -0.466667 -0.133333    0.00029630 213 t-inv T
 -0.466667 -0.133333 -0.466667    0.00029630 213 t-inv T
 -0.133333 -0.466667 -0.466667    0.00029630 213 t-inv T
  0.466667 -0.466667 -0.133333    0.00029630 214 t-inv T
  0.466667 -0.133333 -0.466667    0.00029630 214 t-inv T
 -0.133333  0.466667 -0.466667    0.00029630 214 t-inv T
 -0.466667  0.466667 -0.133333    0.00029630 214 t-inv T
 -0.466667 -0.133333  0.466667    0.00029630 214 t-inv T
 -0.133333 -0.466667  0.466667    0.00029630 214 t-inv T
  0.400000 -0.466667 -0.133333    0.00029630 215 t-inv T
  0.400000 -0.133333 -0.466667    0.00029630 215 t-inv T
 -0.133333  0.400000 -0.466667    0.00029630 215 t-inv T
 -0.466667  0.400000 -0.133333    0.00029630 215 t-inv T
 -0.466667 -0.133333  0.400000    0.00029630 215 t-inv T
 -0.133333 -0.466667  0.400000    0.00029630 215 t-inv T
  0.333333 -0.466667 -0.133333    0.00029630 216 t-inv T
  0.333333 -0.133333 -0.466667    0.00029630 216 t-inv T
 -0.133333  0.333333 -0.466667    0.00029630 216 t-inv T
 -0.466667  0.333333 -0.133333    0.00029630 216 t-inv T
 -0.466667 -0.133333  0.333333    0.00029630 216 t-inv T
 -0.133333 -0.466667  0.333333    0.00029630 216 t-inv T
  0.266667 -0.466667 -0.133333    0.00029630 217 t-inv T
  0.266667 -0.133333 -0.466667    0.00029630 217 t-inv T
 -0.133333  0.266667 -0.466667    0.00029630 217 t-inv T
 -0.466667  0.266667 -0.133333    0.00029630 217 t-inv T
 -0.466667 -0.133333  0.266667    0.00029630 217 t-inv T
 -0.133333 -0.466667  0.266667    0.00029630 217 t-inv T
  0.200000 -0.466667 -0.133333    0.00029630 218 t-inv T
  0.200000 -0.133333 -0.466667    0.00029630 218 t-inv T
 -0.133333  0.200000 -0.466667    0.00029630 218 t-inv T
 -0.466667  0.200000 -0.133333    0.00029630 218 t-inv T
 -0.466667 -0.133333  0.200000    0.00029630 218 t-inv T
 -0.133333 -0.466667  0.200000    0.00029630 218 t-inv T
  0.133333 -0.466667 -0.133333    0.00029630 219 t-inv T
  0.133333 -0.133333 -0.466667    0.00029630 219 t-inv T
 -0.133333  0.133333 -0.466667    0.00029630 219 t-inv T
 -0.466667  0.133333 -0.133333    0.00029630 219 t-inv T
 -0.466667 -0.133333  0.133333    0.00029630 219 t-inv T
 -0.133333 -0.466667  0.133333    0.00029630 219 t-inv T
  0.466667  0.466667 -0.133333    0.00029630 220 t-inv T
  0.466667 -0.133333  0.466667    0.00029630 220 t-inv T
 -0.133333  0.466667  0.466667    0.00029630 220 t-inv T
  0.400000  0.466667 -0.133333    0.00029630 221 t-inv T
  0.400000 -0.133333  0.466667    0.00029630 221 t-inv T
 -0.133333  0.400000  0.466667    0.00029630 221 t-inv T
  0.466667  0.400000 -0.133333    0.00029630 221 t-inv T
  0.466667 -0.133333  0.400000    0.00029630 221 t-inv T
 -0.133333  0.466667  0.400000    0.00029630 221 t-inv T
  0.333333  0.466667 -0.133333    0.00029630 222 t-inv T
  0.333333 -0.133333  0.466667    0.00029630 222 t-inv T
 -0.133333  0.333333  0.466667    0.00029630 222 t-inv T
  0.466667  0.333333 -0.133333    0.00029630 222 t-inv T
  0.466667 -0.133333  0.333333    0.00029630 222 t-inv T
 -0.133333  0.466667  0.333333    0.00029630 222 t-inv T
  0.266667  0.466667 -0.133333    0.00029630 223 t-inv T
  0.266667 -0.133333  0.466667    0.00029630 223 t-inv T
 -0.133333  0.266667  0.466667    0.00029630 223 t-inv T
  0.466667  0.266667 -0.133333    0.00029630 223 t-inv T
  0.466667 -0.133333  0.266667    0.00029630 223 t-inv T
 -0.133333  0.466667  0.266667    0.00029630 223 t-inv T
  0.200000  0.466667 -0.133333    0.00029630 224 t-inv T
  0.200000 -0.133333  0.466667    0.00029630 224 t-inv T
 -0.133333  0.200000  0.466667    0.00029630 224 t-inv T
  0.466667  0.200000 -0.133333    0.00029630 224 t-inv T
  0.466667 -0.133333  0.200000    0.00029630 224 t-inv T
 -0.133333  0.466667  0.200000    0.00029630 224 t-inv T
  0.400000  0.400000 -0.133333    0.00029630 225 t-inv T
  0.400000 -0.133333  0.400000    0.00029630 225 t-inv T
 -0.133333  0.400000  0.400000    0.00029630 225 t-inv T
  0.333333  0.400000 -0.133333    0.00029630 226 t-inv T
  0.333333 -0.133333  0.400000    0.00029630 226 t-inv T
 -0.133333  0.333333  0.400000    0.00029630 226 t-inv T
  0.400000  0.333333 -0.133333    0.00029630 226 t-inv T
  0.400000 -0.133333  0.333333    0.00029630 226 t-inv T
 -0.133333  0.400000  0.333333    0.00029630 226 t-inv T
  0.266667  0.400000 -0.133333    0.00029630 227 t-inv T
  0.266667 -0.133333  0.400000    0.00029630 227 t-inv T
 -0.133333  0.266667  0.400000    0.00029630 227 t-inv T
  0.400000  0.266667 -0.133333    0.00029630 227 t-inv T
  0.400000 -0.133333  0.266667    0.00029630 227 t-inv T
 -0.133333  0.400000  0.266667    0.00029630 227 t-inv T
  0.200000  0.400000 -0.133333    0.00029630 228 t-inv T
  0.200000 -0.133333  0.400000    0.00029630 228 t-inv T
 -0.133333  0.200000  0.400000    0.00029630 228 t-inv T
  0.400000  0.200000 -0.133333    0.00029630 228 t-inv T
  0.400000 -0.133333  0.200000    0.00029630 228 t-inv T
 -0.133333  0.400000  0.200000    0.00029630 228 t-inv T
  0.333333  0.333333 -0.133333    0.00029630 229 t-inv T
  0.333333 -0.133333  0.333333    0.00029630 229 t-inv T
 -0.133333  0.333333  0.333333    0.00029630 229 t-inv T
  0.266667  0.333333 -0.133333    0.00029630 230 t-inv T
  0.266667 -0.133333  0.333333    0.00029630 230 t-inv T
 -0.133333  0.266667  0.333333    0.00029630 230 t-inv T
  0.333333  0.266667 -0.133333    0.00029630 230 t-inv T
  0.333333 -0.133333  0.266667    0.00029630 230 t-inv T
 -0.133333  0.333333  0.266667    0.00029630 230 t-inv T
  0.200000  0.333333 -0.133333    0.00029630 231 t-inv T
  0.200000 -0.133333  0.333333    0.00029630 231 t-inv T
 -0.133333  0.200000  0.333333    0.00029630 231 t-inv T
  0.333333  0.200000 -0.133333    0.00029630 231 t-inv T
  0.333333 -0.133333  0.200000    0.00029630 231 t-inv T
 -0.133333  0.333333  0.200000    0.00029630 231 t-inv T
  0.266667  0.266667 -0.133333    0.00029630 232 t-inv T
  0.266667 -0.133333  0.266667    0.00029630 232 t-inv T
 -0.133333  0.266667  0.266667    0.00029630 232 t-inv T
  0.200000  0.266667 -0.133333    0.00029630 233 t-inv T
  0.200000 -0.133333  0.266667    0.00029630 233 t-inv T
 -0.133333  0.200000  0.266667    0.00029630 233 t-inv T
  0.266667  0.200000 -0.133333    0.00029630 233 t-inv T
  0.266667 -0.133333  0.200000    0.00029630 233 t-inv T
 -0.133333  0.266667  0.200000    0.00029630 233 t-inv T
  0.200000  0.200000 -0.133333    0.00029630 234 t-inv T
  0.200000 -0.133333  0.200000    0.00029630 234 t-inv T
 -0.133333  0.200000  0.200000    0.00029630 234 t-inv T
 -0.200000 -0.200000 -0.200000    0.00029630 235 t-inv T
 -0.266667 -0.200000 -0.200000    0.00029630 236 t-inv T
 -0.200000 -0.266667 -0.200000    0.00029630 236 t-inv T
 -0.200000 -0.200000 -0.266667    0.00029630 236 t-inv T
 -0.333333 -0.200000 -0.200000    0.00029630 237 t-inv T
 -0.200000 -0.333333 -0.200000    0.00029630 237 t-inv T
 -0.200000 -0.200000 -0.333333    0.00029630 237 t-inv T
 -0.400000 -0.200000 -0.200000    0.00029630 238 t-inv T
 -0.200000 -0.400000 -0.200000    0.00029630 238 t-inv T
 -0.200000 -0.200000 -0.400000    0.00029630 238 t-inv T
 -0.466667 -0.200000 -0.200000    0.00029630 239 t-inv T
 -0.200000 -0.466667 -0.200000    0.00029630 239 t-inv T
 -0.200000 -0.200000 -0.466667    0.00029630 239 t-inv T
  0.466667 -0.200000 -0.200000    0.00029630 240 t-inv T
 -0.200000  0.466667 -0.200000    0.00029630 240 t-inv T
 -0.200000 -0.200000  0.466667    0.00029630 240 t-inv T
  0.400000 -0.200000 -0.200000    0.00029630 241 t-inv T
 -0.200000  0.400000 -0.200000    0.00029630 241 t-inv T
 -0.200000 -0.200000  0.400000    0.00029630 241 t-inv T
  0.333333 -0.200000 -0.200000    0.00029630 242 t-inv T
 -0.200000  0.333333 -0.200000    0.00029630 242 t-inv T
 -0.200000 -0.200000  0.333333    0.00029630 242 t-inv T
  0.266667 -0.200000 -0.200000    0.00029630 243 t-inv T
 -0.200000  0.266667 -0.200000    0.00029630 243 t-inv T
 -0.200000 -0.200000  0.266667    0.00029630 243 t-inv T
  0.200000 -0.200000 -0.200000    0.00029630 244 t-inv T
 -0.200000  0.200000 -0.200000    0.00029630 244 t-inv T
 -0.200000 -0.200000  0.200000    0.00029630 244 t-inv T
 -0.266667 -0.266667 -0.200000    0.00029630 245 t-inv T
 -0.266667 -0.200000 -0.266667    0.00029630 245 t-inv T
 -0.200000 -0.266667 -0.266667    0.00029630 245 t-inv T
 -0.333333 -0.266667 -0.200000    0.00029630 246 t-inv T
 -0.333333 -0.200000 -0.266667    0.00029630 246 t-inv T
 -0.200000 -0.333333 -0.266667    0.00029630 246 t-inv T
 -0.266667 -0.333333 -0.200000    0.00029630 246 t-inv T
 -0.266667 -0.200000 -0.333333    0.00029630 246 t-inv T
 -0.200000 -0.266667 -0.333333    0.00029630 246 t-inv T
 -0.400000 -0.266667 -0.200000    0.00029630 247 t-inv T
 -0.400000 -0.200000 -0.266667    0.00029630 247 t-inv T
 -0.200000 -0.400000 -0.266667    0.00029630 247 t-inv T
 -0.266667 -0.400000 -0.200000    0.00029630 247 t-inv T
 -0.266667 -0.200000 -0.400000    0.00029630 247 t-inv T
 -0.200000 -0.266667 -0.400000    0.00029630 247 t-inv T
 -0.466667 -0.266667 -0.200000    0.00029630 248 t-inv T
 -0.466667 -0.200000 -0.266667    0.00029630 248 t-inv T
 -0.200000 -0.466667 -0.266667    0.00029630 248 t-inv T
 -0.266667 -0.466667 -0.200000    0.00029630 248 t-inv T
 -0.266667 -0.200000 -0.466667    0.00029630 248 t-inv T
 -0.200000 -0.266667 -0.466667    0.00029630 248 t-inv T
  0.466667 -0.266667 -0.200000    0.00029630 249 t-inv T
  0.466667 -0.200000 -0.266667    0.00029630 249 t-inv T
 -0.200000  0.466667 -0.266667    0.00029630 249 t-inv T
 -0.266667  0.466667 -0.200000    0.00029630 249 t-inv T
 -0.266667 -0.200000  0.466667    0.00029630 249 t-inv T
 -0.200000 -0.266667  0.466667    0.00029630 249 t-inv T
  0.400000 -0.266667 -0.200000    0.00029630 250 t-inv T
  0.400000 -0.200000 -0.266667    0.00029630 250 t-inv T
 -0.200000  0.400000 -0.266667    0.00029630 250 t-inv T
 -0.266667  0.400000 -0.200000    0.00029630 250 t-inv T
 -0.266667 -0.200000  0.400000    0.00029630 250 t-inv T
 -0.200000 -0.266667  0.400000    0.00029630 250 t-inv T
  0.333333 -0.266667 -0.200000    0.00029630 251 t-inv T
  0.333333 -0.200000 -0.266667    0.00029630 251 t-inv T
 -0.200000  0.333333 -0.266667    0.00029630 251 t-inv T
 -0.266667  0.333333 -0.200000    0.00029630 251 t-inv T
 -0.266667 -0.200000  0.333333    0.00029630 251 t-inv T
 -0.200000 -0.266667  0.333333    0.00029630 251 t-inv T
  0.266667 -0.266667 -0.200000    0.00029630 252 t-inv T
  0.266667 -0.200000 -0.266667    0.00029630 252 t-inv T
 -0.200000  0.266667 -0.266667    0.00029630 252 t-inv T
 -0.266667  0.266667 -0.200000    0.00029630 252 t-inv T
 -0.266667 -0.200000  0.266667    0.00029630 252 t-inv T
 -0.200000 -0.266667  0.266667    0.00029630 252 t-inv T
  0.200000 -0.266667 -0.200000    0.00029630 253 t-inv T
  0.200000 -0.200000 -0.266667    0.00029630 253 t-inv T
 -0.200000  0.200000 -0.266667    0.00029630 253 t-inv T
 -0.266667  0.200000 -0.200000    0.00029630 253 t-inv T
 -0.266667 -0.200000  0.200000    0.00029630 253 t-inv T
 -0.200000 -0.266667  0.200000    0.00029630 253 t-inv T
 -0.333333 -0.333333 -0.200000    0.00029630 254 t-inv T
 -0.333333 -0.200000 -0.333333    0.00029630 254 t-inv T
 -0.200000 -0.333333 -0.333333    0.00029630 254 t-inv T
 -0.400000 -0.333333 -0.200000    0.00029630 255 t-inv T
 -0.400000 -0.200000 -0.333333    0.00029630 255 t-inv T
 -0.200000 -0.400000 -0.333333    0.00029630 255 t-inv T
 -0.333333 -0.400000 -0.200000    0.00029630 255 t-inv T
 -0.333333 -0.200000 -0.400000    0.00029630 255 t-inv T
 -0.200000 -0.333333 -0.400000    0.00029630 255 t-inv T
 -0.466667 -0.333333 -0.200000    0.00029630 256 t-inv T
 -0.466667 -0.200000 -0.333333    0.00029630 256 t-inv T
 -0.200000 -0.466667 -0.333333    0.00029630 256 t-inv T
 -0.333333 -0.466667 -0.200000    0.00029630 256 t-inv T
 -0.333333 -0.200000 -0.466667    0.00029630 256 t-inv T
 -0.200000 -0.333333 -0.466667    0.00029630 256 t-inv T
  0.466667 -0.333333 -0.200000    0.00029630 257 t-inv T
  0.466667 -0.200000 -0.333333    0.00029630 257 t-inv T
 -0.200000  0.466667 -0.333333    0.00029630 257 t-inv T
 -0.333333  0.466667 -0.200000    0.00029630 257 t-inv T
 -0.333333 -0.200000  0.466667    0.00029630 257 t-inv T
 -0.200000 -0.333333  0.466667    0.00029630 257 t-inv T
  0.400000 -0.333333 -0.200000    0.00029630 258 t-inv T
  0.400000 -0.200000 -0.333333    0.00029630 258 t-inv T
 -0.200000  0.400000 -0.333333    0.00029630 258 t-inv T
 -0.333333  0.400000 -0.200000    0.00029630 258 t-inv T
 -0.333333 -0.200000  0.400000    0.00029630 258 t-inv T
 -0.200000 -0.333333  0.400000    0.00029630 258 t-inv T
  0.333333 -0.333333 -0.200000    0.00029630 259 t-inv T
  0.333333 -0.200000 -0.333333    0.00029630 259 t-inv T
 -0.200000  0.333333 -0.333333    0.00029630 259 t-inv T
 -0.333333  0.333333 -0.200000    0.00029630 259 t-inv T
 -0.333333 -0.200000  0.333333    0.00029630 259 t-inv T
 -0.200000 -0.333333  0.333333    0.00029630 259 t-inv T
  0.266667 -0.333333 -0.200000    0.00029630 260 t-inv T
  0.266667 -0.200000 -0.333333    0.00029630 260 t-inv T
 -0.200000  0.266667 -0.333333    0.00029630 260 t-inv T
 -0.333333  0.266667 -0.200000    0.00029630 260 t-inv T
 -0.333333 -0.200000  0.266667    0.00029630 260 t-inv T
 -0.200000 -0.333333  0.266667    0.00029630 260 t-inv T
  0.200000 -0.333333 -0.200000    0.00029630 261 t-inv T
  0.200000 -0.200000 -0.333333    0.00029630 261 t-inv T
 -0.200000  0.200000 -0.333333    0.00029630 261 t-inv T
 -0.333333  0.200000 -0.200000    0.00029630 261 t-inv T
 -0.333333 -0.200000  0.200000    0.00029630 261 t-inv T
 -0.200000 -0.333333  0.200000    0.00029630 261 t-inv T
 -0.400000 -0.400000 -0.200000    0.00029630 262 t-inv T
 -0.400000 -0.200000 -0.400000    0.00029630 262 t-inv T
 -0.200000 -0.400000 -0.400000    0.00029630 262 t-inv T
 -0.466667 -0.400000 -0.200000    0.00029630 263 t-inv T
 -0.466667 -0.200000 -0.400000    0.00029630 263 t-inv T
 -0.200000 -0.466667 -0.400000    0.00029630 263 t-inv T
 -0.400000 -0.466667 -0.200000    0.00029630 263 t-inv T
 -0.400000 -0.200000 -0.466667    0.00029630 263 t-inv T
 -0.200000 -0.400000 -0.466667    0.00029630 263 t-inv T
  0.466667 -0.400000 -0.200000    0.00029630 264 t-inv T
  0.466667 -0.200000 -0.400000    0.00029630 264 t-inv T
 -0.200000  0.466667 -0.400000    0.00029630 264 t-inv T
 -0.400000  0.466667 -0.200000    0.00029630 264 t-inv T
 -0.400000 -0.200000  0.466667    0.00029630 264 t-inv T
 -0.200000 -0.400000  0.466667    0.00029630 264 t-inv T
  0.400000 -0.400000 -0.200000    0.00029630 265 t-inv T
  0.400000 -0.200000 -0.400000    0.00029630 265 t-inv T
 -0.200000  0.400000 -0.400000    0.00029630 265 t-inv T
 -0.400000  0.400000 -0.200000    0.00029630 265 t-inv T
 -0.400000 -0.200000  0.400000    0.00029630 265 t-inv T
 -0.200000 -0.400000  0.400000    0.00029630 265 t-inv T
  0.333333 -0.400000 -0.200000    0.00029630 266 t-inv T
  0.333333 -0.200000 -0.400000    0.00029630 266 t-inv T
 -0.200000  0.333333 -0.400000    0.00029630 266 t-inv T
 -0.400000  0.333333 -0.200000    0.00029630 266 t-inv T
 -0.400000 -0.200000  0.333333    0.00029630 266 t-inv T
 -0.200000 -0.400000  0.333333    0.00029630 266 t-inv T
  0.266667 -0.400000 -0.200000    0.00029630 267 t-inv T
  0.266667 -0.200000 -0.400000    0.00029630 267 t-inv T
 -0.200000  0.266667 -0.400000    0.00029630 267 t-inv T
 -0.400000  0.266667 -0.200000    0.00029630 267 t-inv T
 -0.400000 -0.200000  0.266667    0.00029630 267 t-inv T
 -0.200000 -0.400000  0.266667    0.00029630 267 t-inv T
  0.200000 -0.400000 -0.200000    0.00029630 268 t-inv T
  0.200000 -0.200000 -0.400000    0.00029630 268 t-inv T
 -0.200000  0.200000 -0.400000    0.00029630 268 t-inv T
 -0.400000  0.200000 -0.200000    0.00029630 268 t-inv T
 -0.400000 -0.200000  0.200000    0.00029630 268 t-inv T
 -0.200000 -0.400000  0.200000    0.00029630 268 t-inv T
 -0.466667 -0.466667 -0.200000    0.00029630 269 t-inv T
 -0.466667 -0.200000 -0.466667    0.00029630 269 t-inv T
 -0.200000 -0.466667 -0.466667    0.00029630 269 t-inv T
  0.466667 -0.466667 -0.200000    0.00029630 270 t-inv T
  0.466667 -0.200000 -0.466667    0.00029630 270 t-inv T
 -0.200000  0.466667 -0.466667    0.00029630 270 t-inv T
 -0.466667  0.466667 -0.200000    0.00029630 270 t-inv T
 -0.466667 -0.200000  0.466667    0.00029630 270 t-inv T
 -0.200000 -0.466667  0.466667    0.00029630 270 t-inv T
  0.400000 -0.466667 -0.200000    0.00029630 271 t-inv T
  0.400000 -0.200000 -0.466667    0.00029630 271 t-inv T
 -0.200000  0.400000 -0.466667    0.00029630 271 t-inv T
 -0.466667  0.400000 -0.200000    0.00029630 271 t-inv T
 -0.466667 -0.200000  0.400000    0.00029630 271 t-inv T
 -0.200000 -0.466667  0.400000    0.00029630 271 t-inv T
  0.333333 -0.466667 -0.200000    0.00029630 272 t-inv T
  0.333333 -0.200000 -0.466667    0.00029630 272 t-inv T
 -0.200000  0.333333 -0.466667    0.00029630 272 t-inv T
 -0.466667  0.333333 -0.200000    0.00029630 272 t-inv T
 -0.466667 -0.200000  0.333333    0.00029630 272 t-inv T
 -0.200000 -0.466667  0.333333    0.00029630 272 t-inv T
  0.266667 -0.466667 -0.200000    0.00029630 273 t-inv T
  0.266667 -0.200000 -0.466667    0.00029630 273 t-inv T
 -0.200000  0.266667 -0.466667    0.00029630 273 t-inv T
 -0.466667  0.266667 -0.200000    0.00029630 273 t-inv T
 -0.466667 -0.200000  0.266667    0.00029630 273 t-inv T
 -0.200000 -0.466667  0.266667    0.00029630 273 t-inv T
  0.200000 -0.466667 -0.200000    0.00029630 274 t-inv T
  0.200000 -0.200000 -0.466667    0.00029630 274 t-inv T
 -0.200000  0.200000 -0.466667    0.00029630 274 t-inv T
 -0.466667  0.200000 -0.200000    0.00029630 274 t-inv T
 -0.466667 -0.200000  0.200000    0.00029630 274 t-inv T
 -0.200000 -0.466667  0.200000    0.00029630 274 t-inv T
  0.466667  0.466667 -0.200000    0.00029630 275 t-inv T
  0.466667 -0.200000  0.466667    0.00029630 275 t-inv T
 -0.200000  0.466667  0.466667    0.00029630 275 t-inv T
  0.400000  0.466667 -0.200000    0.00029630 276 t-inv T
  0.400000 -0.200000  0.466667    0.00029630 276 t-inv T
 -0.200000  0.400000  0.466667    0.00029630 276 t-inv T
  0.466667  0.400000 -0.200000    0.00029630 276 t-inv T
  0.466667 -0.200000  0.400000    0.00029630 276 t-inv T
 -0.200000  0.466667  0.400000    0.00029630 276 t-inv T
  0.333333  0.466667 -0.200000    0.00029630 277 t-inv T
  0.333333 -0.200000  0.466667    0.00029630 277 t-inv T
 -0.200000  0.333333  0.466667    0.00029630 277 t-inv T
  0.466667  0.333333 -0.200000    0.00029630 277 t-inv T
  0.466667 -0.200000  0.333333    0.00029630 277 t-inv T
 -0.200000  0.466667  0.333333    0.00029630 277 t-inv T
  0.266667  0.466667 -0.200000    0.00029630 278 t-inv T
  0.266667 -0.200000  0.466667    0.00029630 278 t-inv T
 -0.200000  0.266667  0.466667    0.00029630 278 t-inv T
  0.466667  0.266667 -0.200000    0.00029630 278 t-inv T
  0.466667 -0.200000  0.266667    0.00029630 278 t-inv T
 -0.200000  0.466667  0.266667    0.00029630 278 t-inv T
  0.400000  0.400000 -0.200000    0.00029630 279 t-inv T
  0.400000 -0.200000  0.400000    0.00029630 279 t-inv T
 -0.200000  0.400000  0.400000    0.00029630 279 t-inv T
  0.333333  0.400000 -0.200000    0.00029630 280 t-inv T
  0.333333 -0.200000  0.400000    0.00029630 280 t-inv T
 -0.200000  0.333333  0.400000    0.00029630 280 t-inv T
  0.400000  0.333333 -0.200000    0.00029630 280 t-inv T
  0.400000 -0.200000  0.333333    0.00029630 280 t-inv T
 -0.200000  0.400000  0.333333    0.00029630 280 t-inv T
  0.266667  0.400000 -0.200000    0.00029630 281 t-inv T
  0.266667 -0.200000  0.400000    0.00029630 281 t-inv T
 -0.200000  0.266667  0.400000    0.00029630 281 t-inv T
  0.400000  0.266667 -0.200000    0.00029630 281 t-inv T
  0.400000 -0.200000  0.266667    0.00029630 281 t-inv T
 -0.200000  0.400000  0.266667    0.00029630 281 t-inv T
  0.333333  0.333333 -0.200000    0.00029630 282 t-inv T
  0.333333 -0.200000  0.333333    0.00029630 282 t-inv T
 -0.200000  0.333333  0.333333    0.00029630 282 t-inv T
  0.266667  0.333333 -0.200000    0.00029630 283 t-inv T
  0.266667 -0.200000  0.333333    0.00029630 283 t-inv T
 -0.200000  0.266667  0.333333    0.00029630 283 t-inv T
  0.333333  0.266667 -0.200000    0.00029630 283 t-inv T
  0.333333 -0.200000  0.266667    0.00029630 283 t-inv T
 -0.200000  0.333333  0.266667    0.00029630 283 t-inv T
  0.266667  0.266667 -0.200000    0.00029630 284 t-inv T
  0.266667 -0.200000  0.266667    0.00029630 284 t-inv T
 -0.200000  0.266667  0.266667    0.00029630 284 t-inv T
 -0.266667 -0.266667 -0.266667    0.00029630 285 t-inv T
 -0.333333 -0.266667 -0.266667    0.00029630 286 t-inv T
 -0.266667 -0.333333 -0.266667    0.00029630 286 t-inv T
 -0.266667 -0.266667 -0.333333    0.00029630 286 t-inv T
 -0.400000 -0.266667 -0.266667    0.00029630 287 t-inv T
 -0.266667 -0.400000 -0.266667    0.00029630 287 t-inv T
 -0.266667 -0.266667 -0.400000    0.00029630 287 t-inv T
 -0.466667 -0.266667 -0.266667    0.00029630 288 t-inv T
 -0.266667 -0.466667 -0.266667    0.00029630 288 t-inv T
 -0.266667 -0.266667 -0.466667    0.00029630 288 t-inv T
  0.466667 -0.266667 -0.266667    0.00029630 289 t-inv T
 -0.266667  0.466667 -0.266667    0.00029630 289 t-inv T
 -0.266667 -0.266667  0.466667    0.00029630 289 t-inv T
  0.400000 -0.266667 -0.266667    0.00029630 290 t-inv T
 -0.266667  0.400000 -0.266667    0.00029630 290 t-inv T
 -0.266667 -0.266667  0.400000    0.00029630 290 t-inv T
  0.333333 -0.266667 -0.266667    0.00029630 291 t-inv T
 -0.266667  0.333333 -0.266667    0.00029630 291 t-inv T
 -0.266667 -0.266667  0.333333    0.00029630 291 t-inv T
  0.266667 -0.266667 -0.266667    0.00029630 292 t-inv T
 -0.266667  0.266667 -0.266667    0.00029630 292 t-inv T
 -0.266667 -0.266667  0.266667    0.00029630 292 t-inv T
 -0.333333 -0.333333 -0.266667    0.00029630 293 t-inv T
 -0.333333 -0.266667 -0.333333    0.00029630 293 t-inv T
 -0.266667 -0.333333 -0.333333    0.00029630 293 t-inv T
 -0.400000 -0.333333 -0.266667    0.00029630 294 t-inv T
 -0.400000 -0.266667 -0.333333    0.00029630 294 t-inv T
 -0.266667 -0.400000 -0.333333    0.00029630 294 t-inv T
 -0.333333 -0.400000 -0.266667    0.00029630 294 t-inv T
 -0.333333 -0.266667 -0.400000    0.00029630 294 t-inv T
 -0.266667 -0.333333 -0.400000    0.00029630 294 t-inv T
 -0.466667 -0.333333 -0.266667    0.00029630 295 t-inv T
 -0.466667 -0.266667 -0.333333    0.00029630 295 t-inv T
 -0.266667 -0.466667 -0.333333    0.00029630 295 t-inv T
 -0.333333 -0.466667 -0.266667    0.00029630 295 t-inv T
 -0.333333 -0.266667 -0.466667    0.00029630 295 t-inv T
 -0.266667 -0.333333 -0.466667    0.00029630 295 t-inv T
  0.466667 -0.333333 -0.266667    0.00029630 296 t-inv T
  0.466667 -0.266667 -0.333333    0.00029630 296 t-inv T
 -0.266667  0.466667 -0.333333    0.00029630 296 t-inv T
 -0.333333  0.466667 -0.266667    0.00029630 296 t-inv T
 -0.333333 -0.266667  0.466667    0.00029630 296 t-inv T
 -0.266667 -0.333333  0.466667    0.00029630 296 t-inv T
  0.400000 -0.333333 -0.266667    0.00029630 297 t-inv T
  0.400000 -0.266667 -0.333333    0.00029630 297 t-inv T
 -0.266667  0.400000 -0.333333    0.00029630 297 t-inv T
 -0.333333  0.400000 -0.266667    0.00029630 297 t-inv T
 -0.333333 -0.266667  0.400000    0.00029630 297 t-inv T
 -0.266667 -0.333333  0.400000    0.00029630 297 t-inv T
  0.333333 -0.333333 -0.266667    0.00029630 298 t-inv T
  0.333333 -0.266667 -0.333333    0.00029630 298 t-inv T
 -0.266667  0.333333 -0.333333    0.00029630 298 t-inv T
 -0.333333  0.333333 -0.266667    0.00029630 298 t-inv T
 -0.333333 -0.266667  0.333333    0.00029630 298 t-inv T
 -0.266667 -0.333333  0.333333    0.00029630 298 t-inv T
  0.266667 -0.333333 -0.266667    0.00029630 299 t-inv T
  0.266667 -0.266667 -0.333333    0.00029630 299 t-inv T
 -0.266667  0.266667 -0.333333    0.00029630 299 t-inv T
 -0.333333  0.266667 -0.266667    0.00029630 299 t-inv T
 -0.333333 -0.266667  0.266667    0.00029630 299 t-inv T
 -0.266667 -0.333333  0.266667    0.00029630 299 t-inv T
 -0.400000 -0.400000 -0.266667    0.00029630 300 t-inv T
 -0.400000 -0.266667 -0.400000    0.00029630 300 t-inv T
 -0.266667 -0.400000 -0.400000    0.00029630 300 t-inv T
 -0.466667 -0.400000 -0.266667    0.00029630 301 t-inv T
 -0.466667 -0.266667 -0.400000    0.00029630 301 t-inv T
 -0.266667 -0.466667 -0.400000    0.00029630 301 t-inv T
 -0.400000 -0.466667 -0.266667    0.00029630 301 t-inv T
 -0.400000 -0.266667 -0.466667    0.00029630 301 t-inv T
 -0.266667 -0.400000 -0.466667    0.00029630 301 t-inv T
  0.466667 -0.400000 -0.266667    0.00029630 302 t-inv T
  0.466667 -0.266667 -0.400000    0.00029630 302 t-inv T
 -0.266667  0.466667 -0.400000    0.00029630 302 t-inv T
 -0.400000  0.466667 -0.266667    0.00029630 302 t-inv T
 -0.400000 -0.266667  0.466667    0.00029630 302 t-inv T
 -0.266667 -0.400000  0.466667    0.00029630 302 t-inv T
  0.400000 -0.400000 -0.266667    0.00029630 303 t-inv T
  0.400000 -0.266667 -0.400000    0.00029630 303 t-inv T
 -0.266667  0.400000 -0.400000    0.00029630 303 t-inv T
 -0.400000  0.400000 -0.266667    0.00029630 303 t-inv T
 -0.400000 -0.266667  0.400000    0.00029630 303 t-inv T
 -0.266667 -0.400000  0.400000    0.00029630 303 t-inv T
  0.333333 -0.400000 -0.266667    0.00029630 304 t-inv T
  0.333333 -0.266667 -0.400000    0.00029630 304 t-inv T
 -0.266667  0.333333 -0.400000    0.00029630 304 t-inv T
 -0.400000  0.333333 -0.266667    0.00029630 304 t-inv T
 -0.400000 -0.266667  0.333333    0.00029630 304 t-inv T
 -0.266667 -0.400000  0.333333    0.00029630 304 t-inv T
  0.266667 -0.400000 -0.266667    0.00029630 305 t-inv T
  0.266667 -0.266667 -0.400000    0.00029630 305 t-inv T
 -0.266667  0.266667 -0.400000    0.00029630 305 t-inv T
 -0.400000  0.266667 -0.266667    0.00029630 305 t-inv T
 -0.400000 -0.266667  0.266667    0.00029630 305 t-inv T
 -0.266667 -0.400000  0.266667    0.00029630 305 t-inv T
 -0.466667 -0.466667 -0.266667    0.00029630 306 t-inv T
 -0.466667 -0.266667 -0.466667    0.00029630 306 t-inv T
 -0.266667 -0.466667 -0.466667    0.00029630 306 t-inv T
  0.466667 -0.466667 -0.266667    0.00029630 307 t-inv T
  0.466667 -0.266667 -0.466667    0.00029630 307 t-inv T
 -0.266667  0.466667 -0.466667    0.00029630 307 t-inv T
 -0.466667  0.466667 -0.266667    0.00029630 307 t-inv T
 -0.466667 -0.266667  0.466667    0.00029630 307 t-inv T
 -0.266667 -0.466667  0.466667    0.00029630 307 t-inv T
  0.400000 -0.466667 -0.266667    0.00029630 308 t-inv T
  0.400000 -0.266667 -0.466667    0.00029630 308 t-inv T
 -0.266667  0.400000 -0.466667    0.00029630 308 t-inv T
 -0.466667  0.400000 -0.266667    0.00029630 308 t-inv T
 -0.466667 -0.266667  0.400000    0.00029630 308 t-inv T
 -0.266667 -0.466667  0.400000    0.00029630 308 t-inv T
  0.333333 -0.466667 -0.266667    0.00029630 309 t-inv T
  0.333333 -0.266667 -0.466667    0.00029630 309 t-inv T
 -0.266667  0.333333 -0.466667    0.00029630 309 t-inv T
 -0.466667  0.333333 -0.266667    0.00029630 309 t-inv T
 -0.466667 -0.266667  0.333333    0.00029630 309 t-inv T
 -0.266667 -0.466667  0.333333    0.00029630 309 t-inv T
  0.266667 -0.466667 -0.266667    0.00029630 310 t-inv T
  0.266667 -0.266667 -0.466667    0.00029630 310 t-inv T
 -0.266667  0.266667 -0.466667    0.00029630 310 t-inv T
 -0.466667  0.266667 -0.266667    0.00029630 310 t-inv T
 -0.466667 -0.266667  0.266667    0.00029630 310 t-inv T
 -0.266667 -0.466667  0.266667    0.00029630 310 t-inv T
  0.466667  0.466667 -0.266667    0.00029630 311 t-inv T
  0.466667 -0.266667  0.466667    0.00029630 311 t-inv T
 -0.266667  0.466667  0.466667    0.00029630 311 t-inv T
  0.400000  0.466667 -0.266667    0.00029630 312 t-inv T
  0.400000 -0.266667  0.466667    0.00029630 312 t-inv T
 -0.266667  0.400000  0.466667    0.00029630 312 t-inv T
  0.466667  0.400000 -0.266667    0.00029630 312 t-inv T
  0.466667 -0.266667  0.400000    0.00029630 312 t-inv T
 -0.266667  0.466667  0.400000    0.00029630 312 t-inv T
  0.333333  0.466667 -0.266667    0.00029630 313 t-inv T
  0.333333 -0.266667  0.466667    0.00029630 313 t-inv T
 -0.266667  0.333333  0.466667    0.00029630 313 t-inv T
  0.466667  0.333333 -0.266667    0.00029630 313 t-inv T
  0.466667 -0.266667  0.333333    0.00029630 313 t-inv T
 -0.266667  0.466667  0.333333    0.00029630 313 t-inv T
  0.400000  0.400000 -0.266667    0.00029630 314 t-inv T
  0.400000 -0.266667  0.400000    0.00029630 314 t-inv T
 -0.266667  0.400000  0.400000    0.00029630 314 t-inv T
  0.333333  0.400000 -0.266667    0.00029630 315 t-inv T
  0.333333 -0.266667  0.400000    0.00029630 315 t-inv T
 -0.266667  0.333333  0.400000    0.00029630 315 t-inv T
  0.400000  0.333333 -0.266667    0.00029630 315 t-inv T
  0.400000 -0.266667  0.333333    0.00029630 315 t-inv T
 -0.266667  0.400000  0.333333    0.00029630 315 t-inv T
  0.333333  0.333333 -0.266667    0.00029630 316 t-inv T
  0.333333 -0.266667  0.333333    0.00029630 316 t-inv T
 -0.266667  0.333333  0.333333    0.00029630 316 t-inv T
 -0.333333 -0.333333 -0.333333    0.00029630 317 t-inv T
 -0.400000 -0.333333 -0.333333    0.00029630 318 t-inv T
 -0.333333 -0.400000 -0.333333    0.00029630 318 t-inv T
 -0.333333 -0.333333 -0.400000    0.00029630 318 t-inv T
 -0.466667 -0.333333 -0.333333    0.00029630 319 t-inv T
 -0.333333 -0.466667 -0.333333    0.00029630 319 t-inv T
 -0.333333 -0.333333 -0.466667    0.00029630 319 t-inv T
  0.466667 -0.333333 -0.333333    0.00029630 320 t-inv T
 -0.333333  0.466667 -0.333333    0.00029630 320 t-inv T
 -0.333333 -0.333333  0.466667    0.00029630 320 t-inv T
  0.400000 -0.333333 -0.333333    0.00029630 321 t-inv T
 -0.333333  0.400000 -0.333333    0.00029630 321 t-inv T
 -0.333333 -0.333333  0.400000    0.00029630 321 t-inv T
  0.333333 -0.333333 -0.333333    0.00029630 322 t-inv T
 -0.333333  0.333333 -0.333333    0.00029630 322 t-inv T
 -0.333333 -0.333333  0.333333    0.00029630 322 t-inv T
 -0.400000 -0.400000 -0.333333    0.00029630 323 t-inv T
 -0.400000 -0.333333 -0.400000    0.00029630 323 t-inv T
 -0.333333 -0.400000 -0.400000    0.00029630 323 t-inv T
 -0.466667 -0.400000 -0.333333    0.00029630 324 t-inv T
 -0.466667 -0.333333 -0.400000    0.00029630 324 t-inv T
 -0.333333 -0.466667 -0.400000    0.00029630 324 t-inv T
 -0.400000 -0.466667 -0.333333    0.00029630 324 t-inv T
 -0.400000 -0.333333 -0.466667    0.00029630 324 t-inv T
 -0.333333 -0.400000 -0.466667    0.00029630 324 t-inv T
  0.466667 -0.400000 -0.333333    0.00029630 325 t-inv T
  0.466667 -0.333333 -0.400000    0.00029630 325 t-inv T
 -0.333333  0.466667 -0.400000    0.00029630 325 t-inv T
 -0.400000  0.466667 -0.333333    0.00029630 325 t-inv T
 -0.400000 -0.333333  0.466667    0.00029630 325 t-inv T
 -0.333333 -0.400000  0.466667    0.00029630 325 t-inv T
  0.400000 -0.400000 -0.333333    0.00029630 326 t-inv T
  0.400000 -0.333333 -0.400000    0.00029630 326 t-inv T
 -0.333333  0.400000 -0.400000    0.00029630 326 t-inv T
 -0.400000  0.400000 -0.333333    0.00029630 326 t-inv T
 -0.400000 -0.333333  0.400000    0.00029630 326 t-inv T
 -0.333333 -0.400000  0.400000    0.00029630 326 t-inv T
  0.333333 -0.400000 -0.333333    0.00029630 327 t-inv T
  0.333333 -0.333333 -0.400000    0.00029630 327 t-inv T
 -0.333333  0.333333 -0.400000    0.00029630 327 t-inv T
 -0.400000  0.333333 -0.333333    0.00029630 327 t-inv T
 -0.400000 -0.333333  0.333333    0.00029630 327 t-inv T
 -0.333333 -0.400000  0.333333    0.00029630 327 t-inv T
 -0.466667 -0.466667 -0.333333    0.00029630 328 t-inv T
 -0.466667 -0.333333 -0.466667    0.00029630 328 t-inv T
 -0.333333 -0.466667 -0.466667    0.00029630 328 t-inv T
  0.466667 -0.466667 -0.333333    0.00029630 329 t-inv T
  0.466667 -0.333333 -0.466667    0.00029630 329 t-inv T
 -0.333333  0.466667 -0.466667    0.00029630 329 t-inv T
 -0.466667  0.466667 -0.333333    0.00029630 329 t-inv T
 -0.466667 -0.333333  0.466667    0.00029630 329 t-inv T
 -0.333333 -0.466667  0.466667    0.00029630 329 t-inv T
  0.400000 -0.466667 -0.333333    0.00029630 330 t-inv T
  0.400000 -0.333333 -0.466667    0.00029630 330 t-inv T
 -0.333333  0.400000 -0.466667    0.00029630 330 t-inv T
 -0.466667  0.400000 -0.333333    0.00029630 330 t-inv T
 -0.466667 -0.333333  0.400000    0.00029630 330 t-inv T
 -0.333333 -0.466667  0.400000    0.00029630 330 t-inv T
  0.333333 -0.466667 -0.333333    0.00029630 331 t-inv T
  0.333333 -0.333333 -0.466667    0.00029630 331 t-inv T
 -0.333333  0.333333 -0.466667    0.00029630 331 t-inv T
 -0.466667  0.333333 -0.333333    0.00029630 331 t-inv T
 -0.466667 -0.333333  0.333333    0.00029630 331 t-inv T
 -0.333333 -0.466667  0.333333    0.00029630 331 t-inv T
  0.466667  0.466667 -0.333333    0.00029630 332 t-inv T
  0.466667 -0.333333  0.466667    0.00029630 332 t-inv T
 -0.333333  0.466667  0.466667    0.00029630 332 t-inv T
  0.400000  0.466667 -0.333333    0.00029630 333 t-inv T
  0.400000 -0.333333  0.466667    0.00029630 333 t-inv T
 -0.333333  0.400000  0.466667    0.00029630 333 t-inv T
  0.466667  0.400000 -0.333333    0.00029630 333 t-inv T
  0.466667 -0.333333  0.400000    0.00029630 333 t-inv T
 -0.333333  0.466667  0.400000    0.00029630 333 t-inv T
  0.400000  0.400000 -0.333333    0.00029630 334 t-inv T
  0.400000 -0.333333  0.400000    0.00029630 334 t-inv T
 -0.333333  0.400000  0.400000    0.00029630 334 t-inv T
 -0.400000 -0.400000 -0.400000    0.00029630 335 t-inv T
 -0.466667 -0.400000 -0.400000    0.00029630 336 t-inv T
 -0.400000 -0.466667 -0.400000    0.00029630 336 t-inv T
 -0.400000 -0.400000 -0.466667    0.00029630 336 t-inv T
  0.466667 -0.400000 -0.400000    0.00029630 337 t-inv T
 -0.400000  0.466667 -0.400000    0.00029630 337 t-inv T
 -0.400000 -0.400000  0.466667    0.00029630 337 t-inv T
  0.400000 -0.400000 -0.400000    0.00029630 338 t-inv T
 -0.400000  0.400000 -0.400000    0.00029630 338 t-inv T
 -0.400000 -0.400000  0.400000    0.00029630 338 t-inv T
 -0.466667 -0.466667 -0.400000    0.00029630 339 t-inv T
 -0.466667 -0.400000 -0.466667    0.00029630 339 t-inv T
 -0.400000 -0.466667 -0.466667    0.00029630 339 t-inv T
  0.466667 -0.466667 -0.400000    0.00029630 340 t-inv T
  0.466667 -0.400000 -0.466667    0.00029630 340 t-inv T
 -0.400000  0.466667 -0.466667    0.00029630 340 t-inv T
 -0.466667  0.466667 -0.400000    0.00029630 340 t-inv T
 -0.466667 -0.400000  0.466667    0.00029630 340 t-inv T
 -0.400000 -0.466667  0.466667    0.00029630 340 t-inv T
  0.400000 -0.466667 -0.400000    0.00029630 341 t-inv T
  0.400000 -0.400000 -0.466667    0.00029630 341 t-inv T
 -0.400000  0.400000 -0.466667    0.00029630 341 t-inv T
 -0.466667  0.400000 -0.400000    0.00029630 341 t-inv T
 -0.466667 -0.400000  0.400000    0.00029630 341 t-inv T
 -0.400000 -0.466667  0.400000    0.00029630 341 t-inv T
  0.466667  0.466667 -0.400000    0.00029630 342 t-inv T
  0.466667 -0.400000  0.466667    0.00029630 342 t-inv T
 -0.400000  0.466667  0.466667    0.00029630 342 t-inv T
 -0.466667 -0.466667 -0.466667    0.00029630 343 t-inv T
  0.466667 -0.466667 -0.466667    0.00029630 344 t-inv T
 -0.466667  0.466667 -0.466667    0.00029630 344 t-inv T
 -0.466667 -0.466667  0.466667    0.00029630 344 t-inv T
 -----------------------------------------------------------------------------
|                                                                             |
|           W    W    AA    RRRRR   N    N  II  N    N   GGGG   !!!           |
|           W    W   A  A   R    R  NN   N  II  NN   N  G    G  !!!           |
|           W    W  A    A  R    R  N N  N  II  N N  N  G       !!!           |
|           W WW W  AAAAAA  RRRRR   N  N N  II  N  N N  G  GGG   !            |
|           WW  WW  A    A  R   R   N   NN  II  N   NN  G    G                |
|           W    W  A    A  R    R  N    N  II  N    N   GGGG   !!!           |
|                                                                             |
|     The number of bands has been changed from the values supplied in        |
|     the INCAR file. This is a result of running the parallel version.       |
|     The orbitals not found in the WAVECAR file will be initialized with     |
|     random numbers, which is usually adequate. For correlated               |
|     calculations, however, you should redo the groundstate calculation.     |
|     I found NBANDS = 30. Now, NBANDS = 36.                                  |
|                                                                             |
 -----------------------------------------------------------------------------



--------------------------------------------------------------------------------------------------------




 Dimension of arrays:
   k-points           NKPTS =    344   k-points in BZ     NKDIM =    344   number of bands    NBANDS=     36
   number of dos      NEDOS =    301   number of ions     NIONS =      2
   non local maximal  LDIM  =      6   non local SUM 2l+1 LMDIM =     18
   total plane-waves  NPLWV =  46656
   max r-space proj   IRMAX =      1   max aug-charges    IRDMAX=  48731
   dimension x,y,z NGX =    36 NGY =   36 NGZ =   36
   dimension x,y,z NGXF=    72 NGYF=   72 NGZF=   72
   support grid    NGXF=    72 NGYF=   72 NGZF=   72
   ions per type =               1   1
   NGX,Y,Z   is equivalent  to a cutoff of  13.59, 13.59, 13.59 a.u.
   NGXF,Y,Z  is equivalent  to a cutoff of  27.19, 27.19, 27.19 a.u.

 SYSTEM =  unknown system                          
 POSCAR =  Generated by VASPKIT code               

 Startparameter for this run:
   NWRITE =      2    write-flag & timer
   PREC   = accura    normal or accurate (medium, high low for compatibility)
   ISTART =      1    job   : 0-new  1-cont  2-samecut
   ICHARG =      0    charge: 1-file 2-atom 10-const
   ISPIN  =      1    spin polarized calculation?
   LNONCOLLINEAR =      F non collinear calculations
   LSORBIT =      F    spin-orbit coupling
   INIWAV =      1    electr: 0-lowe 1-rand  2-diag
   LASPH  =      F    aspherical Exc in radial PAW
 Electronic Relaxation 1
   ENCUT  =  550.0 eV  40.42 Ry    6.36 a.u.   8.42  8.42  8.42*2*pi/ulx,y,z
   ENINI  =  550.0     initial cutoff
   ENAUG  =  531.4 eV  augmentation charge cutoff
   NELM   =    200;   NELMIN=  2; NELMDL=  0     # of ELM steps 
   EDIFF  = 0.1E-07   stopping-criterion for ELM
   LREAL  =      F    real-space projection
   NLSPLINE    = F    spline interpolate recip. space projectors
   LCOMPAT=      F    compatible to vasp.4.4
   GGA_COMPAT  = T    GGA compatible to vasp.4.4-vasp.4.6
   LMAXPAW     = -100 max onsite density
   LMAXMIX     =    2 max onsite mixed and CHGCAR
   VOSKOWN=      0    Vosko Wilk Nusair interpolation
   ROPT   =    0.00000   0.00000
 Ionic relaxation
   EDIFFG = 0.1E-06   stopping-criterion for IOM
   NSW    =      0    number of steps for IOM
   NBLOCK =      1;   KBLOCK =      1    inner block; outer block 
   IBRION =     -1    ionic relax: 0-MD 1-quasi-New 2-CG
   NFREE  =      0    steps in history (QN), initial steepest desc. (CG)
   ISIF   =      2    stress and relaxation
   IWAVPR =     10    prediction:  0-non 1-charg 2-wave 3-comb
   ISYM   =      2    0-nonsym 1-usesym 2-fastsym
   LCORR  =      T    Harris-Foulkes like correction to forces

   POTIM  = 0.5000    time-step for ionic-motion
   TEIN   =    0.0    initial temperature
   TEBEG  =    0.0;   TEEND  =   0.0 temperature during run
   SMASS  =  -3.00    Nose mass-parameter (am)
   estimated Nose-frequenzy (Omega)   =  0.10E-29 period in steps = 0.13E+47 mass=  -0.443E-27a.u.
   SCALEE = 1.0000    scale energy and forces
   NPACO  =    256;   APACO  = 10.0  distance and # of slots for P.C.
   PSTRESS=    0.0 pullay stress

  Mass of Ions in am
   POMASS =  72.61127.60
  Ionic Valenz
   ZVAL   =  14.00  6.00
  Atomic Wigner-Seitz radii
   RWIGS  =  -1.00 -1.00
  virtual crystal weights 
   VCA    =   1.00  1.00
   NELECT =      20.0000    total number of electrons
   NUPDOWN=      -1.0000    fix difference up-down

 DOS related values:
   EMIN   =  10.00;   EMAX   =-10.00  energy-range for DOS
   EFERMI =   0.00;   METHOD = LEGACY      
   ISMEAR =     0;   SIGMA  =   0.05  broadening in eV -4-tet -1-fermi 0-gaus

 Electronic relaxation 2 (details)
   IALGO  =     38    algorithm
   LDIAG  =      T    sub-space diagonalisation (order eigenvalues)
   LSUBROT=      F    optimize rotation matrix (better conditioning)
   TURBO    =      0    0=normal 1=particle mesh
   IRESTART =      0    0=no restart 2=restart with 2 vectors
   NREBOOT  =      0    no. of reboots
   NMIN     =      0    reboot dimension
   EREF     =   0.00    reference energy to select bands
   IMIX   =      4    mixing-type and parameters
     AMIX     =   0.40;   BMIX     =  1.00
     AMIX_MAG =   1.60;   BMIX_MAG =  1.00
     AMIN     =   0.10
     WC   =   100.;   INIMIX=   1;  MIXPRE=   1;  MAXMIX= -45

 Intra band minimization:
   WEIMIN = 0.0000     energy-eigenvalue tresh-hold
   EBREAK =  0.69E-10  absolut break condition
   DEPER  =   0.30     relativ break condition  

   TIME   =   0.40     timestep for ELM

  volume/ion in A,a.u.               =      27.95       188.65
  Fermi-wavevector in a.u.,A,eV,Ry     =   1.162138  2.196122 18.375547  1.350565
  Thomas-Fermi vector in A             =   2.298702
 
 Write flags
   LWAVE        =      T    write WAVECAR
   LDOWNSAMPLE  =      F    k-point downsampling of WAVECAR
   LCHARG       =      T    write CHGCAR
   LVTOT        =      F    write LOCPOT, total local potential
   LVHAR        =      F    write LOCPOT, Hartree potential only
   LELF         =      F    write electronic localiz. function (ELF)
   LORBIT       =     11    0 simple, 1 ext, 2 COOP (PROOUT), +10 PAW based schemes


 Dipole corrections
   LMONO  =      F    monopole corrections only (constant potential shift)
   LDIPOL =      F    correct potential (dipole corrections)
   IDIPOL =      0    1-x, 2-y, 3-z, 4-all directions 
   EPSILON=  1.0000000 bulk dielectric constant

 Exchange correlation treatment:
   GGA     =    --    GGA type
   LEXCH   =     8    internal setting for exchange type
   LIBXC   =     F    Libxc                    
   VOSKOWN =     0    Vosko Wilk Nusair interpolation
   LHFCALC =     F    Hartree Fock is set to
   LHFONE  =     F    Hartree Fock one center treatment
   AEXX    =    0.0000 exact exchange contribution

 Linear response parameters
   LEPSILON=     F    determine dielectric tensor
   LRPA    =     F    only Hartree local field effects (RPA)
   LNABLA  =     F    use nabla operator in PAW spheres
   LVEL    =     F    velocity operator in full k-point grid
   CSHIFT  =0.1000    complex shift for real part using Kramers Kronig
   OMEGAMAX=  -1.0    maximum frequency
   DEG_THRESHOLD= 0.2000000E-02 threshold for treating states as degnerate
   RTIME   =   -0.100 relaxation time in fs
  (WPLASMAI=    0.000 imaginary part of plasma frequency in eV, 0.658/RTIME)
   DFIELD  = 0.0000000 0.0000000 0.0000000 field for delta impulse in time
 
  Optional k-point grid parameters
   LKPOINTS_OPT  =     F    use optional k-point grid
   KPOINTS_OPT_MODE=     1    mode for optional k-point grid
 
 Orbital magnetization related:
   ORBITALMAG=     F  switch on orbital magnetization
   LCHIMAG   =     F  perturbation theory with respect to B field
   DQ        =  0.001000  dq finite difference perturbation B field
   LLRAUG    =     F  two centre corrections for induced B field
   LBONE     =     F  B-component reconstruction in AE one-centre
   LVGVCALC  =     T  calculate vGv susceptibility
   LVGVAPPL  =     F  apply vGv susceptibility instead of pGv for G=0

 Random number generation:
   RANDOM_GENERATOR = DEFAULT
   PCG_SEED         = not used


--------------------------------------------------------------------------------------------------------


 Static calculation
 charge density and potential will be updated during run
 non-spin polarized calculation
 Variant of blocked Davidson
 Davidson routine will perform the subspace rotation
 perform sub-space diagonalisation
    after iterative eigenvector-optimisation
 modified Broyden-mixing scheme, WC =      100.0
 initial mixing is a Kerker type mixing with AMIX =  0.4000 and BMIX =      1.0000
 Hartree-type preconditioning will be used
 using additional bands           26
 reciprocal scheme for non local part
 use partial core corrections
 calculate Harris-corrections to forces 
   (improved forces if not selfconsistent)
 use gradient corrections 
 use of overlap-Matrix (Vanderbilt PP)
 Gauss-broadening in eV      SIGMA  =   0.05


--------------------------------------------------------------------------------------------------------


  energy-cutoff  :      550.00
  volume of cell :       55.91
      direct lattice vectors                 reciprocal lattice vectors
     2.094493397  1.209256327  3.679025785     0.238721211  0.137825755  0.090603696
    -2.094493397  1.209256327  3.679025785    -0.238721211  0.137825755  0.090603696
     0.000000000 -2.418512653  3.679025785     0.000000000 -0.275651511  0.090603696

  length of vectors
     4.402775736  4.402775736  4.402775736     0.290159930  0.290159930  0.290159930


 
 old parameters found on file WAVECAR:
  energy-cutoff  :      550.00
  volume of cell :       55.91
      direct lattice vectors                 reciprocal lattice vectors
     2.094493397  1.209256327  3.679025785     0.238721211  0.137825755  0.090603696
    -2.094493397  1.209256327  3.679025785    -0.238721211  0.137825755  0.090603696
     0.000000000 -2.418512653  3.679025785     0.000000000 -0.275651511  0.090603696

  length of vectors

 
 k-points in units of 2pi/SCALE and weight: K-Spacing Value to Generate K-Mesh: 0.02
   0.00000000 -0.00000000  0.00000000       0.000
   0.01591475  0.00918838  0.00604025       0.002
   0.03182949  0.01837677  0.01208049       0.002
   0.04774424  0.02756515  0.01812074       0.002
   0.06365899  0.03675353  0.02416099       0.002
   0.07957374  0.04594192  0.03020123       0.002
   0.09548848  0.05513030  0.03624148       0.002
   0.11140323  0.06431869  0.04228172       0.002
  -0.00000000  0.01837677  0.01208049       0.002
   0.01591475  0.02756515  0.01812074       0.004
   0.03182949  0.03675353  0.02416099       0.004
   0.04774424  0.04594192  0.03020123       0.004
   0.06365899  0.05513030  0.03624148       0.004
   0.07957374  0.06431869  0.04228172       0.004
   0.09548848  0.07350707  0.04832197       0.004
  -0.12731798 -0.05513030 -0.03624148       0.004
  -0.11140323 -0.04594192 -0.03020123       0.004
  -0.09548848 -0.03675353 -0.02416099       0.004
  -0.07957374 -0.02756515 -0.01812074       0.004
  -0.06365899 -0.01837677 -0.01208049       0.004
  -0.04774424 -0.00918838 -0.00604025       0.004
  -0.03182949  0.00000000  0.00000000       0.002
  -0.00000000  0.03675353  0.02416099       0.002
   0.01591475  0.04594192  0.03020123       0.004
   0.03182949  0.05513030  0.03624148       0.004
   0.04774424  0.06431869  0.04228172       0.004
   0.06365899  0.07350707  0.04832197       0.004
   0.07957374  0.08269545  0.05436222       0.004
  -0.14323273 -0.04594192 -0.03020123       0.004
  -0.12731798 -0.03675353 -0.02416099       0.004
  -0.11140323 -0.02756515 -0.01812074       0.004
  -0.09548848 -0.01837677 -0.01208049       0.004
  -0.07957374 -0.00918838 -0.00604025       0.004
  -0.06365899  0.00000000  0.00000000       0.002
   0.00000000  0.05513030  0.03624148       0.002
   0.01591475  0.06431869  0.04228172       0.004
   0.03182949  0.07350707  0.04832197       0.004
   0.04774424  0.08269545  0.05436222       0.004
   0.06365899  0.09188384  0.06040246       0.004
  -0.15914747 -0.03675353 -0.02416099       0.004
  -0.14323273 -0.02756515 -0.01812074       0.004
  -0.12731798 -0.01837677 -0.01208049       0.004
  -0.11140323 -0.00918838 -0.00604025       0.004
  -0.09548848  0.00000000  0.00000000       0.002
  -0.00000000  0.07350707  0.04832197       0.002
   0.01591475  0.08269545  0.05436222       0.004
   0.03182949  0.09188384  0.06040246       0.004
   0.04774424  0.10107222  0.06644271       0.004
  -0.17506222 -0.02756515 -0.01812074       0.004
  -0.15914747 -0.01837677 -0.01208049       0.004
  -0.14323273 -0.00918838 -0.00604025       0.004
  -0.12731798  0.00000000  0.00000000       0.002
   0.00000000  0.09188384  0.06040246       0.002
   0.01591475  0.10107222  0.06644271       0.004
   0.03182949  0.11026060  0.07248296       0.004
  -0.19097697 -0.01837677 -0.01208049       0.004
  -0.17506222 -0.00918838 -0.00604025       0.004
  -0.15914747  0.00000000  0.00000000       0.002
  -0.00000000  0.11026060  0.07248296       0.002
   0.01591475  0.11944899  0.07852320       0.004
  -0.20689172 -0.00918838 -0.00604025       0.004
  -0.19097697 -0.00000000  0.00000000       0.002
  -0.00000000  0.12863737  0.08456345       0.002
  -0.22280646 -0.00000000  0.00000000       0.002
   0.00000000 -0.00000000  0.01812074       0.001
   0.01591475  0.00918838  0.02416099       0.002
   0.03182949  0.01837677  0.03020123       0.002
   0.04774424  0.02756515  0.03624148       0.002
   0.06365899  0.03675353  0.04228172       0.002
   0.07957374  0.04594192  0.04832197       0.002
   0.09548848  0.05513030  0.05436222       0.002
  -0.12731798 -0.07350707 -0.03020123       0.002
  -0.11140323 -0.06431869 -0.02416099       0.002
  -0.09548848 -0.05513030 -0.01812074       0.002
  -0.07957374 -0.04594192 -0.01208049       0.002
  -0.06365899 -0.03675353 -0.00604025       0.002
  -0.04774424 -0.02756515  0.00000000       0.002
  -0.03182949 -0.01837677  0.00604025       0.002
   0.00000000  0.01837677  0.03020123       0.002
   0.01591475  0.02756515  0.03624148       0.004
   0.03182949  0.03675353  0.04228172       0.004
   0.04774424  0.04594192  0.04832197       0.004
   0.06365899  0.05513030  0.05436222       0.004
   0.07957374  0.06431869  0.06040246       0.004
  -0.14323273 -0.06431869 -0.02416099       0.004
  -0.12731798 -0.05513030 -0.01812074       0.004
  -0.11140323 -0.04594192 -0.01208049       0.004
  -0.09548848 -0.03675353 -0.00604025       0.004
  -0.07957374 -0.02756515  0.00000000       0.004
  -0.06365899 -0.01837677  0.00604025       0.004
  -0.04774424 -0.00918838  0.01208049       0.004
  -0.00000000  0.03675353  0.04228172       0.002
   0.01591475  0.04594192  0.04832197       0.004
   0.03182949  0.05513030  0.05436222       0.004
   0.04774424  0.06431869  0.06040246       0.004
   0.06365899  0.07350707  0.06644271       0.004
  -0.15914747 -0.05513030 -0.01812074       0.004
  -0.14323273 -0.04594192 -0.01208049       0.004
  -0.12731798 -0.03675353 -0.00604025       0.004
  -0.11140323 -0.02756515  0.00000000       0.004
  -0.09548848 -0.01837677  0.00604025       0.004
  -0.07957374 -0.00918838  0.01208049       0.004
  -0.06365899  0.00000000  0.01812074       0.004
   0.00000000  0.05513030  0.05436222       0.002
   0.01591475  0.06431869  0.06040246       0.004
   0.03182949  0.07350707  0.06644271       0.004
   0.04774424  0.08269545  0.07248296       0.004
  -0.17506222 -0.04594192 -0.01208049       0.004
  -0.15914747 -0.03675353 -0.00604025       0.004
  -0.14323273 -0.02756515  0.00000000       0.004
  -0.12731798 -0.01837677  0.00604025       0.004
  -0.11140323 -0.00918838  0.01208049       0.004
  -0.09548848 -0.00000000  0.01812074       0.004
  -0.07957374  0.00918838  0.02416099       0.004
   0.00000000  0.07350707  0.06644271       0.002
   0.01591475  0.08269545  0.07248296       0.004
   0.03182949  0.09188384  0.07852320       0.004
  -0.19097697 -0.03675353 -0.00604025       0.004
  -0.17506222 -0.02756515  0.00000000       0.004
  -0.15914747 -0.01837677  0.00604025       0.004
  -0.14323273 -0.00918838  0.01208049       0.004
  -0.12731798 -0.00000000  0.01812074       0.004
  -0.11140323  0.00918838  0.02416099       0.004
  -0.09548848  0.01837677  0.03020123       0.004
   0.00000000  0.09188384  0.07852320       0.002
   0.01591475  0.10107222  0.08456345       0.004
  -0.20689172 -0.02756515  0.00000000       0.004
  -0.19097697 -0.01837677  0.00604025       0.004
  -0.17506222 -0.00918838  0.01208049       0.004
  -0.15914747 -0.00000000  0.01812074       0.004
  -0.14323273  0.00918838  0.02416099       0.004
  -0.12731798  0.01837677  0.03020123       0.004
  -0.11140323  0.02756515  0.03624148       0.004
  -0.00000000  0.11026060  0.09060370       0.002
  -0.22280646 -0.01837677  0.00604025       0.004
  -0.20689172 -0.00918838  0.01208049       0.004
  -0.19097697 -0.00000000  0.01812074       0.004
  -0.17506222  0.00918838  0.02416099       0.004
  -0.15914747  0.01837677  0.03020123       0.004
  -0.14323273  0.02756515  0.03624148       0.004
  -0.12731798  0.03675353  0.04228172       0.004
   0.00000000 -0.14701414 -0.07852320       0.002
   0.01591475 -0.13782576 -0.07248296       0.004
   0.03182949 -0.12863737 -0.06644271       0.004
   0.04774424 -0.11944899 -0.06040246       0.004
   0.06365899 -0.11026060 -0.05436222       0.004
   0.07957374 -0.10107222 -0.04832197       0.004
   0.00000000 -0.12863737 -0.06644271       0.002
   0.01591475 -0.11944899 -0.06040246       0.004
   0.03182949 -0.11026060 -0.05436222       0.004
   0.04774424 -0.10107222 -0.04832197       0.004
   0.06365899 -0.09188384 -0.04228172       0.004
   0.00000000 -0.11026060 -0.05436222       0.002
   0.01591475 -0.10107222 -0.04832197       0.004
   0.03182949 -0.09188384 -0.04228172       0.004
   0.04774424 -0.08269545 -0.03624148       0.004
  -0.00000000 -0.09188384 -0.04228172       0.002
   0.01591475 -0.08269545 -0.03624148       0.004
   0.03182949 -0.07350707 -0.03020123       0.004
   0.00000000 -0.07350707 -0.03020123       0.002
   0.01591475 -0.06431869 -0.02416099       0.004
   0.00000000 -0.05513030 -0.01812074       0.002
   0.00000000  0.00000000  0.03624148       0.001
   0.01591475  0.00918838  0.04228172       0.002
   0.03182949  0.01837677  0.04832197       0.002
   0.04774424  0.02756515  0.05436222       0.002
   0.06365899  0.03675353  0.06040246       0.002
   0.07957374  0.04594192  0.06644271       0.002
  -0.14323273 -0.08269545 -0.01812074       0.002
  -0.12731798 -0.07350707 -0.01208049       0.002
  -0.11140323 -0.06431869 -0.00604025       0.002
  -0.09548848 -0.05513030  0.00000000       0.002
  -0.07957374 -0.04594192  0.00604025       0.002
  -0.06365899 -0.03675353  0.01208049       0.002
  -0.00000000  0.01837677  0.04832197       0.002
   0.01591475  0.02756515  0.05436222       0.004
   0.03182949  0.03675353  0.06040246       0.004
   0.04774424  0.04594192  0.06644271       0.004
   0.06365899  0.05513030  0.07248296       0.004
  -0.15914747 -0.07350707 -0.01208049       0.004
  -0.14323273 -0.06431869 -0.00604025       0.004
  -0.12731798 -0.05513030  0.00000000       0.004
  -0.11140323 -0.04594192  0.00604025       0.004
  -0.09548848 -0.03675353  0.01208049       0.004
  -0.07957374 -0.02756515  0.01812074       0.004
   0.00000000  0.03675353  0.06040246       0.002
   0.01591475  0.04594192  0.06644271       0.004
   0.03182949  0.05513030  0.07248296       0.004
   0.04774424  0.06431869  0.07852320       0.004
  -0.17506222 -0.06431869 -0.00604025       0.004
  -0.15914747 -0.05513030  0.00000000       0.004
  -0.14323273 -0.04594192  0.00604025       0.004
  -0.12731798 -0.03675353  0.01208049       0.004
  -0.11140323 -0.02756515  0.01812074       0.004
  -0.09548848 -0.01837677  0.02416099       0.004
   0.00000000  0.05513030  0.07248296       0.002
   0.01591475  0.06431869  0.07852320       0.004
   0.03182949  0.07350707  0.08456345       0.004
  -0.19097697 -0.05513030  0.00000000       0.004
  -0.17506222 -0.04594192  0.00604025       0.004
  -0.15914747 -0.03675353  0.01208049       0.004
  -0.14323273 -0.02756515  0.01812074       0.004
  -0.12731798 -0.01837677  0.02416099       0.004
  -0.11140323 -0.00918838  0.03020123       0.004
  -0.00000000  0.07350707  0.08456345       0.002
   0.01591475  0.08269545  0.09060370       0.004
  -0.20689172 -0.04594192  0.00604025       0.004
  -0.19097697 -0.03675353  0.01208049       0.004
  -0.17506222 -0.02756515  0.01812074       0.004
  -0.15914747 -0.01837677  0.02416099       0.004
  -0.14323273 -0.00918838  0.03020123       0.004
  -0.12731798 -0.00000000  0.03624148       0.004
   0.00000000  0.09188384  0.09664394       0.002
  -0.22280646 -0.03675353  0.01208049       0.004
  -0.20689172 -0.02756515  0.01812074       0.004
  -0.19097697 -0.01837677  0.02416099       0.004
  -0.17506222 -0.00918838  0.03020123       0.004
  -0.15914747  0.00000000  0.03624148       0.004
  -0.14323273  0.00918838  0.04228172       0.004
   0.00000000 -0.16539091 -0.07248296       0.002
   0.01591475 -0.15620252 -0.06644271       0.004
   0.03182949 -0.14701414 -0.06040246       0.004
   0.04774424 -0.13782576 -0.05436222       0.004
   0.06365899 -0.12863737 -0.04832197       0.004
   0.00000000 -0.14701414 -0.06040246       0.002
   0.01591475 -0.13782576 -0.05436222       0.004
   0.03182949 -0.12863737 -0.04832197       0.004
   0.04774424 -0.11944899 -0.04228172       0.004
   0.00000000 -0.12863737 -0.04832197       0.002
   0.01591475 -0.11944899 -0.04228172       0.004
   0.03182949 -0.11026060 -0.03624148       0.004
   0.00000000 -0.11026060 -0.03624148       0.002
   0.01591475 -0.10107222 -0.03020123       0.004
  -0.00000000 -0.09188384 -0.02416099       0.002
  -0.00000000  0.00000000  0.05436222       0.001
   0.01591475  0.00918838  0.06040246       0.002
   0.03182949  0.01837677  0.06644271       0.002
   0.04774424  0.02756515  0.07248296       0.002
   0.06365899  0.03675353  0.07852320       0.002
  -0.15914747 -0.09188384 -0.00604025       0.002
  -0.14323273 -0.08269545  0.00000000       0.002
  -0.12731798 -0.07350707  0.00604025       0.002
  -0.11140323 -0.06431869  0.01208049       0.002
  -0.09548848 -0.05513030  0.01812074       0.002
  -0.00000000  0.01837677  0.06644271       0.002
   0.01591475  0.02756515  0.07248296       0.004
   0.03182949  0.03675353  0.07852320       0.004
   0.04774424  0.04594192  0.08456345       0.004
  -0.17506222 -0.08269545  0.00000000       0.004
  -0.15914747 -0.07350707  0.00604025       0.004
  -0.14323273 -0.06431869  0.01208049       0.004
  -0.12731798 -0.05513030  0.01812074       0.004
  -0.11140323 -0.04594192  0.02416099       0.004
   0.00000000  0.03675353  0.07852320       0.002
   0.01591475  0.04594192  0.08456345       0.004
   0.03182949  0.05513030  0.09060370       0.004
  -0.19097697 -0.07350707  0.00604025       0.004
  -0.17506222 -0.06431869  0.01208049       0.004
  -0.15914747 -0.05513030  0.01812074       0.004
  -0.14323273 -0.04594192  0.02416099       0.004
  -0.12731798 -0.03675353  0.03020123       0.004
  -0.00000000  0.05513030  0.09060370       0.002
   0.01591475  0.06431869  0.09664394       0.004
  -0.20689172 -0.06431869  0.01208049       0.004
  -0.19097697 -0.05513030  0.01812074       0.004
  -0.17506222 -0.04594192  0.02416099       0.004
  -0.15914747 -0.03675353  0.03020123       0.004
  -0.14323273 -0.02756515  0.03624148       0.004
  -0.00000000  0.07350707  0.10268419       0.002
  -0.22280646 -0.05513030  0.01812074       0.004
  -0.20689172 -0.04594192  0.02416099       0.004
  -0.19097697 -0.03675353  0.03020123       0.004
  -0.17506222 -0.02756515  0.03624148       0.004
  -0.15914747 -0.01837677  0.04228172       0.004
   0.00000000 -0.18376767 -0.06644271       0.002
   0.01591475 -0.17457929 -0.06040246       0.004
   0.03182949 -0.16539091 -0.05436222       0.004
   0.04774424 -0.15620252 -0.04832197       0.004
   0.00000000 -0.16539091 -0.05436222       0.002
   0.01591475 -0.15620252 -0.04832197       0.004
   0.03182949 -0.14701414 -0.04228172       0.004
   0.00000000 -0.14701414 -0.04228172       0.002
   0.01591475 -0.13782576 -0.03624148       0.004
  -0.00000000 -0.12863737 -0.03020123       0.002
  -0.00000000  0.00000000  0.07248296       0.001
   0.01591475  0.00918838  0.07852320       0.002
   0.03182949  0.01837677  0.08456345       0.002
   0.04774424  0.02756515  0.09060370       0.002
  -0.17506222 -0.10107222  0.00604025       0.002
  -0.15914747 -0.09188384  0.01208049       0.002
  -0.14323273 -0.08269545  0.01812074       0.002
  -0.12731798 -0.07350707  0.02416099       0.002
   0.00000000  0.01837677  0.08456345       0.002
   0.01591475  0.02756515  0.09060370       0.004
   0.03182949  0.03675353  0.09664394       0.004
  -0.19097697 -0.09188384  0.01208049       0.004
  -0.17506222 -0.08269545  0.01812074       0.004
  -0.15914747 -0.07350707  0.02416099       0.004
  -0.14323273 -0.06431869  0.03020123       0.004
  -0.00000000  0.03675353  0.09664394       0.002
   0.01591475  0.04594192  0.10268419       0.004
  -0.20689172 -0.08269545  0.01812074       0.004
  -0.19097697 -0.07350707  0.02416099       0.004
  -0.17506222 -0.06431869  0.03020123       0.004
  -0.15914747 -0.05513030  0.03624148       0.004
  -0.00000000  0.05513030  0.10872444       0.002
  -0.22280646 -0.07350707  0.02416099       0.004
  -0.20689172 -0.06431869  0.03020123       0.004
  -0.19097697 -0.05513030  0.03624148       0.004
  -0.17506222 -0.04594192  0.04228172       0.004
   0.00000000 -0.20214444 -0.06040246       0.002
   0.01591475 -0.19295606 -0.05436222       0.004
   0.03182949 -0.18376767 -0.04832197       0.004
   0.00000000 -0.18376767 -0.04832197       0.002
   0.01591475 -0.17457929 -0.04228172       0.004
   0.00000000 -0.16539091 -0.03624148       0.002
   0.00000000 -0.00000000  0.09060370       0.001
   0.01591475  0.00918838  0.09664394       0.002
   0.03182949  0.01837677  0.10268419       0.002
  -0.19097697 -0.11026060  0.01812074       0.002
  -0.17506222 -0.10107222  0.02416099       0.002
  -0.15914747 -0.09188384  0.03020123       0.002
   0.00000000  0.01837677  0.10268419       0.002
   0.01591475  0.02756515  0.10872444       0.004
  -0.20689172 -0.10107222  0.02416099       0.004
  -0.19097697 -0.09188384  0.03020123       0.004
  -0.17506222 -0.08269545  0.03624148       0.004
  -0.00000000  0.03675353  0.11476468       0.002
  -0.22280646 -0.09188384  0.03020123       0.004
  -0.20689172 -0.08269545  0.03624148       0.004
  -0.19097697 -0.07350707  0.04228172       0.004
   0.00000000 -0.22052121 -0.05436222       0.002
   0.01591475 -0.21133282 -0.04832197       0.004
   0.00000000 -0.20214444 -0.04228172       0.002
   0.00000000 -0.00000000  0.10872444       0.001
   0.01591475  0.00918838  0.11476468       0.002
  -0.20689172 -0.11944899  0.03020123       0.002
  -0.19097697 -0.11026060  0.03624148       0.002
  -0.00000000  0.01837677  0.12080493       0.002
  -0.22280646 -0.11026060  0.03624148       0.004
  -0.20689172 -0.10107222  0.04228172       0.004
   0.00000000 -0.23889798 -0.04832197       0.002
   0.00000000  0.00000000  0.12684517       0.001
  -0.22280646 -0.12863737  0.04228172       0.002
 
 k-points in reciprocal lattice and weights: K-Spacing Value to Generate K-Mesh: 0.02
   0.00000000  0.00000000  0.00000000       0.000
   0.06666667  0.00000000  0.00000000       0.002
   0.13333333  0.00000000  0.00000000       0.002
   0.20000000  0.00000000  0.00000000       0.002
   0.26666667  0.00000000  0.00000000       0.002
   0.33333333  0.00000000  0.00000000       0.002
   0.40000000  0.00000000  0.00000000       0.002
   0.46666667  0.00000000  0.00000000       0.002
   0.06666667  0.06666667  0.00000000       0.002
   0.13333333  0.06666667  0.00000000       0.004
   0.20000000  0.06666667  0.00000000       0.004
   0.26666667  0.06666667  0.00000000       0.004
   0.33333333  0.06666667  0.00000000       0.004
   0.40000000  0.06666667  0.00000000       0.004
   0.46666667  0.06666667  0.00000000       0.004
  -0.46666667  0.06666667  0.00000000       0.004
  -0.40000000  0.06666667  0.00000000       0.004
  -0.33333333  0.06666667  0.00000000       0.004
  -0.26666667  0.06666667  0.00000000       0.004
  -0.20000000  0.06666667  0.00000000       0.004
  -0.13333333  0.06666667  0.00000000       0.004
  -0.06666667  0.06666667  0.00000000       0.002
   0.13333333  0.13333333  0.00000000       0.002
   0.20000000  0.13333333  0.00000000       0.004
   0.26666667  0.13333333  0.00000000       0.004
   0.33333333  0.13333333  0.00000000       0.004
   0.40000000  0.13333333  0.00000000       0.004
   0.46666667  0.13333333  0.00000000       0.004
  -0.46666667  0.13333333  0.00000000       0.004
  -0.40000000  0.13333333  0.00000000       0.004
  -0.33333333  0.13333333  0.00000000       0.004
  -0.26666667  0.13333333  0.00000000       0.004
  -0.20000000  0.13333333  0.00000000       0.004
  -0.13333333  0.13333333  0.00000000       0.002
   0.20000000  0.20000000  0.00000000       0.002
   0.26666667  0.20000000  0.00000000       0.004
   0.33333333  0.20000000  0.00000000       0.004
   0.40000000  0.20000000  0.00000000       0.004
   0.46666667  0.20000000  0.00000000       0.004
  -0.46666667  0.20000000  0.00000000       0.004
  -0.40000000  0.20000000  0.00000000       0.004
  -0.33333333  0.20000000  0.00000000       0.004
  -0.26666667  0.20000000  0.00000000       0.004
  -0.20000000  0.20000000  0.00000000       0.002
   0.26666667  0.26666667  0.00000000       0.002
   0.33333333  0.26666667  0.00000000       0.004
   0.40000000  0.26666667  0.00000000       0.004
   0.46666667  0.26666667  0.00000000       0.004
  -0.46666667  0.26666667  0.00000000       0.004
  -0.40000000  0.26666667  0.00000000       0.004
  -0.33333333  0.26666667  0.00000000       0.004
  -0.26666667  0.26666667  0.00000000       0.002
   0.33333333  0.33333333  0.00000000       0.002
   0.40000000  0.33333333  0.00000000       0.004
   0.46666667  0.33333333  0.00000000       0.004
  -0.46666667  0.33333333  0.00000000       0.004
  -0.40000000  0.33333333  0.00000000       0.004
  -0.33333333  0.33333333  0.00000000       0.002
   0.40000000  0.40000000  0.00000000       0.002
   0.46666667  0.40000000  0.00000000       0.004
  -0.46666667  0.40000000  0.00000000       0.004
  -0.40000000  0.40000000  0.00000000       0.002
   0.46666667  0.46666667  0.00000000       0.002
  -0.46666667  0.46666667  0.00000000       0.002
   0.06666667  0.06666667  0.06666667       0.001
   0.13333333  0.06666667  0.06666667       0.002
   0.20000000  0.06666667  0.06666667       0.002
   0.26666667  0.06666667  0.06666667       0.002
   0.33333333  0.06666667  0.06666667       0.002
   0.40000000  0.06666667  0.06666667       0.002
   0.46666667  0.06666667  0.06666667       0.002
  -0.46666667  0.06666667  0.06666667       0.002
  -0.40000000  0.06666667  0.06666667       0.002
  -0.33333333  0.06666667  0.06666667       0.002
  -0.26666667  0.06666667  0.06666667       0.002
  -0.20000000  0.06666667  0.06666667       0.002
  -0.13333333  0.06666667  0.06666667       0.002
  -0.06666667  0.06666667  0.06666667       0.002
   0.13333333  0.13333333  0.06666667       0.002
   0.20000000  0.13333333  0.06666667       0.004
   0.26666667  0.13333333  0.06666667       0.004
   0.33333333  0.13333333  0.06666667       0.004
   0.40000000  0.13333333  0.06666667       0.004
   0.46666667  0.13333333  0.06666667       0.004
  -0.46666667  0.13333333  0.06666667       0.004
  -0.40000000  0.13333333  0.06666667       0.004
  -0.33333333  0.13333333  0.06666667       0.004
  -0.26666667  0.13333333  0.06666667       0.004
  -0.20000000  0.13333333  0.06666667       0.004
  -0.13333333  0.13333333  0.06666667       0.004
  -0.06666667  0.13333333  0.06666667       0.004
   0.20000000  0.20000000  0.06666667       0.002
   0.26666667  0.20000000  0.06666667       0.004
   0.33333333  0.20000000  0.06666667       0.004
   0.40000000  0.20000000  0.06666667       0.004
   0.46666667  0.20000000  0.06666667       0.004
  -0.46666667  0.20000000  0.06666667       0.004
  -0.40000000  0.20000000  0.06666667       0.004
  -0.33333333  0.20000000  0.06666667       0.004
  -0.26666667  0.20000000  0.06666667       0.004
  -0.20000000  0.20000000  0.06666667       0.004
  -0.13333333  0.20000000  0.06666667       0.004
  -0.06666667  0.20000000  0.06666667       0.004
   0.26666667  0.26666667  0.06666667       0.002
   0.33333333  0.26666667  0.06666667       0.004
   0.40000000  0.26666667  0.06666667       0.004
   0.46666667  0.26666667  0.06666667       0.004
  -0.46666667  0.26666667  0.06666667       0.004
  -0.40000000  0.26666667  0.06666667       0.004
  -0.33333333  0.26666667  0.06666667       0.004
  -0.26666667  0.26666667  0.06666667       0.004
  -0.20000000  0.26666667  0.06666667       0.004
  -0.13333333  0.26666667  0.06666667       0.004
  -0.06666667  0.26666667  0.06666667       0.004
   0.33333333  0.33333333  0.06666667       0.002
   0.40000000  0.33333333  0.06666667       0.004
   0.46666667  0.33333333  0.06666667       0.004
  -0.46666667  0.33333333  0.06666667       0.004
  -0.40000000  0.33333333  0.06666667       0.004
  -0.33333333  0.33333333  0.06666667       0.004
  -0.26666667  0.33333333  0.06666667       0.004
  -0.20000000  0.33333333  0.06666667       0.004
  -0.13333333  0.33333333  0.06666667       0.004
  -0.06666667  0.33333333  0.06666667       0.004
   0.40000000  0.40000000  0.06666667       0.002
   0.46666667  0.40000000  0.06666667       0.004
  -0.46666667  0.40000000  0.06666667       0.004
  -0.40000000  0.40000000  0.06666667       0.004
  -0.33333333  0.40000000  0.06666667       0.004
  -0.26666667  0.40000000  0.06666667       0.004
  -0.20000000  0.40000000  0.06666667       0.004
  -0.13333333  0.40000000  0.06666667       0.004
  -0.06666667  0.40000000  0.06666667       0.004
   0.46666667  0.46666667  0.06666667       0.002
  -0.46666667  0.46666667  0.06666667       0.004
  -0.40000000  0.46666667  0.06666667       0.004
  -0.33333333  0.46666667  0.06666667       0.004
  -0.26666667  0.46666667  0.06666667       0.004
  -0.20000000  0.46666667  0.06666667       0.004
  -0.13333333  0.46666667  0.06666667       0.004
  -0.06666667  0.46666667  0.06666667       0.004
  -0.46666667 -0.46666667  0.06666667       0.002
  -0.40000000 -0.46666667  0.06666667       0.004
  -0.33333333 -0.46666667  0.06666667       0.004
  -0.26666667 -0.46666667  0.06666667       0.004
  -0.20000000 -0.46666667  0.06666667       0.004
  -0.13333333 -0.46666667  0.06666667       0.004
  -0.40000000 -0.40000000  0.06666667       0.002
  -0.33333333 -0.40000000  0.06666667       0.004
  -0.26666667 -0.40000000  0.06666667       0.004
  -0.20000000 -0.40000000  0.06666667       0.004
  -0.13333333 -0.40000000  0.06666667       0.004
  -0.33333333 -0.33333333  0.06666667       0.002
  -0.26666667 -0.33333333  0.06666667       0.004
  -0.20000000 -0.33333333  0.06666667       0.004
  -0.13333333 -0.33333333  0.06666667       0.004
  -0.26666667 -0.26666667  0.06666667       0.002
  -0.20000000 -0.26666667  0.06666667       0.004
  -0.13333333 -0.26666667  0.06666667       0.004
  -0.20000000 -0.20000000  0.06666667       0.002
  -0.13333333 -0.20000000  0.06666667       0.004
  -0.13333333 -0.13333333  0.06666667       0.002
   0.13333333  0.13333333  0.13333333       0.001
   0.20000000  0.13333333  0.13333333       0.002
   0.26666667  0.13333333  0.13333333       0.002
   0.33333333  0.13333333  0.13333333       0.002
   0.40000000  0.13333333  0.13333333       0.002
   0.46666667  0.13333333  0.13333333       0.002
  -0.46666667  0.13333333  0.13333333       0.002
  -0.40000000  0.13333333  0.13333333       0.002
  -0.33333333  0.13333333  0.13333333       0.002
  -0.26666667  0.13333333  0.13333333       0.002
  -0.20000000  0.13333333  0.13333333       0.002
  -0.13333333  0.13333333  0.13333333       0.002
   0.20000000  0.20000000  0.13333333       0.002
   0.26666667  0.20000000  0.13333333       0.004
   0.33333333  0.20000000  0.13333333       0.004
   0.40000000  0.20000000  0.13333333       0.004
   0.46666667  0.20000000  0.13333333       0.004
  -0.46666667  0.20000000  0.13333333       0.004
  -0.40000000  0.20000000  0.13333333       0.004
  -0.33333333  0.20000000  0.13333333       0.004
  -0.26666667  0.20000000  0.13333333       0.004
  -0.20000000  0.20000000  0.13333333       0.004
  -0.13333333  0.20000000  0.13333333       0.004
   0.26666667  0.26666667  0.13333333       0.002
   0.33333333  0.26666667  0.13333333       0.004
   0.40000000  0.26666667  0.13333333       0.004
   0.46666667  0.26666667  0.13333333       0.004
  -0.46666667  0.26666667  0.13333333       0.004
  -0.40000000  0.26666667  0.13333333       0.004
  -0.33333333  0.26666667  0.13333333       0.004
  -0.26666667  0.26666667  0.13333333       0.004
  -0.20000000  0.26666667  0.13333333       0.004
  -0.13333333  0.26666667  0.13333333       0.004
   0.33333333  0.33333333  0.13333333       0.002
   0.40000000  0.33333333  0.13333333       0.004
   0.46666667  0.33333333  0.13333333       0.004
  -0.46666667  0.33333333  0.13333333       0.004
  -0.40000000  0.33333333  0.13333333       0.004
  -0.33333333  0.33333333  0.13333333       0.004
  -0.26666667  0.33333333  0.13333333       0.004
  -0.20000000  0.33333333  0.13333333       0.004
  -0.13333333  0.33333333  0.13333333       0.004
   0.40000000  0.40000000  0.13333333       0.002
   0.46666667  0.40000000  0.13333333       0.004
  -0.46666667  0.40000000  0.13333333       0.004
  -0.40000000  0.40000000  0.13333333       0.004
  -0.33333333  0.40000000  0.13333333       0.004
  -0.26666667  0.40000000  0.13333333       0.004
  -0.20000000  0.40000000  0.13333333       0.004
  -0.13333333  0.40000000  0.13333333       0.004
   0.46666667  0.46666667  0.13333333       0.002
  -0.46666667  0.46666667  0.13333333       0.004
  -0.40000000  0.46666667  0.13333333       0.004
  -0.33333333  0.46666667  0.13333333       0.004
  -0.26666667  0.46666667  0.13333333       0.004
  -0.20000000  0.46666667  0.13333333       0.004
  -0.13333333  0.46666667  0.13333333       0.004
  -0.46666667 -0.46666667  0.13333333       0.002
  -0.40000000 -0.46666667  0.13333333       0.004
  -0.33333333 -0.46666667  0.13333333       0.004
  -0.26666667 -0.46666667  0.13333333       0.004
  -0.20000000 -0.46666667  0.13333333       0.004
  -0.40000000 -0.40000000  0.13333333       0.002
  -0.33333333 -0.40000000  0.13333333       0.004
  -0.26666667 -0.40000000  0.13333333       0.004
  -0.20000000 -0.40000000  0.13333333       0.004
  -0.33333333 -0.33333333  0.13333333       0.002
  -0.26666667 -0.33333333  0.13333333       0.004
  -0.20000000 -0.33333333  0.13333333       0.004
  -0.26666667 -0.26666667  0.13333333       0.002
  -0.20000000 -0.26666667  0.13333333       0.004
  -0.20000000 -0.20000000  0.13333333       0.002
   0.20000000  0.20000000  0.20000000       0.001
   0.26666667  0.20000000  0.20000000       0.002
   0.33333333  0.20000000  0.20000000       0.002
   0.40000000  0.20000000  0.20000000       0.002
   0.46666667  0.20000000  0.20000000       0.002
  -0.46666667  0.20000000  0.20000000       0.002
  -0.40000000  0.20000000  0.20000000       0.002
  -0.33333333  0.20000000  0.20000000       0.002
  -0.26666667  0.20000000  0.20000000       0.002
  -0.20000000  0.20000000  0.20000000       0.002
   0.26666667  0.26666667  0.20000000       0.002
   0.33333333  0.26666667  0.20000000       0.004
   0.40000000  0.26666667  0.20000000       0.004
   0.46666667  0.26666667  0.20000000       0.004
  -0.46666667  0.26666667  0.20000000       0.004
  -0.40000000  0.26666667  0.20000000       0.004
  -0.33333333  0.26666667  0.20000000       0.004
  -0.26666667  0.26666667  0.20000000       0.004
  -0.20000000  0.26666667  0.20000000       0.004
   0.33333333  0.33333333  0.20000000       0.002
   0.40000000  0.33333333  0.20000000       0.004
   0.46666667  0.33333333  0.20000000       0.004
  -0.46666667  0.33333333  0.20000000       0.004
  -0.40000000  0.33333333  0.20000000       0.004
  -0.33333333  0.33333333  0.20000000       0.004
  -0.26666667  0.33333333  0.20000000       0.004
  -0.20000000  0.33333333  0.20000000       0.004
   0.40000000  0.40000000  0.20000000       0.002
   0.46666667  0.40000000  0.20000000       0.004
  -0.46666667  0.40000000  0.20000000       0.004
  -0.40000000  0.40000000  0.20000000       0.004
  -0.33333333  0.40000000  0.20000000       0.004
  -0.26666667  0.40000000  0.20000000       0.004
  -0.20000000  0.40000000  0.20000000       0.004
   0.46666667  0.46666667  0.20000000       0.002
  -0.46666667  0.46666667  0.20000000       0.004
  -0.40000000  0.46666667  0.20000000       0.004
  -0.33333333  0.46666667  0.20000000       0.004
  -0.26666667  0.46666667  0.20000000       0.004
  -0.20000000  0.46666667  0.20000000       0.004
  -0.46666667 -0.46666667  0.20000000       0.002
  -0.40000000 -0.46666667  0.20000000       0.004
  -0.33333333 -0.46666667  0.20000000       0.004
  -0.26666667 -0.46666667  0.20000000       0.004
  -0.40000000 -0.40000000  0.20000000       0.002
  -0.33333333 -0.40000000  0.20000000       0.004
  -0.26666667 -0.40000000  0.20000000       0.004
  -0.33333333 -0.33333333  0.20000000       0.002
  -0.26666667 -0.33333333  0.20000000       0.004
  -0.26666667 -0.26666667  0.20000000       0.002
   0.26666667  0.26666667  0.26666667       0.001
   0.33333333  0.26666667  0.26666667       0.002
   0.40000000  0.26666667  0.26666667       0.002
   0.46666667  0.26666667  0.26666667       0.002
  -0.46666667  0.26666667  0.26666667       0.002
  -0.40000000  0.26666667  0.26666667       0.002
  -0.33333333  0.26666667  0.26666667       0.002
  -0.26666667  0.26666667  0.26666667       0.002
   0.33333333  0.33333333  0.26666667       0.002
   0.40000000  0.33333333  0.26666667       0.004
   0.46666667  0.33333333  0.26666667       0.004
  -0.46666667  0.33333333  0.26666667       0.004
  -0.40000000  0.33333333  0.26666667       0.004
  -0.33333333  0.33333333  0.26666667       0.004
  -0.26666667  0.33333333  0.26666667       0.004
   0.40000000  0.40000000  0.26666667       0.002
   0.46666667  0.40000000  0.26666667       0.004
  -0.46666667  0.40000000  0.26666667       0.004
  -0.40000000  0.40000000  0.26666667       0.004
  -0.33333333  0.40000000  0.26666667       0.004
  -0.26666667  0.40000000  0.26666667       0.004
   0.46666667  0.46666667  0.26666667       0.002
  -0.46666667  0.46666667  0.26666667       0.004
  -0.40000000  0.46666667  0.26666667       0.004
  -0.33333333  0.46666667  0.26666667       0.004
  -0.26666667  0.46666667  0.26666667       0.004
  -0.46666667 -0.46666667  0.26666667       0.002
  -0.40000000 -0.46666667  0.26666667       0.004
  -0.33333333 -0.46666667  0.26666667       0.004
  -0.40000000 -0.40000000  0.26666667       0.002
  -0.33333333 -0.40000000  0.26666667       0.004
  -0.33333333 -0.33333333  0.26666667       0.002
   0.33333333  0.33333333  0.33333333       0.001
   0.40000000  0.33333333  0.33333333       0.002
   0.46666667  0.33333333  0.33333333       0.002
  -0.46666667  0.33333333  0.33333333       0.002
  -0.40000000  0.33333333  0.33333333       0.002
  -0.33333333  0.33333333  0.33333333       0.002
   0.40000000  0.40000000  0.33333333       0.002
   0.46666667  0.40000000  0.33333333       0.004
  -0.46666667  0.40000000  0.33333333       0.004
  -0.40000000  0.40000000  0.33333333       0.004
  -0.33333333  0.40000000  0.33333333       0.004
   0.46666667  0.46666667  0.33333333       0.002
  -0.46666667  0.46666667  0.33333333       0.004
  -0.40000000  0.46666667  0.33333333       0.004
  -0.33333333  0.46666667  0.33333333       0.004
  -0.46666667 -0.46666667  0.33333333       0.002
  -0.40000000 -0.46666667  0.33333333       0.004
  -0.40000000 -0.40000000  0.33333333       0.002
   0.40000000  0.40000000  0.40000000       0.001
   0.46666667  0.40000000  0.40000000       0.002
  -0.46666667  0.40000000  0.40000000       0.002
  -0.40000000  0.40000000  0.40000000       0.002
   0.46666667  0.46666667  0.40000000       0.002
  -0.46666667  0.46666667  0.40000000       0.004
  -0.40000000  0.46666667  0.40000000       0.004
  -0.46666667 -0.46666667  0.40000000       0.002
   0.46666667  0.46666667  0.46666667       0.001
  -0.46666667  0.46666667  0.46666667       0.002
 
 position of ions in fractional coordinates (direct lattice) 
   0.99474192  0.99474192  0.99474192
   0.52625808  0.52625808  0.52625808
 
 position of ions in cartesian coordinates  (Angst):
  -0.00000000  0.00000000 10.97904357
   0.00000000  0.00000000  5.80835109
 


--------------------------------------------------------------------------------------------------------


 k-point   1 :   0.0000 0.0000 0.0000  plane waves:    1635
 k-point   2 :   0.0667 0.0000 0.0000  plane waves:    1627
 k-point   3 :   0.1333 0.0000 0.0000  plane waves:    1637
 k-point   4 :   0.2000 0.0000 0.0000  plane waves:    1638
 k-point   5 :   0.2667 0.0000 0.0000  plane waves:    1646
 k-point   6 :   0.3333 0.0000 0.0000  plane waves:    1646
 k-point   7 :   0.4000 0.0000 0.0000  plane waves:    1633
 k-point   8 :   0.4667 0.0000 0.0000  plane waves:    1628
 k-point   9 :   0.0667 0.0667 0.0000  plane waves:    1623
 k-point  10 :   0.1333 0.0667 0.0000  plane waves:    1631
 k-point  11 :   0.2000 0.0667 0.0000  plane waves:    1633
 k-point  12 :   0.2667 0.0667 0.0000  plane waves:    1638
 k-point  13 :   0.3333 0.0667 0.0000  plane waves:    1643
 k-point  14 :   0.4000 0.0667 0.0000  plane waves:    1643
 k-point  15 :   0.4667 0.0667 0.0000  plane waves:    1638
 k-point  16 :  -0.4667 0.0667 0.0000  plane waves:    1632
 k-point  17 :  -0.4000 0.0667 0.0000  plane waves:    1640
 k-point  18 :  -0.3333 0.0667 0.0000  plane waves:    1647
 k-point  19 :  -0.2667 0.0667 0.0000  plane waves:    1642
 k-point  20 :  -0.2000 0.0667 0.0000  plane waves:    1638
 k-point  21 :  -0.1333 0.0667 0.0000  plane waves:    1641
 k-point  22 :  -0.0667 0.0667 0.0000  plane waves:    1636
 k-point  23 :   0.1333 0.1333 0.0000  plane waves:    1635
 k-point  24 :   0.2000 0.1333 0.0000  plane waves:    1639
 k-point  25 :   0.2667 0.1333 0.0000  plane waves:    1640
 k-point  26 :   0.3333 0.1333 0.0000  plane waves:    1645
 k-point  27 :   0.4000 0.1333 0.0000  plane waves:    1645
 k-point  28 :   0.4667 0.1333 0.0000  plane waves:    1641
 k-point  29 :  -0.4667 0.1333 0.0000  plane waves:    1640
 k-point  30 :  -0.4000 0.1333 0.0000  plane waves:    1638
 k-point  31 :  -0.3333 0.1333 0.0000  plane waves:    1640
 k-point  32 :  -0.2667 0.1333 0.0000  plane waves:    1644
 k-point  33 :  -0.2000 0.1333 0.0000  plane waves:    1642
 k-point  34 :  -0.1333 0.1333 0.0000  plane waves:    1644
 k-point  35 :   0.2000 0.2000 0.0000  plane waves:    1638
 k-point  36 :   0.2667 0.2000 0.0000  plane waves:    1638
 k-point  37 :   0.3333 0.2000 0.0000  plane waves:    1645
 k-point  38 :   0.4000 0.2000 0.0000  plane waves:    1649
 k-point  39 :   0.4667 0.2000 0.0000  plane waves:    1649
 k-point  40 :  -0.4667 0.2000 0.0000  plane waves:    1642
 k-point  41 :  -0.4000 0.2000 0.0000  plane waves:    1641
 k-point  42 :  -0.3333 0.2000 0.0000  plane waves:    1636
 k-point  43 :  -0.2667 0.2000 0.0000  plane waves:    1640
 k-point  44 :  -0.2000 0.2000 0.0000  plane waves:    1646
 k-point  45 :   0.2667 0.2667 0.0000  plane waves:    1642
 k-point  46 :   0.3333 0.2667 0.0000  plane waves:    1645
 k-point  47 :   0.4000 0.2667 0.0000  plane waves:    1645
 k-point  48 :   0.4667 0.2667 0.0000  plane waves:    1644
 k-point  49 :  -0.4667 0.2667 0.0000  plane waves:    1645
 k-point  50 :  -0.4000 0.2667 0.0000  plane waves:    1640
 k-point  51 :  -0.3333 0.2667 0.0000  plane waves:    1640
 k-point  52 :  -0.2667 0.2667 0.0000  plane waves:    1642
 k-point  53 :   0.3333 0.3333 0.0000  plane waves:    1645
 k-point  54 :   0.4000 0.3333 0.0000  plane waves:    1643
 k-point  55 :   0.4667 0.3333 0.0000  plane waves:    1640
 k-point  56 :  -0.4667 0.3333 0.0000  plane waves:    1642
 k-point  57 :  -0.4000 0.3333 0.0000  plane waves:    1639
 k-point  58 :  -0.3333 0.3333 0.0000  plane waves:    1638
 k-point  59 :   0.4000 0.4000 0.0000  plane waves:    1639
 k-point  60 :   0.4667 0.4000 0.0000  plane waves:    1638
 k-point  61 :  -0.4667 0.4000 0.0000  plane waves:    1643
 k-point  62 :  -0.4000 0.4000 0.0000  plane waves:    1642
 k-point  63 :   0.4667 0.4667 0.0000  plane waves:    1642
 k-point  64 :  -0.4667 0.4667 0.0000  plane waves:    1648
 k-point  65 :   0.0667 0.0667 0.0667  plane waves:    1622
 k-point  66 :   0.1333 0.0667 0.0667  plane waves:    1625
 k-point  67 :   0.2000 0.0667 0.0667  plane waves:    1630
 k-point  68 :   0.2667 0.0667 0.0667  plane waves:    1633
 k-point  69 :   0.3333 0.0667 0.0667  plane waves:    1641
 k-point  70 :   0.4000 0.0667 0.0667  plane waves:    1632
 k-point  71 :   0.4667 0.0667 0.0667  plane waves:    1635
 k-point  72 :  -0.4667 0.0667 0.0667  plane waves:    1634
 k-point  73 :  -0.4000 0.0667 0.0667  plane waves:    1631
 k-point  74 :  -0.3333 0.0667 0.0667  plane waves:    1639
 k-point  75 :  -0.2667 0.0667 0.0667  plane waves:    1647
 k-point  76 :  -0.2000 0.0667 0.0667  plane waves:    1641
 k-point  77 :  -0.1333 0.0667 0.0667  plane waves:    1644
 k-point  78 :  -0.0667 0.0667 0.0667  plane waves:    1644
 k-point  79 :   0.1333 0.1333 0.0667  plane waves:    1620
 k-point  80 :   0.2000 0.1333 0.0667  plane waves:    1630
 k-point  81 :   0.2667 0.1333 0.0667  plane waves:    1637
 k-point  82 :   0.3333 0.1333 0.0667  plane waves:    1639
 k-point  83 :   0.4000 0.1333 0.0667  plane waves:    1640
 k-point  84 :   0.4667 0.1333 0.0667  plane waves:    1641
 k-point  85 :  -0.4667 0.1333 0.0667  plane waves:    1636
 k-point  86 :  -0.4000 0.1333 0.0667  plane waves:    1638
 k-point  87 :  -0.3333 0.1333 0.0667  plane waves:    1642
 k-point  88 :  -0.2667 0.1333 0.0667  plane waves:    1646
 k-point  89 :  -0.2000 0.1333 0.0667  plane waves:    1649
 k-point  90 :  -0.1333 0.1333 0.0667  plane waves:    1644
 k-point  91 :  -0.0667 0.1333 0.0667  plane waves:    1643
 k-point  92 :   0.2000 0.2000 0.0667  plane waves:    1632
 k-point  93 :   0.2667 0.2000 0.0667  plane waves:    1634
 k-point  94 :   0.3333 0.2000 0.0667  plane waves:    1641
 k-point  95 :   0.4000 0.2000 0.0667  plane waves:    1638
 k-point  96 :   0.4667 0.2000 0.0667  plane waves:    1645
 k-point  97 :  -0.4667 0.2000 0.0667  plane waves:    1641
 k-point  98 :  -0.4000 0.2000 0.0667  plane waves:    1639
 k-point  99 :  -0.3333 0.2000 0.0667  plane waves:    1639
 k-point 100 :  -0.2667 0.2000 0.0667  plane waves:    1639
 k-point 101 :  -0.2000 0.2000 0.0667  plane waves:    1643
 k-point 102 :  -0.1333 0.2000 0.0667  plane waves:    1646
 k-point 103 :  -0.0667 0.2000 0.0667  plane waves:    1640
 k-point 104 :   0.2667 0.2667 0.0667  plane waves:    1634
 k-point 105 :   0.3333 0.2667 0.0667  plane waves:    1638
 k-point 106 :   0.4000 0.2667 0.0667  plane waves:    1641
 k-point 107 :   0.4667 0.2667 0.0667  plane waves:    1641
 k-point 108 :  -0.4667 0.2667 0.0667  plane waves:    1643
 k-point 109 :  -0.4000 0.2667 0.0667  plane waves:    1638
 k-point 110 :  -0.3333 0.2667 0.0667  plane waves:    1639
 k-point 111 :  -0.2667 0.2667 0.0667  plane waves:    1637
 k-point 112 :  -0.2000 0.2667 0.0667  plane waves:    1642
 k-point 113 :  -0.1333 0.2667 0.0667  plane waves:    1645
 k-point 114 :  -0.0667 0.2667 0.0667  plane waves:    1639
 k-point 115 :   0.3333 0.3333 0.0667  plane waves:    1634
 k-point 116 :   0.4000 0.3333 0.0667  plane waves:    1638
 k-point 117 :   0.4667 0.3333 0.0667  plane waves:    1638
 k-point 118 :  -0.4667 0.3333 0.0667  plane waves:    1645
 k-point 119 :  -0.4000 0.3333 0.0667  plane waves:    1648
 k-point 120 :  -0.3333 0.3333 0.0667  plane waves:    1643
 k-point 121 :  -0.2667 0.3333 0.0667  plane waves:    1638
 k-point 122 :  -0.2000 0.3333 0.0667  plane waves:    1639
 k-point 123 :  -0.1333 0.3333 0.0667  plane waves:    1638
 k-point 124 :  -0.0667 0.3333 0.0667  plane waves:    1647
 k-point 125 :   0.4000 0.4000 0.0667  plane waves:    1634
 k-point 126 :   0.4667 0.4000 0.0667  plane waves:    1636
 k-point 127 :  -0.4667 0.4000 0.0667  plane waves:    1638
 k-point 128 :  -0.4000 0.4000 0.0667  plane waves:    1638
 k-point 129 :  -0.3333 0.4000 0.0667  plane waves:    1639
 k-point 130 :  -0.2667 0.4000 0.0667  plane waves:    1645
 k-point 131 :  -0.2000 0.4000 0.0667  plane waves:    1641
 k-point 132 :  -0.1333 0.4000 0.0667  plane waves:    1643
 k-point 133 :  -0.0667 0.4000 0.0667  plane waves:    1643
 k-point 134 :   0.4667 0.4667 0.0667  plane waves:    1633
 k-point 135 :  -0.4667 0.4667 0.0667  plane waves:    1640
 k-point 136 :  -0.4000 0.4667 0.0667  plane waves:    1646
 k-point 137 :  -0.3333 0.4667 0.0667  plane waves:    1646
 k-point 138 :  -0.2667 0.4667 0.0667  plane waves:    1640
 k-point 139 :  -0.2000 0.4667 0.0667  plane waves:    1637
 k-point 140 :  -0.1333 0.4667 0.0667  plane waves:    1642
 k-point 141 :  -0.0667 0.4667 0.0667  plane waves:    1638
 k-point 142 :  -0.4667-0.4667 0.0667  plane waves:    1645
 k-point 143 :  -0.4000-0.4667 0.0667  plane waves:    1648
 k-point 144 :  -0.3333-0.4667 0.0667  plane waves:    1644
 k-point 145 :  -0.2667-0.4667 0.0667  plane waves:    1643
 k-point 146 :  -0.2000-0.4667 0.0667  plane waves:    1643
 k-point 147 :  -0.1333-0.4667 0.0667  plane waves:    1641
 k-point 148 :  -0.4000-0.4000 0.0667  plane waves:    1639
 k-point 149 :  -0.3333-0.4000 0.0667  plane waves:    1644
 k-point 150 :  -0.2667-0.4000 0.0667  plane waves:    1641
 k-point 151 :  -0.2000-0.4000 0.0667  plane waves:    1642
 k-point 152 :  -0.1333-0.4000 0.0667  plane waves:    1642
 k-point 153 :  -0.3333-0.3333 0.0667  plane waves:    1647
 k-point 154 :  -0.2667-0.3333 0.0667  plane waves:    1647
 k-point 155 :  -0.2000-0.3333 0.0667  plane waves:    1652
 k-point 156 :  -0.1333-0.3333 0.0667  plane waves:    1649
 k-point 157 :  -0.2667-0.2667 0.0667  plane waves:    1655
 k-point 158 :  -0.2000-0.2667 0.0667  plane waves:    1649
 k-point 159 :  -0.1333-0.2667 0.0667  plane waves:    1644
 k-point 160 :  -0.2000-0.2000 0.0667  plane waves:    1645
 k-point 161 :  -0.1333-0.2000 0.0667  plane waves:    1644
 k-point 162 :  -0.1333-0.1333 0.0667  plane waves:    1647
 k-point 163 :   0.1333 0.1333 0.1333  plane waves:    1616
 k-point 164 :   0.2000 0.1333 0.1333  plane waves:    1614
 k-point 165 :   0.2667 0.1333 0.1333  plane waves:    1631
 k-point 166 :   0.3333 0.1333 0.1333  plane waves:    1635
 k-point 167 :   0.4000 0.1333 0.1333  plane waves:    1639
 k-point 168 :   0.4667 0.1333 0.1333  plane waves:    1632
 k-point 169 :  -0.4667 0.1333 0.1333  plane waves:    1626
 k-point 170 :  -0.4000 0.1333 0.1333  plane waves:    1639
 k-point 171 :  -0.3333 0.1333 0.1333  plane waves:    1644
 k-point 172 :  -0.2667 0.1333 0.1333  plane waves:    1646
 k-point 173 :  -0.2000 0.1333 0.1333  plane waves:    1646
 k-point 174 :  -0.1333 0.1333 0.1333  plane waves:    1644
 k-point 175 :   0.2000 0.2000 0.1333  plane waves:    1618
 k-point 176 :   0.2667 0.2000 0.1333  plane waves:    1632
 k-point 177 :   0.3333 0.2000 0.1333  plane waves:    1632
 k-point 178 :   0.4000 0.2000 0.1333  plane waves:    1634
 k-point 179 :   0.4667 0.2000 0.1333  plane waves:    1641
 k-point 180 :  -0.4667 0.2000 0.1333  plane waves:    1638
 k-point 181 :  -0.4000 0.2000 0.1333  plane waves:    1641
 k-point 182 :  -0.3333 0.2000 0.1333  plane waves:    1639
 k-point 183 :  -0.2667 0.2000 0.1333  plane waves:    1645
 k-point 184 :  -0.2000 0.2000 0.1333  plane waves:    1647
 k-point 185 :  -0.1333 0.2000 0.1333  plane waves:    1647
 k-point 186 :   0.2667 0.2667 0.1333  plane waves:    1640
 k-point 187 :   0.3333 0.2667 0.1333  plane waves:    1639
 k-point 188 :   0.4000 0.2667 0.1333  plane waves:    1635
 k-point 189 :   0.4667 0.2667 0.1333  plane waves:    1635
 k-point 190 :  -0.4667 0.2667 0.1333  plane waves:    1631
 k-point 191 :  -0.4000 0.2667 0.1333  plane waves:    1636
 k-point 192 :  -0.3333 0.2667 0.1333  plane waves:    1640
 k-point 193 :  -0.2667 0.2667 0.1333  plane waves:    1637
 k-point 194 :  -0.2000 0.2667 0.1333  plane waves:    1642
 k-point 195 :  -0.1333 0.2667 0.1333  plane waves:    1642
 k-point 196 :   0.3333 0.3333 0.1333  plane waves:    1631
 k-point 197 :   0.4000 0.3333 0.1333  plane waves:    1633
 k-point 198 :   0.4667 0.3333 0.1333  plane waves:    1633
 k-point 199 :  -0.4667 0.3333 0.1333  plane waves:    1632
 k-point 200 :  -0.4000 0.3333 0.1333  plane waves:    1639
 k-point 201 :  -0.3333 0.3333 0.1333  plane waves:    1639
 k-point 202 :  -0.2667 0.3333 0.1333  plane waves:    1640
 k-point 203 :  -0.2000 0.3333 0.1333  plane waves:    1640
 k-point 204 :  -0.1333 0.3333 0.1333  plane waves:    1643
 k-point 205 :   0.4000 0.4000 0.1333  plane waves:    1620
 k-point 206 :   0.4667 0.4000 0.1333  plane waves:    1632
 k-point 207 :  -0.4667 0.4000 0.1333  plane waves:    1635
 k-point 208 :  -0.4000 0.4000 0.1333  plane waves:    1636
 k-point 209 :  -0.3333 0.4000 0.1333  plane waves:    1639
 k-point 210 :  -0.2667 0.4000 0.1333  plane waves:    1645
 k-point 211 :  -0.2000 0.4000 0.1333  plane waves:    1643
 k-point 212 :  -0.1333 0.4000 0.1333  plane waves:    1640
 k-point 213 :   0.4667 0.4667 0.1333  plane waves:    1633
 k-point 214 :  -0.4667 0.4667 0.1333  plane waves:    1635
 k-point 215 :  -0.4000 0.4667 0.1333  plane waves:    1635
 k-point 216 :  -0.3333 0.4667 0.1333  plane waves:    1639
 k-point 217 :  -0.2667 0.4667 0.1333  plane waves:    1643
 k-point 218 :  -0.2000 0.4667 0.1333  plane waves:    1645
 k-point 219 :  -0.1333 0.4667 0.1333  plane waves:    1646
 k-point 220 :  -0.4667-0.4667 0.1333  plane waves:    1635
 k-point 221 :  -0.4000-0.4667 0.1333  plane waves:    1639
 k-point 222 :  -0.3333-0.4667 0.1333  plane waves:    1637
 k-point 223 :  -0.2667-0.4667 0.1333  plane waves:    1644
 k-point 224 :  -0.2000-0.4667 0.1333  plane waves:    1645
 k-point 225 :  -0.4000-0.4000 0.1333  plane waves:    1633
 k-point 226 :  -0.3333-0.4000 0.1333  plane waves:    1646
 k-point 227 :  -0.2667-0.4000 0.1333  plane waves:    1640
 k-point 228 :  -0.2000-0.4000 0.1333  plane waves:    1641
 k-point 229 :  -0.3333-0.3333 0.1333  plane waves:    1647
 k-point 230 :  -0.2667-0.3333 0.1333  plane waves:    1648
 k-point 231 :  -0.2000-0.3333 0.1333  plane waves:    1644
 k-point 232 :  -0.2667-0.2667 0.1333  plane waves:    1645
 k-point 233 :  -0.2000-0.2667 0.1333  plane waves:    1649
 k-point 234 :  -0.2000-0.2000 0.1333  plane waves:    1649
 k-point 235 :   0.2000 0.2000 0.2000  plane waves:    1628
 k-point 236 :   0.2667 0.2000 0.2000  plane waves:    1624
 k-point 237 :   0.3333 0.2000 0.2000  plane waves:    1631
 k-point 238 :   0.4000 0.2000 0.2000  plane waves:    1636
 k-point 239 :   0.4667 0.2000 0.2000  plane waves:    1634
 k-point 240 :  -0.4667 0.2000 0.2000  plane waves:    1628
 k-point 241 :  -0.4000 0.2000 0.2000  plane waves:    1629
 k-point 242 :  -0.3333 0.2000 0.2000  plane waves:    1640
 k-point 243 :  -0.2667 0.2000 0.2000  plane waves:    1645
 k-point 244 :  -0.2000 0.2000 0.2000  plane waves:    1644
 k-point 245 :   0.2667 0.2667 0.2000  plane waves:    1620
 k-point 246 :   0.3333 0.2667 0.2000  plane waves:    1629
 k-point 247 :   0.4000 0.2667 0.2000  plane waves:    1632
 k-point 248 :   0.4667 0.2667 0.2000  plane waves:    1635
 k-point 249 :  -0.4667 0.2667 0.2000  plane waves:    1633
 k-point 250 :  -0.4000 0.2667 0.2000  plane waves:    1629
 k-point 251 :  -0.3333 0.2667 0.2000  plane waves:    1637
 k-point 252 :  -0.2667 0.2667 0.2000  plane waves:    1647
 k-point 253 :  -0.2000 0.2667 0.2000  plane waves:    1644
 k-point 254 :   0.3333 0.3333 0.2000  plane waves:    1632
 k-point 255 :   0.4000 0.3333 0.2000  plane waves:    1633
 k-point 256 :   0.4667 0.3333 0.2000  plane waves:    1631
 k-point 257 :  -0.4667 0.3333 0.2000  plane waves:    1632
 k-point 258 :  -0.4000 0.3333 0.2000  plane waves:    1631
 k-point 259 :  -0.3333 0.3333 0.2000  plane waves:    1638
 k-point 260 :  -0.2667 0.3333 0.2000  plane waves:    1640
 k-point 261 :  -0.2000 0.3333 0.2000  plane waves:    1643
 k-point 262 :   0.4000 0.4000 0.2000  plane waves:    1629
 k-point 263 :   0.4667 0.4000 0.2000  plane waves:    1625
 k-point 264 :  -0.4667 0.4000 0.2000  plane waves:    1628
 k-point 265 :  -0.4000 0.4000 0.2000  plane waves:    1634
 k-point 266 :  -0.3333 0.4000 0.2000  plane waves:    1636
 k-point 267 :  -0.2667 0.4000 0.2000  plane waves:    1643
 k-point 268 :  -0.2000 0.4000 0.2000  plane waves:    1638
 k-point 269 :   0.4667 0.4667 0.2000  plane waves:    1626
 k-point 270 :  -0.4667 0.4667 0.2000  plane waves:    1626
 k-point 271 :  -0.4000 0.4667 0.2000  plane waves:    1630
 k-point 272 :  -0.3333 0.4667 0.2000  plane waves:    1637
 k-point 273 :  -0.2667 0.4667 0.2000  plane waves:    1645
 k-point 274 :  -0.2000 0.4667 0.2000  plane waves:    1650
 k-point 275 :  -0.4667-0.4667 0.2000  plane waves:    1629
 k-point 276 :  -0.4000-0.4667 0.2000  plane waves:    1637
 k-point 277 :  -0.3333-0.4667 0.2000  plane waves:    1634
 k-point 278 :  -0.2667-0.4667 0.2000  plane waves:    1647
 k-point 279 :  -0.4000-0.4000 0.2000  plane waves:    1634
 k-point 280 :  -0.3333-0.4000 0.2000  plane waves:    1639
 k-point 281 :  -0.2667-0.4000 0.2000  plane waves:    1640
 k-point 282 :  -0.3333-0.3333 0.2000  plane waves:    1637
 k-point 283 :  -0.2667-0.3333 0.2000  plane waves:    1646
 k-point 284 :  -0.2667-0.2667 0.2000  plane waves:    1645
 k-point 285 :   0.2667 0.2667 0.2667  plane waves:    1619
 k-point 286 :   0.3333 0.2667 0.2667  plane waves:    1624
 k-point 287 :   0.4000 0.2667 0.2667  plane waves:    1630
 k-point 288 :   0.4667 0.2667 0.2667  plane waves:    1639
 k-point 289 :  -0.4667 0.2667 0.2667  plane waves:    1634
 k-point 290 :  -0.4000 0.2667 0.2667  plane waves:    1623
 k-point 291 :  -0.3333 0.2667 0.2667  plane waves:    1627
 k-point 292 :  -0.2667 0.2667 0.2667  plane waves:    1641
 k-point 293 :   0.3333 0.3333 0.2667  plane waves:    1619
 k-point 294 :   0.4000 0.3333 0.2667  plane waves:    1625
 k-point 295 :   0.4667 0.3333 0.2667  plane waves:    1633
 k-point 296 :  -0.4667 0.3333 0.2667  plane waves:    1631
 k-point 297 :  -0.4000 0.3333 0.2667  plane waves:    1634
 k-point 298 :  -0.3333 0.3333 0.2667  plane waves:    1632
 k-point 299 :  -0.2667 0.3333 0.2667  plane waves:    1639
 k-point 300 :   0.4000 0.4000 0.2667  plane waves:    1626
 k-point 301 :   0.4667 0.4000 0.2667  plane waves:    1623
 k-point 302 :  -0.4667 0.4000 0.2667  plane waves:    1626
 k-point 303 :  -0.4000 0.4000 0.2667  plane waves:    1633
 k-point 304 :  -0.3333 0.4000 0.2667  plane waves:    1632
 k-point 305 :  -0.2667 0.4000 0.2667  plane waves:    1635
 k-point 306 :   0.4667 0.4667 0.2667  plane waves:    1618
 k-point 307 :  -0.4667 0.4667 0.2667  plane waves:    1628
 k-point 308 :  -0.4000 0.4667 0.2667  plane waves:    1632
 k-point 309 :  -0.3333 0.4667 0.2667  plane waves:    1636
 k-point 310 :  -0.2667 0.4667 0.2667  plane waves:    1642
 k-point 311 :  -0.4667-0.4667 0.2667  plane waves:    1623
 k-point 312 :  -0.4000-0.4667 0.2667  plane waves:    1629
 k-point 313 :  -0.3333-0.4667 0.2667  plane waves:    1633
 k-point 314 :  -0.4000-0.4000 0.2667  plane waves:    1632
 k-point 315 :  -0.3333-0.4000 0.2667  plane waves:    1637
 k-point 316 :  -0.3333-0.3333 0.2667  plane waves:    1634
 k-point 317 :   0.3333 0.3333 0.3333  plane waves:    1616
 k-point 318 :   0.4000 0.3333 0.3333  plane waves:    1611
 k-point 319 :   0.4667 0.3333 0.3333  plane waves:    1617
 k-point 320 :  -0.4667 0.3333 0.3333  plane waves:    1632
 k-point 321 :  -0.4000 0.3333 0.3333  plane waves:    1633
 k-point 322 :  -0.3333 0.3333 0.3333  plane waves:    1624
 k-point 323 :   0.4000 0.4000 0.3333  plane waves:    1613
 k-point 324 :   0.4667 0.4000 0.3333  plane waves:    1617
 k-point 325 :  -0.4667 0.4000 0.3333  plane waves:    1624
 k-point 326 :  -0.4000 0.4000 0.3333  plane waves:    1633
 k-point 327 :  -0.3333 0.4000 0.3333  plane waves:    1630
 k-point 328 :   0.4667 0.4667 0.3333  plane waves:    1616
 k-point 329 :  -0.4667 0.4667 0.3333  plane waves:    1619
 k-point 330 :  -0.4000 0.4667 0.3333  plane waves:    1626
 k-point 331 :  -0.3333 0.4667 0.3333  plane waves:    1630
 k-point 332 :  -0.4667-0.4667 0.3333  plane waves:    1615
 k-point 333 :  -0.4000-0.4667 0.3333  plane waves:    1623
 k-point 334 :  -0.4000-0.4000 0.3333  plane waves:    1621
 k-point 335 :   0.4000 0.4000 0.4000  plane waves:    1613
 k-point 336 :   0.4667 0.4000 0.4000  plane waves:    1617
 k-point 337 :  -0.4667 0.4000 0.4000  plane waves:    1613
 k-point 338 :  -0.4000 0.4000 0.4000  plane waves:    1621
 k-point 339 :   0.4667 0.4667 0.4000  plane waves:    1614
 k-point 340 :  -0.4667 0.4667 0.4000  plane waves:    1617
 k-point 341 :  -0.4000 0.4667 0.4000  plane waves:    1621
 k-point 342 :  -0.4667-0.4667 0.4000  plane waves:    1612
 k-point 343 :   0.4667 0.4667 0.4667  plane waves:    1610
 k-point 344 :  -0.4667 0.4667 0.4667  plane waves:    1612

 maximum and minimum number of plane-waves per node :      1655     1610

 maximum number of plane-waves:      1655
 maximum index in each direction: 
   IXMAX=    8   IYMAX=    8   IZMAX=    8
   IXMIN=   -8   IYMIN=   -8   IZMIN=   -8


 serial   3D FFT for wavefunctions
 parallel 3D FFT for charge:
    minimum data exchange during FFTs selected (reduces bandwidth)


 total amount of memory used by VASP MPI-rank0   227017. kBytes
=======================================================================

   base      :      30000. kBytes
   nonl-proj :     164116. kBytes
   fftplans  :       1269. kBytes
   grid      :       3663. kBytes
   one-center:         31. kBytes
   wavefun   :      27938. kBytes
 
     INWAV:  cpu time      0.9764: real time      0.9813
 Broyden mixing: mesh for mixing (old mesh)
   NGX = 17   NGY = 17   NGZ = 17
  (NGX  = 72   NGY  = 72   NGZ  = 72)
  gives a total of   4913 points

 charge density for first step will be calculated from the start-wavefunctions


--------------------------------------------------------------------------------------------------------


 Maximum index for augmentation-charges         3866 (set IRDMAX)


--------------------------------------------------------------------------------------------------------


 initial charge from wavefunction
 First call to EWALD:  gamma=   0.464
 Maximum number of real-space cells 3x 3x 3
 Maximum number of reciprocal cells 3x 3x 3

    FEWALD:  cpu time      0.0003: real time      0.0003


--------------------------------------- Ionic step        1  -------------------------------------------




--------------------------------------- Iteration      1(   1)  ---------------------------------------


    POTLOK:  cpu time      0.0122: real time      0.0125
    SETDIJ:  cpu time      0.0015: real time      0.0015
     EDDAV:  cpu time      3.9979: real time      4.0232
       DOS:  cpu time      0.0030: real time      0.0275
    CHARGE:  cpu time      0.1492: real time      0.1518
    MIXING:  cpu time      0.0004: real time      0.0004
    --------------------------------------------
      LOOP:  cpu time      4.1641: real time      4.2169

 eigenvalue-minimisations  : 21456
 total energy-change (2. order) :-0.7839408E+01  (-0.8557478E-13)
 number of electron      20.0000006 magnetization 
 augmentation part        7.1887664 magnetization 

 Broyden mixing:
  rms(total) = 0.15306E-08    rms(broyden)= 0.15306E-08
  rms(prec ) = 0.42409E-08
  weight for this iteration     100.00

 Free energy of the ion-electron system (eV)
  ---------------------------------------------------
  alpha Z        PSCENC =        38.97933152
  Ewald energy   TEWEN  =     -1472.64605537
  -Hartree energ DENC   =      -852.37516803
  -exchange      EXHF   =         0.00000000
  -V(xc)+E(xc)   XCENC  =        44.64108413
  PAW double counting   =      2458.64212743    -2855.94154946
  entropy T*S    EENTRO =        -0.00000000
  eigenvalues    EBANDS =      -188.64830454
  atomic energy  EATOM  =      2819.50912612
  Solvation  Ediel_sol  =         0.00000000
  ---------------------------------------------------
  free energy    TOTEN  =        -7.83940822 eV

  energy without entropy =       -7.83940822  energy(sigma->0) =       -7.83940822


--------------------------------------------------------------------------------------------------------




--------------------------------------- Iteration      1(   2)  ---------------------------------------


    POTLOK:  cpu time      0.0107: real time      0.0109
    SETDIJ:  cpu time      0.0016: real time      0.0016
     EDDAV:  cpu time      3.0602: real time      3.0773
       DOS:  cpu time      0.0040: real time      0.0081
    --------------------------------------------
      LOOP:  cpu time      3.0765: real time      3.0980

 eigenvalue-minimisations  : 14244
 total energy-change (2. order) : 0.4547474E-11  (-0.4651501E-14)
 number of electron      20.0000006 magnetization 
 augmentation part        7.1887664 magnetization 

 Free energy of the ion-electron system (eV)
  ---------------------------------------------------
  alpha Z        PSCENC =        38.97933152
  Ewald energy   TEWEN  =     -1472.64605537
  -Hartree energ DENC   =      -852.37516807
  -exchange      EXHF   =         0.00000000
  -V(xc)+E(xc)   XCENC  =        44.64108413
  PAW double counting   =      2458.64212765    -2855.94154969
  entropy T*S    EENTRO =        -0.00000000
  eigenvalues    EBANDS =      -188.64830449
  atomic energy  EATOM  =      2819.50912612
  Solvation  Ediel_sol  =         0.00000000
  ---------------------------------------------------
  free energy    TOTEN  =        -7.83940822 eV

  energy without entropy =       -7.83940822  energy(sigma->0) =       -7.83940822


--------------------------------------------------------------------------------------------------------




 average (electrostatic) potential at core
  the test charge radii are     0.9911  1.1897
  (the norm of the test charge is              1.0000)
       1 -73.8354       2 -88.9367
 
 
 
 E-fermi :   5.9873     XC(G=0):  -9.6098     alpha+bet :-10.6289

 Fermi energy:         5.9873413628

 k-point     1 :       0.0000    0.0000    0.0000
  band No.  band energies     occupation 
      1     -19.1362      2.00000
      2     -19.1362      2.00000
      3     -19.1276      2.00000
      4     -19.1276      2.00000
      5     -19.1242      2.00000
      6      -7.3150      2.00000
      7       0.6702      2.00000
      8       3.7570      2.00000
      9       4.0783      2.00000
     10       4.0783      2.00000
     11       8.3324      0.00000
     12       8.8954      0.00000
     13       8.8954      0.00000
     14      11.6030      0.00000
     15      11.6030      0.00000
     16      11.6399      0.00000
     17      13.3921      0.00000
     18      13.3921      0.00000
     19      13.6376      0.00000
     20      13.9270      0.00000
     21      25.7979      0.00000
     22      25.7979      0.00000
     23      25.8513      0.00000
     24      26.0696      0.00000
     25      26.0696      0.00000
     26      26.6641      0.00000
     27      27.7487      0.00000
     28      28.2894      0.00000
     29      28.2894      0.00000
     30      29.6218      0.00000
     31      29.6218      0.00000
     32      32.6804      0.00000
     33      32.6804      0.00000
     34      32.8918      0.00000
     35      33.5819      0.00000
     36      33.5819      0.00000

 k-point     2 :       0.0667    0.0000    0.0000
  band No.  band energies     occupation 
      1     -19.1363      2.00000
      2     -19.1361      2.00000
      3     -19.1276      2.00000
      4     -19.1276      2.00000
      5     -19.1241      2.00000
      6      -7.2700      2.00000
      7       0.4817      2.00000
      8       3.7506      2.00000
      9       4.0634      2.00000
     10       4.1653      2.00000
     11       8.2798      0.00000
     12       8.7688      0.00000
     13       8.7736      0.00000
     14      11.3468      0.00000
     15      11.5404      0.00000
     16      11.6101      0.00000
     17      13.7208      0.00000
     18      13.7766      0.00000
     19      14.0643      0.00000
     20      14.2620      0.00000
     21      24.3502      0.00000
     22      25.6564      0.00000
     23      25.7541      0.00000
     24      25.9650      0.00000
     25      26.2153      0.00000
     26      27.1936      0.00000
     27      27.4249      0.00000
     28      28.1057      0.00000
     29      28.1688      0.00000
     30      30.0814      0.00000
     31      30.3805      0.00000
     32      32.2541      0.00000
     33      32.2830      0.00000
     34      33.1824      0.00000
     35      33.6720      0.00000
     36      34.2006      0.00000

 k-point     3 :       0.1333    0.0000    0.0000
  band No.  band energies     occupation 
      1     -19.1365      2.00000
      2     -19.1359      2.00000
      3     -19.1277      2.00000
      4     -19.1277      2.00000
      5     -19.1238      2.00000
      6      -7.1363      2.00000
      7      -0.0106      2.00000
      8       3.7340      2.00000
      9       4.0239      2.00000
     10       4.3730      2.00000
     11       8.0375      0.00000
     12       8.4451      0.00000
     13       8.4689      0.00000
     14      11.0796      0.00000
     15      11.4738      0.00000
     16      11.7718      0.00000
     17      14.5230      0.00000
     18      14.5833      0.00000
     19      14.9214      0.00000
     20      15.2708      0.00000
     21      22.7244      0.00000
     22      24.5384      0.00000
     23      24.7382      0.00000
     24      26.0310      0.00000
     25      26.2389      0.00000
     26      26.9243      0.00000
     27      27.6848      0.00000
     28      28.1715      0.00000
     29      28.7618      0.00000
     30      30.2463      0.00000
     31      30.3582      0.00000
     32      32.1016      0.00000
     33      32.9571      0.00000
     34      33.0182      0.00000
     35      33.9057      0.00000
     36      34.6573      0.00000

 k-point     4 :       0.2000    0.0000    0.0000
  band No.  band energies     occupation 
      1     -19.1368      2.00000
      2     -19.1356      2.00000
      3     -19.1277      2.00000
      4     -19.1277      2.00000
      5     -19.1234      2.00000
      6      -6.9181      2.00000
      7      -0.6742      2.00000
      8       3.7214      2.00000
      9       3.9726      2.00000
     10       4.6119      2.00000
     11       7.6043      0.00000
     12       8.0105      0.00000
     13       8.0409      0.00000
     14      11.1759      0.00000
     15      11.6590      0.00000
     16      12.1866      0.00000
     17      15.5821      0.00000
     18      15.6495      0.00000
     19      15.9200      0.00000
     20      16.6480      0.00000
     21      21.1615      0.00000
     22      22.9901      0.00000
     23      23.3543      0.00000
     24      26.2138      0.00000
     25      26.4033      0.00000
     26      27.0869      0.00000
     27      27.8255      0.00000
     28      27.9498      0.00000
     29      29.2193      0.00000
     30      29.5613      0.00000
     31      29.6711      0.00000
     32      32.1719      0.00000
     33      32.7127      0.00000
     34      33.3106      0.00000
     35      33.7161      0.00000
     36      33.9845      0.00000

 k-point     5 :       0.2667    0.0000    0.0000
  band No.  band energies     occupation 
      1     -19.1372      2.00000
      2     -19.1352      2.00000
      3     -19.1278      2.00000
      4     -19.1277      2.00000
      5     -19.1230      2.00000
      6      -6.6253      2.00000
      7      -1.4029      2.00000
      8       3.7283      2.00000
      9       3.9232      2.00000
     10       4.8368      2.00000
     11       7.1221      0.00000
     12       7.5293      0.00000
     13       7.5721      0.00000
     14      11.5601      0.00000
     15      12.1858      0.00000
     16      12.8291      0.00000
     17      16.6962      0.00000
     18      16.7973      0.00000
     19      17.0369      0.00000
     20      18.2058      0.00000
     21      19.7741      0.00000
     22      21.4163      0.00000
     23      22.0761      0.00000
     24      26.3896      0.00000
     25      26.5442      0.00000
     26      27.1047      0.00000
     27      27.4384      0.00000
     28      27.8796      0.00000
     29      28.4938      0.00000
     30      29.4478      0.00000
     31      29.6322      0.00000
     32      31.0058      0.00000
     33      31.7372      0.00000
     34      32.5454      0.00000
     35      32.7845      0.00000
     36      33.4772      0.00000

 k-point     6 :       0.3333    0.0000    0.0000
  band No.  band energies     occupation 
      1     -19.1375      2.00000
      2     -19.1349      2.00000
      3     -19.1279      2.00000
      4     -19.1277      2.00000
      5     -19.1226      2.00000
      6      -6.2781      2.00000
      7      -2.1165      2.00000
      8       3.7593      2.00000
      9       3.8853      2.00000
     10       5.0425      2.00000
     11       6.6849      0.00000
     12       7.0290      0.00000
     13       7.1970      0.00000
     14      12.1495      0.00000
     15      12.9986      0.00000
     16      13.6573      0.00000
     17      16.8982      0.00000
     18      18.1023      0.00000
     19      18.2920      0.00000
     20      18.7967      0.00000
     21      19.8974      0.00000
     22      19.9198      0.00000
     23      21.4957      0.00000
     24      25.5617      0.00000
     25      26.0872      0.00000
     26      26.9541      0.00000
     27      27.3426      0.00000
     28      27.8500      0.00000
     29      28.4595      0.00000
     30      29.0623      0.00000
     31      29.7120      0.00000
     32      29.8583      0.00000
     33      30.7221      0.00000
     34      31.4569      0.00000
     35      31.8731      0.00000
     36      32.5747      0.00000

 k-point     7 :       0.4000    0.0000    0.0000
  band No.  band energies     occupation 
      1     -19.1378      2.00000
      2     -19.1347      2.00000
      3     -19.1280      2.00000
      4     -19.1277      2.00000
      5     -19.1222      2.00000
      6      -5.9230      2.00000
      7      -2.7326      2.00000
      8       3.8042      2.00000
      9       3.8621      2.00000
     10       5.2321      2.00000
     11       6.3544      0.00000
     12       6.6044      0.00000
     13       6.9258      0.00000
     14      12.9199      0.00000
     15      14.0026      0.00000
     16      14.6371      0.00000
     17      16.0783      0.00000
     18      17.6044      0.00000
     19      18.3528      0.00000
     20      19.6456      0.00000
     21      19.9231      0.00000
     22      21.5526      0.00000
     23      22.2765      0.00000
     24      24.1282      0.00000
     25      24.7770      0.00000
     26      26.5918      0.00000
     27      27.2836      0.00000
     28      27.7322      0.00000
     29      28.3242      0.00000
     30      28.5761      0.00000
     31      29.1018      0.00000
     32      30.0553      0.00000
     33      30.1959      0.00000
     34      30.5976      0.00000
     35      31.4609      0.00000
     36      31.6974      0.00000

 k-point     8 :       0.4667    0.0000    0.0000
  band No.  band energies     occupation 
      1     -19.1380      2.00000
      2     -19.1347      2.00000
      3     -19.1280      2.00000
      4     -19.1276      2.00000
      5     -19.1221      2.00000
      6      -5.6668      2.00000
      7      -3.1240      2.00000
      8       3.8387      2.00000
      9       3.8519      2.00000
     10       5.3744      2.00000
     11       6.1889      0.00000
     12       6.3183      0.00000
     13       6.7837      0.00000
     14      13.8207      0.00000
     15      14.8944      0.00000
     16      15.2628      0.00000
     17      15.7173      0.00000
     18      16.3999      0.00000
     19      17.0910      0.00000
     20      21.0546      0.00000
     21      21.4155      0.00000
     22      22.6417      0.00000
     23      22.7238      0.00000
     24      23.4720      0.00000
     25      24.0968      0.00000
     26      25.0925      0.00000
     27      26.0736      0.00000
     28      27.5525      0.00000
     29      28.4878      0.00000
     30      28.7341      0.00000
     31      29.3059      0.00000
     32      29.8792      0.00000
     33      29.9117      0.00000
     34      30.5525      0.00000
     35      31.0435      0.00000
     36      31.1742      0.00000

 k-point     9 :       0.0667    0.0667    0.0000
  band No.  band energies     occupation 
      1     -19.1363      2.00000
      2     -19.1361      2.00000
      3     -19.1277      2.00000
      4     -19.1275      2.00000
      5     -19.1241      2.00000
      6      -7.2580      2.00000
      7       0.4250      2.00000
      8       3.7019      2.00000
      9       3.9712      2.00000
     10       4.3472      2.00000
     11       8.1317      0.00000
     12       8.6290      0.00000
     13       8.9735      0.00000
     14      11.3039      0.00000
     15      11.5489      0.00000
     16      11.8001      0.00000
     17      13.4723      0.00000
     18      13.7606      0.00000
     19      14.1104      0.00000
     20      14.6341      0.00000
     21      24.3367      0.00000
     22      24.4900      0.00000
     23      25.9659      0.00000
     24      26.2142      0.00000
     25      26.4174      0.00000
     26      26.8062      0.00000
     27      27.8694      0.00000
     28      28.3331      0.00000
     29      28.4818      0.00000
     30      29.7016      0.00000
     31      30.6719      0.00000
     32      31.6848      0.00000
     33      32.6032      0.00000
     34      33.1697      0.00000
     35      33.5641      0.00000
     36      34.0450      0.00000

 k-point    10 :       0.1333    0.0667    0.0000
  band No.  band energies     occupation 
      1     -19.1365      2.00000
      2     -19.1360      2.00000
      3     -19.1277      2.00000
      4     -19.1275      2.00000
      5     -19.1239      2.00000
      6      -7.1569      2.00000
      7       0.0666      2.00000
      8       3.5784      2.00000
      9       3.8984      2.00000
     10       4.6512      2.00000
     11       7.6937      0.00000
     12       8.5472      0.00000
     13       8.9099      0.00000
     14      10.9959      0.00000
     15      11.6249      0.00000
     16      11.9949      0.00000
     17      13.8451      0.00000
     18      14.1827      0.00000
     19      14.8849      0.00000
     20      15.5351      0.00000
     21      22.7816      0.00000
     22      24.2459      0.00000
     23      25.3768      0.00000
     24      25.8046      0.00000
     25      26.1846      0.00000
     26      26.8237      0.00000
     27      27.6049      0.00000
     28      28.4863      0.00000
     29      29.3285      0.00000
     30      29.6181      0.00000
     31      31.1513      0.00000
     32      31.8246      0.00000
     33      32.4748      0.00000
     34      33.1483      0.00000
     35      33.4067      0.00000
     36      34.2557      0.00000

 k-point    11 :       0.2000    0.0667    0.0000
  band No.  band energies     occupation 
      1     -19.1367      2.00000
      2     -19.1357      2.00000
      3     -19.1278      2.00000
      4     -19.1275      2.00000
      5     -19.1236      2.00000
      6      -6.9699      2.00000
      7      -0.4994      2.00000
      8       3.4646      2.00000
      9       3.8448      2.00000
     10       4.9283      2.00000
     11       7.2062      0.00000
     12       8.3435      0.00000
     13       8.6296      0.00000
     14      10.8095      0.00000
     15      11.9098      0.00000
     16      12.2780      0.00000
     17      14.6884      0.00000
     18      15.0261      0.00000
     19      16.1306      0.00000
     20      16.5889      0.00000
     21      21.1979      0.00000
     22      23.0690      0.00000
     23      24.7335      0.00000
     24      25.2828      0.00000
     25      26.2735      0.00000
     26      26.9257      0.00000
     27      27.3952      0.00000
     28      28.5674      0.00000
     29      28.6795      0.00000
     30      30.1460      0.00000
     31      30.6667      0.00000
     32      31.9692      0.00000
     33      32.5782      0.00000
     34      33.1126      0.00000
     35      33.7249      0.00000
     36      33.8790      0.00000

 k-point    12 :       0.2667    0.0667    0.0000
  band No.  band energies     occupation 
      1     -19.1370      2.00000
      2     -19.1354      2.00000
      3     -19.1279      2.00000
      4     -19.1275      2.00000
      5     -19.1231      2.00000
      6      -6.7046      2.00000
      7      -1.1735      2.00000
      8       3.4028      2.00000
      9       3.7845      2.00000
     10       5.1095      2.00000
     11       6.8077      0.00000
     12       7.9540      0.00000
     13       8.2278      0.00000
     14      11.0419      0.00000
     15      12.2985      0.00000
     16      12.8603      0.00000
     17      15.7714      0.00000
     18      16.0899      0.00000
     19      17.5663      0.00000
     20      17.6880      0.00000
     21      19.8060      0.00000
     22      21.6267      0.00000
     23      23.3829      0.00000
     24      25.5298      0.00000
     25      26.4190      0.00000
     26      26.6474      0.00000
     27      27.3791      0.00000
     28      28.1824      0.00000
     29      28.7257      0.00000
     30      29.2157      0.00000
     31      30.7806      0.00000
     32      30.8495      0.00000
     33      32.0347      0.00000
     34      32.4326      0.00000
     35      33.1528      0.00000
     36      33.6817      0.00000

 k-point    13 :       0.3333    0.0667    0.0000
  band No.  band energies     occupation 
      1     -19.1373      2.00000
      2     -19.1352      2.00000
      3     -19.1279      2.00000
      4     -19.1276      2.00000
      5     -19.1227      2.00000
      6      -6.3764      2.00000
      7      -1.8716      2.00000
      8       3.4034      2.00000
      9       3.7179      2.00000
     10       5.1606      2.00000
     11       6.5726      0.00000
     12       7.4912      0.00000
     13       7.8037      0.00000
     14      11.6389      0.00000
     15      12.8459      0.00000
     16      13.6808      0.00000
     17      16.5956      0.00000
     18      17.2427      0.00000
     19      18.1164      0.00000
     20      19.0138      0.00000
     21      19.3860      0.00000
     22      20.5678      0.00000
     23      22.1615      0.00000
     24      25.2386      0.00000
     25      26.0540      0.00000
     26      26.7049      0.00000
     27      27.3338      0.00000
     28      28.1954      0.00000
     29      28.3138      0.00000
     30      28.8229      0.00000
     31      29.5350      0.00000
     32      30.4744      0.00000
     33      30.9044      0.00000
     34      31.8516      0.00000
     35      32.2679      0.00000
     36      32.8605      0.00000

 k-point    14 :       0.4000    0.0667    0.0000
  band No.  band energies     occupation 
      1     -19.1376      2.00000
      2     -19.1349      2.00000
      3     -19.1279      2.00000
      4     -19.1276      2.00000
      5     -19.1223      2.00000
      6      -6.0197      2.00000
      7      -2.5142      2.00000
      8       3.4570      2.00000
      9       3.6532      2.00000
     10       5.1192      2.00000
     11       6.4886      0.00000
     12       7.0458      0.00000
     13       7.4677      0.00000
     14      12.4790      0.00000
     15      13.5830      0.00000
     16      14.6590      0.00000
     17      16.0267      0.00000
     18      17.6364      0.00000
     19      18.5918      0.00000
     20      19.2344      0.00000
     21      20.2065      0.00000
     22      21.1130      0.00000
     23      22.0706      0.00000
     24      23.9008      0.00000
     25      25.7034      0.00000
     26      26.6158      0.00000
     27      27.1625      0.00000
     28      27.6427      0.00000
     29      28.4065      0.00000
     30      28.5094      0.00000
     31      28.9602      0.00000
     32      29.2547      0.00000
     33      30.2751      0.00000
     34      31.1126      0.00000
     35      31.8066      0.00000
     36      32.2605      0.00000

 k-point    15 :       0.4667    0.0667    0.0000
  band No.  band energies     occupation 
      1     -19.1379      2.00000
      2     -19.1348      2.00000
      3     -19.1279      2.00000
      4     -19.1276      2.00000
      5     -19.1221      2.00000
      6      -5.7141      2.00000
      7      -2.9935      2.00000
      8       3.4884      2.00000
      9       3.6545      2.00000
     10       5.0755      2.00000
     11       6.4524      0.00000
     12       6.6755      0.00000
     13       7.3129      0.00000
     14      13.4667      0.00000
     15      14.4785      0.00000
     16      14.9584      0.00000
     17      15.7629      0.00000
     18      16.4883      0.00000
     19      18.3644      0.00000
     20      20.1271      0.00000
     21      21.1299      0.00000
     22      22.2394      0.00000
     23      22.8905      0.00000
     24      23.4313      0.00000
     25      24.4191      0.00000
     26      25.7690      0.00000
     27      26.7938      0.00000
     28      26.9918      0.00000
     29      27.8884      0.00000
     30      28.4146      0.00000
     31      28.7844      0.00000
     32      29.3328      0.00000
     33      30.1881      0.00000
     34      30.5779      0.00000
     35      31.2591      0.00000
     36      31.6234      0.00000

 k-point    16 :      -0.4667    0.0667    0.0000
  band No.  band energies     occupation 
      1     -19.1379      2.00000
      2     -19.1347      2.00000
      3     -19.1280      2.00000
      4     -19.1276      2.00000
      5     -19.1220      2.00000
      6      -5.6086      2.00000
      7      -3.1458      2.00000
      8       3.4291      2.00000
      9       3.7753      2.00000
     10       5.0760      2.00000
     11       6.3975      0.00000
     12       6.4325      0.00000
     13       7.3810      0.00000
     14      13.7393      0.00000
     15      14.6651      0.00000
     16      15.2766      0.00000
     17      15.5884      0.00000
     18      16.8080      0.00000
     19      17.3249      0.00000
     20      20.7466      0.00000
     21      21.6199      0.00000
     22      22.4857      0.00000
     23      22.8107      0.00000
     24      23.9982      0.00000
     25      24.5182      0.00000
     26      25.0471      0.00000
     27      25.5114      0.00000
     28      26.7862      0.00000
     29      28.0390      0.00000
     30      28.5647      0.00000
     31      28.9092      0.00000
     32      29.6506      0.00000
     33      29.9313      0.00000
     34      30.6948      0.00000
     35      30.9347      0.00000
     36      31.3596      0.00000

 k-point    17 :      -0.4000    0.0667    0.0000
  band No.  band energies     occupation 
      1     -19.1379      2.00000
      2     -19.1347      2.00000
      3     -19.1280      2.00000
      4     -19.1276      2.00000
      5     -19.1221      2.00000
      6      -5.7838      2.00000
      7      -2.8862      2.00000
      8       3.3679      2.00000
      9       3.9086      2.00000
     10       5.0936      2.00000
     11       6.3101      0.00000
     12       6.4498      0.00000
     13       7.6108      0.00000
     14      12.8320      0.00000
     15      14.0813      0.00000
     16      15.8103      0.00000
     17      15.8909      0.00000
     18      16.8252      0.00000
     19      18.1747      0.00000
     20      19.4666      0.00000
     21      21.0598      0.00000
     22      22.2263      0.00000
     23      22.8761      0.00000
     24      23.4889      0.00000
     25      24.3336      0.00000
     26      25.9959      0.00000
     27      26.5800      0.00000
     28      27.2687      0.00000
     29      28.1034      0.00000
     30      28.3641      0.00000
     31      29.2847      0.00000
     32      29.6149      0.00000
     33      30.1321      0.00000
     34      30.8695      0.00000
     35      31.2202      0.00000
     36      31.5520      0.00000

 k-point    18 :      -0.3333    0.0667    0.0000
  band No.  band energies     occupation 
      1     -19.1377      2.00000
      2     -19.1348      2.00000
      3     -19.1280      2.00000
      4     -19.1277      2.00000
      5     -19.1224      2.00000
      6      -6.1151      2.00000
      7      -2.3454      2.00000
      8       3.3404      2.00000
      9       4.0024      2.00000
     10       5.0649      2.00000
     11       6.4016      0.00000
     12       6.6384      0.00000
     13       7.9316      0.00000
     14      12.0439      0.00000
     15      13.0973      0.00000
     16      14.7876      0.00000
     17      16.6297      0.00000
     18      17.8274      0.00000
     19      18.2805      0.00000
     20      19.4813      0.00000
     21      19.7872      0.00000
     22      20.6118      0.00000
     23      21.8085      0.00000
     24      24.7762      0.00000
     25      25.4520      0.00000
     26      26.1074      0.00000
     27      27.3711      0.00000
     28      27.9425      0.00000
     29      28.2207      0.00000
     30      28.9023      0.00000
     31      29.3196      0.00000
     32      30.0115      0.00000
     33      30.7155      0.00000
     34      31.2894      0.00000
     35      31.7437      0.00000
     36      32.0542      0.00000

 k-point    19 :      -0.2667    0.0667    0.0000
  band No.  band energies     occupation 
      1     -19.1373      2.00000
      2     -19.1350      2.00000
      3     -19.1280      2.00000
      4     -19.1277      2.00000
      5     -19.1228      2.00000
      6      -6.4694      2.00000
      7      -1.6739      2.00000
      8       3.3595      2.00000
      9       4.0431      2.00000
     10       4.9601      2.00000
     11       6.6895      0.00000
     12       6.9882      0.00000
     13       8.2901      0.00000
     14      11.4348      0.00000
     15      12.3122      0.00000
     16      13.7907      0.00000
     17      16.0852      0.00000
     18      17.4992      0.00000
     19      18.1166      0.00000
     20      18.9447      0.00000
     21      19.6976      0.00000
     22      20.4717      0.00000
     23      22.0298      0.00000
     24      25.1898      0.00000
     25      26.1759      0.00000
     26      26.9295      0.00000
     27      27.3854      0.00000
     28      27.7593      0.00000
     29      28.5182      0.00000
     30      29.3911      0.00000
     31      30.1501      0.00000
     32      30.7247      0.00000
     33      31.4248      0.00000
     34      32.0853      0.00000
     35      32.4331      0.00000
     36      32.7045      0.00000

 k-point    20 :      -0.2000    0.0667    0.0000
  band No.  band energies     occupation 
      1     -19.1370      2.00000
      2     -19.1353      2.00000
      3     -19.1279      2.00000
      4     -19.1277      2.00000
      5     -19.1232      2.00000
      6      -6.7829      2.00000
      7      -0.9674      2.00000
      8       3.4279      2.00000
      9       4.0425      2.00000
     10       4.7933      2.00000
     11       7.1203      0.00000
     12       7.4535      0.00000
     13       8.6202      0.00000
     14      11.0254      0.00000
     15      11.8029      0.00000
     16      12.9340      0.00000
     17      15.0196      0.00000
     18      16.5855      0.00000
     19      16.8845      0.00000
     20      17.4334      0.00000
     21      21.1692      0.00000
     22      21.5877      0.00000
     23      23.2454      0.00000
     24      25.0386      0.00000
     25      26.4763      0.00000
     26      27.0028      0.00000
     27      27.6429      0.00000
     28      28.0983      0.00000
     29      29.0956      0.00000
     30      29.3444      0.00000
     31      30.5541      0.00000
     32      31.6850      0.00000
     33      32.3530      0.00000
     34      32.8194      0.00000
     35      33.1918      0.00000
     36      33.6821      0.00000

 k-point    21 :      -0.1333    0.0667    0.0000
  band No.  band energies     occupation 
      1     -19.1367      2.00000
      2     -19.1356      2.00000
      3     -19.1278      2.00000
      4     -19.1276      2.00000
      5     -19.1236      2.00000
      6      -7.0283      2.00000
      7      -0.3068      2.00000
      8       3.5394      2.00000
      9       4.0178      2.00000
     10       4.5854      2.00000
     11       7.6189      0.00000
     12       7.9576      0.00000
     13       8.8305      0.00000
     14      10.8777      0.00000
     15      11.5672      0.00000
     16      12.2776      0.00000
     17      14.1180      0.00000
     18      15.4533      0.00000
     19      15.7584      0.00000
     20      16.0633      0.00000
     21      22.7106      0.00000
     22      23.0772      0.00000
     23      24.2134      0.00000
     24      25.4020      0.00000
     25      26.2975      0.00000
     26      26.7925      0.00000
     27      27.5161      0.00000
     28      28.6157      0.00000
     29      29.3117      0.00000
     30      29.7105      0.00000
     31      30.4718      0.00000
     32      32.4036      0.00000
     33      32.7995      0.00000
     34      33.2831      0.00000
     35      33.7157      0.00000
     36      34.2251      0.00000

 k-point    22 :      -0.0667    0.0667    0.0000
  band No.  band energies     occupation 
      1     -19.1364      2.00000
      2     -19.1359      2.00000
      3     -19.1277      2.00000
      4     -19.1276      2.00000
      5     -19.1239      2.00000
      6      -7.1927      2.00000
      7       0.2130      2.00000
      8       3.6735      2.00000
      9       3.9995      2.00000
     10       4.3588      2.00000
     11       8.0706      0.00000
     12       8.4069      0.00000
     13       8.8723      0.00000
     14      11.0560      0.00000
     15      11.4505      0.00000
     16      11.8759      0.00000
     17      13.6521      0.00000
     18      14.5158      0.00000
     19      14.7014      0.00000
     20      14.9511      0.00000
     21      24.1350      0.00000
     22      24.4904      0.00000
     23      24.6508      0.00000
     24      26.1271      0.00000
     25      26.5162      0.00000
     26      26.6517      0.00000
     27      27.4015      0.00000
     28      28.1750      0.00000
     29      28.7707      0.00000
     30      30.0228      0.00000
     31      30.9337      0.00000
     32      32.0416      0.00000
     33      32.4881      0.00000
     34      33.3730      0.00000
     35      33.9052      0.00000
     36      34.2763      0.00000

 k-point    23 :       0.1333    0.1333    0.0000
  band No.  band energies     occupation 
      1     -19.1367      2.00000
      2     -19.1358      2.00000
      3     -19.1279      2.00000
      4     -19.1273      2.00000
      5     -19.1238      2.00000
      6      -7.0895      2.00000
      7      -0.0974      2.00000
      8       3.3859      2.00000
      9       3.6942      2.00000
     10       5.0081      2.00000
     11       7.1943      0.00000
     12       8.6177      0.00000
     13       9.1860      0.00000
     14      10.8707      0.00000
     15      11.9248      0.00000
     16      12.3455      0.00000
     17      13.7303      0.00000
     18      14.0162      0.00000
     19      15.1377      0.00000
     20      16.4932      0.00000
     21      22.7996      0.00000
     22      22.9735      0.00000
     23      24.9507      0.00000
     24      25.4472      0.00000
     25      25.9865      0.00000
     26      26.5083      0.00000
     27      28.2434      0.00000
     28      28.4919      0.00000
     29      29.6860      0.00000
     30      29.9504      0.00000
     31      31.3985      0.00000
     32      31.8381      0.00000
     33      32.4130      0.00000
     34      32.4793      0.00000
     35      33.4105      0.00000
     36      33.8181      0.00000

 k-point    24 :       0.2000    0.1333    0.0000
  band No.  band energies     occupation 
      1     -19.1370      2.00000
      2     -19.1356      2.00000
      3     -19.1280      2.00000
      4     -19.1273      2.00000
      5     -19.1235      2.00000
      6      -6.9364      2.00000
      7      -0.4807      2.00000
      8       3.1976      2.00000
      9       3.5577      2.00000
     10       5.1170      2.00000
     11       6.9382      0.00000
     12       8.6120      0.00000
     13       9.1602      0.00000
     14      10.6119      0.00000
     15      12.3010      0.00000
     16      12.7474      0.00000
     17      14.0947      0.00000
     18      14.5235      0.00000
     19      16.0166      0.00000
     20      17.5481      0.00000
     21      21.3217      0.00000
     22      22.7184      0.00000
     23      23.9241      0.00000
     24      25.3206      0.00000
     25      25.8897      0.00000
     26      26.4458      0.00000
     27      27.3711      0.00000
     28      28.2209      0.00000
     29      29.9649      0.00000
     30      30.7725      0.00000
     31      31.2412      0.00000
     32      31.6400      0.00000
     33      32.0303      0.00000
     34      32.3215      0.00000
     35      33.3854      0.00000
     36      33.6615      0.00000

 k-point    25 :       0.2667    0.1333    0.0000
  band No.  band energies     occupation 
      1     -19.1372      2.00000
      2     -19.1354      2.00000
      3     -19.1281      2.00000
      4     -19.1272      2.00000
      5     -19.1231      2.00000
      6      -6.7036      2.00000
      7      -1.0215      2.00000
      8       3.0630      2.00000
      9       3.4440      2.00000
     10       4.9276      2.00000
     11       7.0037      0.00000
     12       8.5127      0.00000
     13       8.9006      0.00000
     14      10.4363      0.00000
     15      12.8090      0.00000
     16      13.2619      0.00000
     17      14.9142      0.00000
     18      15.4225      0.00000
     19      17.3190      0.00000
     20      18.4715      0.00000
     21      19.9860      0.00000
     22      21.5972      0.00000
     23      23.8533      0.00000
     24      24.9838      0.00000
     25      25.4552      0.00000
     26      26.2209      0.00000
     27      26.6766      0.00000
     28      28.1159      0.00000
     29      29.4979      0.00000
     30      30.1804      0.00000
     31      30.5050      0.00000
     32      31.2571      0.00000
     33      31.9640      0.00000
     34      32.5958      0.00000
     35      32.8906      0.00000
     36      34.2320      0.00000

 k-point    26 :       0.3333    0.1333    0.0000
  band No.  band energies     occupation 
      1     -19.1374      2.00000
      2     -19.1352      2.00000
      3     -19.1281      2.00000
      4     -19.1273      2.00000
      5     -19.1227      2.00000
      6      -6.4035      2.00000
      7      -1.6413      2.00000
      8       2.9969      2.00000
      9       3.3246      2.00000
     10       4.6533      2.00000
     11       7.2022      0.00000
     12       8.1974      0.00000
     13       8.5610      0.00000
     14      10.6789      0.00000
     15      13.3470      0.00000
     16      14.0374      0.00000
     17      15.9287      0.00000
     18      16.4279      0.00000
     19      18.1266      0.00000
     20      18.8691      0.00000
     21      19.5491      0.00000
     22      20.9554      0.00000
     23      23.5259      0.00000
     24      24.3852      0.00000
     25      24.7864      0.00000
     26      26.0958      0.00000
     27      26.7724      0.00000
     28      28.1854      0.00000
     29      28.3813      0.00000
     30      29.0624      0.00000
     31      29.8991      0.00000
     32      30.7732      0.00000
     33      31.3424      0.00000
     34      31.9340      0.00000
     35      33.0796      0.00000
     36      33.4009      0.00000

 k-point    27 :       0.4000    0.1333    0.0000
  band No.  band energies     occupation 
      1     -19.1376      2.00000
      2     -19.1351      2.00000
      3     -19.1281      2.00000
      4     -19.1273      2.00000
      5     -19.1224      2.00000
      6      -6.0624      2.00000
      7      -2.2585      2.00000
      8       2.9553      2.00000
      9       3.2345      2.00000
     10       4.4632      2.00000
     11       7.3551      0.00000
     12       7.7634      0.00000
     13       8.2666      0.00000
     14      11.3217      0.00000
     15      13.9966      0.00000
     16      15.0023      0.00000
     17      15.9826      0.00000
     18      17.3924      0.00000
     19      17.6826      0.00000
     20      19.0458      0.00000
     21      20.6289      0.00000
     22      21.5527      0.00000
     23      22.5614      0.00000
     24      23.5135      0.00000
     25      24.9365      0.00000
     26      26.3512      0.00000
     27      26.7503      0.00000
     28      27.1869      0.00000
     29      27.8627      0.00000
     30      28.4289      0.00000
     31      29.1140      0.00000
     32      29.7718      0.00000
     33      30.4819      0.00000
     34      31.6716      0.00000
     35      32.0053      0.00000
     36      32.9391      0.00000

 k-point    28 :       0.4667    0.1333    0.0000
  band No.  band energies     occupation 
      1     -19.1377      2.00000
      2     -19.1350      2.00000
      3     -19.1280      2.00000
      4     -19.1275      2.00000
      5     -19.1221      2.00000
      6      -5.7382      2.00000
      7      -2.7761      2.00000
      8       2.8377      2.00000
      9       3.2869      2.00000
     10       4.4097      2.00000
     11       7.2716      0.00000
     12       7.3684      0.00000
     13       8.2005      0.00000
     14      12.2233      0.00000
     15      14.7557      0.00000
     16      15.0085      0.00000
     17      16.0907      0.00000
     18      16.4529      0.00000
     19      18.9066      0.00000
     20      19.5668      0.00000
     21      21.0597      0.00000
     22      21.7734      0.00000
     23      22.5554      0.00000
     24      23.7959      0.00000
     25      25.2350      0.00000
     26      25.6624      0.00000
     27      26.2983      0.00000
     28      26.7555      0.00000
     29      27.2941      0.00000
     30      27.8366      0.00000
     31      28.2570      0.00000
     32      29.1770      0.00000
     33      29.8880      0.00000
     34      30.9836      0.00000
     35      31.6451      0.00000
     36      32.1945      0.00000

 k-point    29 :      -0.4667    0.1333    0.0000
  band No.  band energies     occupation 
      1     -19.1378      2.00000
      2     -19.1349      2.00000
      3     -19.1279      2.00000
      4     -19.1276      2.00000
      5     -19.1220      2.00000
      6      -5.5502      2.00000
      7      -3.0523      2.00000
      8       2.6921      2.00000
      9       3.4614      2.00000
     10       4.4818      2.00000
     11       6.9385      0.00000
     12       7.1094      0.00000
     13       8.3690      0.00000
     14      13.2372      0.00000
     15      13.9439      0.00000
     16      15.2008      0.00000
     17      15.7990      0.00000
     18      17.2290      0.00000
     19      18.7449      0.00000
     20      20.1933      0.00000
     21      20.6496      0.00000
     22      22.0151      0.00000
     23      23.9201      0.00000
     24      24.3287      0.00000
     25      24.7033      0.00000
     26      25.1717      0.00000
     27      25.7298      0.00000
     28      26.0622      0.00000
     29      26.9988      0.00000
     30      27.4460      0.00000
     31      28.2915      0.00000
     32      29.1665      0.00000
     33      29.7934      0.00000
     34      30.2572      0.00000
     35      31.2403      0.00000
     36      32.1834      0.00000

 k-point    30 :      -0.4000    0.1333    0.0000
  band No.  band energies     occupation 
      1     -19.1378      2.00000
      2     -19.1349      2.00000
      3     -19.1279      2.00000
      4     -19.1277      2.00000
      5     -19.1220      2.00000
      6      -5.6224      2.00000
      7      -2.9540      2.00000
      8       2.5930      2.00000
      9       3.6973      2.00000
     10       4.6462      2.00000
     11       6.6619      0.00000
     12       6.8775      0.00000
     13       8.6259      0.00000
     14      12.8471      0.00000
     15      14.0794      0.00000
     16      14.5930      0.00000
     17      16.7651      0.00000
     18      17.4876      0.00000
     19      18.1951      0.00000
     20      19.3814      0.00000
     21      21.9203      0.00000
     22      22.4442      0.00000
     23      23.0925      0.00000
     24      23.5047      0.00000
     25      24.1726      0.00000
     26      25.0188      0.00000
     27      26.1951      0.00000
     28      26.7845      0.00000
     29      27.2423      0.00000
     30      28.2023      0.00000
     31      28.3082      0.00000
     32      29.2616      0.00000
     33      29.7093      0.00000
     34      30.2437      0.00000
     35      31.1516      0.00000
     36      32.2109      0.00000

 k-point    31 :      -0.3333    0.1333    0.0000
  band No.  band energies     occupation 
      1     -19.1376      2.00000
      2     -19.1349      2.00000
      3     -19.1280      2.00000
      4     -19.1277      2.00000
      5     -19.1222      2.00000
      6      -5.9015      2.00000
      7      -2.5389      2.00000
      8       2.5747      2.00000
      9       3.9432      2.00000
     10       4.8518      2.00000
     11       6.4957      0.00000
     12       6.7362      0.00000
     13       8.8986      0.00000
     14      12.0440      0.00000
     15      13.1729      0.00000
     16      15.6808      0.00000
     17      16.2780      0.00000
     18      17.0614      0.00000
     19      18.4028      0.00000
     20      20.0735      0.00000
     21      20.8916      0.00000
     22      21.4800      0.00000
     23      22.4302      0.00000
     24      23.6208      0.00000
     25      24.3588      0.00000
     26      25.2674      0.00000
     27      26.7918      0.00000
     28      27.7729      0.00000
     29      27.8152      0.00000
     30      28.2890      0.00000
     31      29.2204      0.00000
     32      29.6900      0.00000
     33      30.0655      0.00000
     34      30.9168      0.00000
     35      31.4388      0.00000
     36      32.0619      0.00000

 k-point    32 :      -0.2667    0.1333    0.0000
  band No.  band energies     occupation 
      1     -19.1375      2.00000
      2     -19.1349      2.00000
      3     -19.1280      2.00000
      4     -19.1277      2.00000
      5     -19.1225      2.00000
      6      -6.2455      2.00000
      7      -1.9656      2.00000
      8       2.6562      2.00000
      9       4.1334      2.00000
     10       5.0061      2.00000
     11       6.4817      0.00000
     12       6.7676      0.00000
     13       9.1279      0.00000
     14      11.3873      0.00000
     15      12.5132      0.00000
     16      15.1266      0.00000
     17      15.5305      0.00000
     18      17.3062      0.00000
     19      19.1933      0.00000
     20      19.5629      0.00000
     21      19.9573      0.00000
     22      20.6684      0.00000
     23      22.1558      0.00000
     24      23.8547      0.00000
     25      25.1972      0.00000
     26      25.9630      0.00000
     27      27.0511      0.00000
     28      27.6599      0.00000
     29      28.2648      0.00000
     30      29.2700      0.00000
     31      29.9735      0.00000
     32      30.5411      0.00000
     33      31.2036      0.00000
     34      31.5626      0.00000
     35      31.9749      0.00000
     36      32.2986      0.00000

 k-point    33 :      -0.2000    0.1333    0.0000
  band No.  band energies     occupation 
      1     -19.1372      2.00000
      2     -19.1351      2.00000
      3     -19.1281      2.00000
      4     -19.1277      2.00000
      5     -19.1229      2.00000
      6      -6.5699      2.00000
      7      -1.3498      2.00000
      8       2.8484      2.00000
      9       4.2065      2.00000
     10       5.0016      2.00000
     11       6.6882      0.00000
     12       7.0171      0.00000
     13       9.2335      0.00000
     14      10.9219      0.00000
     15      12.1363      0.00000
     16      14.0696      0.00000
     17      14.6098      0.00000
     18      17.4267      0.00000
     19      18.0932      0.00000
     20      18.3666      0.00000
     21      20.2267      0.00000
     22      21.4155      0.00000
     23      22.8363      0.00000
     24      24.0983      0.00000
     25      25.7037      0.00000
     26      26.3806      0.00000
     27      27.3576      0.00000
     28      27.7731      0.00000
     29      28.7006      0.00000
     30      30.3833      0.00000
     31      30.7593      0.00000
     32      31.2223      0.00000
     33      31.5445      0.00000
     34      32.0131      0.00000
     35      32.4995      0.00000
     36      33.6737      0.00000

 k-point    34 :      -0.1333    0.1333    0.0000
  band No.  band energies     occupation 
      1     -19.1369      2.00000
      2     -19.1353      2.00000
      3     -19.1280      2.00000
      4     -19.1276      2.00000
      5     -19.1233      2.00000
      6      -6.8367      2.00000
      7      -0.7736      2.00000
      8       3.1527      2.00000
      9       4.1512      2.00000
     10       4.8372      2.00000
     11       7.1010      0.00000
     12       7.4443      0.00000
     13       9.1346      0.00000
     14      10.7439      0.00000
     15      11.8761      0.00000
     16      13.1031      0.00000
     17      14.0524      0.00000
     18      16.4532      0.00000
     19      16.9672      0.00000
     20      17.0802      0.00000
     21      21.4740      0.00000
     22      22.6389      0.00000
     23      23.0654      0.00000
     24      25.1126      0.00000
     25      25.7042      0.00000
     26      26.4791      0.00000
     27      27.5950      0.00000
     28      28.2257      0.00000
     29      29.5481      0.00000
     30      30.1663      0.00000
     31      30.5436      0.00000
     32      31.9519      0.00000
     33      32.3743      0.00000
     34      32.7911      0.00000
     35      33.2442      0.00000
     36      33.9906      0.00000

 k-point    35 :       0.2000    0.2000    0.0000
  band No.  band energies     occupation 
      1     -19.1373      2.00000
      2     -19.1353      2.00000
      3     -19.1282      2.00000
      4     -19.1271      2.00000
      5     -19.1233      2.00000
      6      -6.8190      2.00000
      7      -0.6471      2.00000
      8       2.9455      2.00000
      9       3.3384      2.00000
     10       4.7977      2.00000
     11       7.2099      0.00000
     12       8.5883      0.00000
     13       9.4932      0.00000
     14      10.6464      0.00000
     15      12.7792      0.00000
     16      13.0869      0.00000
     17      14.2455      0.00000
     18      14.3859      0.00000
     19      16.4206      0.00000
     20      18.5711      0.00000
     21      21.3913      0.00000
     22      21.6013      0.00000
     23      23.4008      0.00000
     24      23.9655      0.00000
     25      26.0032      0.00000
     26      26.5534      0.00000
     27      26.9146      0.00000
     28      28.4496      0.00000
     29      30.1550      0.00000
     30      30.5336      0.00000
     31      31.3138      0.00000
     32      31.3971      0.00000
     33      32.1492      0.00000
     34      32.1894      0.00000
     35      32.9992      0.00000
     36      33.4394      0.00000

 k-point    36 :       0.2667    0.2000    0.0000
  band No.  band energies     occupation 
      1     -19.1376      2.00000
      2     -19.1351      2.00000
      3     -19.1283      2.00000
      4     -19.1269      2.00000
      5     -19.1230      2.00000
      6      -6.6227      2.00000
      7      -0.9926      2.00000
      8       2.7366      2.00000
      9       3.1709      2.00000
     10       4.3226      2.00000
     11       7.6822      0.00000
     12       8.5853      0.00000
     13       9.4926      0.00000
     14      10.4728      0.00000
     15      13.3379      0.00000
     16      13.6558      0.00000
     17      14.5453      0.00000
     18      15.0449      0.00000
     19      17.3635      0.00000
     20      19.2620      0.00000
     21      20.3480      0.00000
     22      21.3313      0.00000
     23      22.5990      0.00000
     24      23.8660      0.00000
     25      25.3437      0.00000
     26      26.1200      0.00000
     27      26.8162      0.00000
     28      28.3210      0.00000
     29      28.9910      0.00000
     30      29.7609      0.00000
     31      31.0757      0.00000
     32      31.5653      0.00000
     33      32.2658      0.00000
     34      32.5362      0.00000
     35      32.7639      0.00000
     36      33.7058      0.00000

 k-point    37 :       0.3333    0.2000    0.0000
  band No.  band energies     occupation 
      1     -19.1378      2.00000
      2     -19.1350      2.00000
      3     -19.1284      2.00000
      4     -19.1269      2.00000
      5     -19.1227      2.00000
      6      -6.3582      2.00000
      7      -1.4691      2.00000
      8       2.5758      2.00000
      9       3.0038      2.00000
     10       3.9576      2.00000
     11       8.1287      0.00000
     12       8.6446      0.00000
     13       9.2520      0.00000
     14      10.2472      0.00000
     15      14.0003      0.00000
     16      14.4264      0.00000
     17      15.2566      0.00000
     18      15.9288      0.00000
     19      18.2801      0.00000
     20      18.7434      0.00000
     21      19.8464      0.00000
     22      21.3388      0.00000
     23      22.8024      0.00000
     24      23.8359      0.00000
     25      24.4588      0.00000
     26      25.3917      0.00000
     27      26.7713      0.00000
     28      27.5475      0.00000
     29      28.4531      0.00000
     30      28.9557      0.00000
     31      30.0005      0.00000
     32      31.2753      0.00000
     33      31.6003      0.00000
     34      32.6439      0.00000
     35      33.3595      0.00000
     36      33.9586      0.00000

 k-point    38 :       0.4000    0.2000    0.0000
  band No.  band energies     occupation 
      1     -19.1378      2.00000
      2     -19.1350      2.00000
      3     -19.1284      2.00000
      4     -19.1270      2.00000
      5     -19.1223      2.00000
      6      -6.0464      2.00000
      7      -2.0031      2.00000
      8       2.3955      2.00000
      9       2.8889      2.00000
     10       3.7873      2.00000
     11       8.3847      0.00000
     12       8.5274      0.00000
     13       9.0331      0.00000
     14      10.4015      0.00000
     15      14.6477      0.00000
     16      15.3705      0.00000
     17      15.8935      0.00000
     18      16.7431      0.00000
     19      17.4196      0.00000
     20      18.8658      0.00000
     21      20.3355      0.00000
     22      22.0461      0.00000
     23      23.0074      0.00000
     24      23.3632      0.00000
     25      24.0998      0.00000
     26      24.9147      0.00000
     27      26.1847      0.00000
     28      27.0808      0.00000
     29      28.0374      0.00000
     30      28.4407      0.00000
     31      29.0049      0.00000
     32      30.4140      0.00000
     33      30.7088      0.00000
     34      32.3175      0.00000
     35      32.7634      0.00000
     36      33.2245      0.00000

 k-point    39 :       0.4667    0.2000    0.0000
  band No.  band energies     occupation 
      1     -19.1378      2.00000
      2     -19.1350      2.00000
      3     -19.1283      2.00000
      4     -19.1271      2.00000
      5     -19.1221      2.00000
      6      -5.7304      2.00000
      7      -2.5048      2.00000
      8       2.1613      2.00000
      9       2.9245      2.00000
     10       3.7800      2.00000
     11       8.0795      0.00000
     12       8.3200      0.00000
     13       9.1478      0.00000
     14      11.0372      0.00000
     15      15.0845      0.00000
     16      15.4081      0.00000
     17      16.4052      0.00000
     18      16.5817      0.00000
     19      17.9633      0.00000
     20      19.2755      0.00000
     21      21.1512      0.00000
     22      21.9224      0.00000
     23      22.6785      0.00000
     24      23.6363      0.00000
     25      24.5262      0.00000
     26      25.1190      0.00000
     27      25.4439      0.00000
     28      26.7322      0.00000
     29      27.1848      0.00000
     30      27.9113      0.00000
     31      28.6410      0.00000
     32      29.1203      0.00000
     33      29.7877      0.00000
     34      31.5426      0.00000
     35      32.1565      0.00000
     36      32.5428      0.00000

 k-point    40 :      -0.4667    0.2000    0.0000
  band No.  band energies     occupation 
      1     -19.1377      2.00000
      2     -19.1351      2.00000
      3     -19.1281      2.00000
      4     -19.1273      2.00000
      5     -19.1219      2.00000
      6      -5.4969      2.00000
      7      -2.8563      2.00000
      8       1.9580      2.00000
      9       3.0878      2.00000
     10       3.8914      2.00000
     11       7.6624      0.00000
     12       7.9627      0.00000
     13       9.4200      0.00000
     14      11.9630      0.00000
     15      14.0739      0.00000
     16      15.2914      0.00000
     17      16.3080      0.00000
     18      17.5508      0.00000
     19      19.2415      0.00000
     20      19.9528      0.00000
     21      20.0296      0.00000
     22      21.7913      0.00000
     23      23.7328      0.00000
     24      23.8921      0.00000
     25      24.8009      0.00000
     26      25.1905      0.00000
     27      25.4840      0.00000
     28      26.1731      0.00000
     29      26.6291      0.00000
     30      27.0684      0.00000
     31      27.9944      0.00000
     32      28.4938      0.00000
     33      29.6209      0.00000
     34      30.7425      0.00000
     35      31.6238      0.00000
     36      32.1989      0.00000

 k-point    41 :      -0.4000    0.2000    0.0000
  band No.  band energies     occupation 
      1     -19.1376      2.00000
      2     -19.1351      2.00000
      3     -19.1280      2.00000
      4     -19.1275      2.00000
      5     -19.1219      2.00000
      6      -5.4670      2.00000
      7      -2.9222      2.00000
      8       1.8490      2.00000
      9       3.3407      2.00000
     10       4.0989      2.00000
     11       7.2737      0.00000
     12       7.5852      0.00000
     13       9.6733      0.00000
     14      12.8398      0.00000
     15      13.3466      0.00000
     16      14.2655      0.00000
     17      17.0645      0.00000
     18      18.0433      0.00000
     19      19.0055      0.00000
     20      19.6601      0.00000
     21      20.9466      0.00000
     22      22.4278      0.00000
     23      23.2340      0.00000
     24      23.8391      0.00000
     25      24.4106      0.00000
     26      24.9371      0.00000
     27      25.3031      0.00000
     28      26.0406      0.00000
     29      26.8181      0.00000
     30      27.6199      0.00000
     31      28.0152      0.00000
     32      28.4358      0.00000
     33      29.9133      0.00000
     34      30.0664      0.00000
     35      31.1950      0.00000
     36      32.4114      0.00000

 k-point    42 :      -0.3333    0.2000    0.0000
  band No.  band energies     occupation 
      1     -19.1375      2.00000
      2     -19.1351      2.00000
      3     -19.1279      2.00000
      4     -19.1277      2.00000
      5     -19.1220      2.00000
      6      -5.6629      2.00000
      7      -2.6821      2.00000
      8       1.8676      2.00000
      9       3.6495      2.00000
     10       4.3840      2.00000
     11       6.9361      0.00000
     12       7.2340      0.00000
     13       9.8483      0.00000
     14      12.1946      0.00000
     15      13.4504      0.00000
     16      14.3562      0.00000
     17      16.5695      0.00000
     18      17.8715      0.00000
     19      18.7467      0.00000
     20      20.5710      0.00000
     21      21.9602      0.00000
     22      22.1103      0.00000
     23      22.5577      0.00000
     24      22.9085      0.00000
     25      23.7383      0.00000
     26      24.4732      0.00000
     27      25.6041      0.00000
     28      26.7099      0.00000
     29      27.7848      0.00000
     30      28.2718      0.00000
     31      28.4330      0.00000
     32      29.2997      0.00000
     33      29.7538      0.00000
     34      30.4159      0.00000
     35      31.2407      0.00000
     36      32.8406      0.00000

 k-point    43 :      -0.2667    0.2000    0.0000
  band No.  band energies     occupation 
      1     -19.1375      2.00000
      2     -19.1350      2.00000
      3     -19.1280      2.00000
      4     -19.1277      2.00000
      5     -19.1223      2.00000
      6      -5.9716      2.00000
      7      -2.2647      2.00000
      8       2.0358      2.00000
      9       3.9613      2.00000
     10       4.7083      2.00000
     11       6.6682      0.00000
     12       6.9574      0.00000
     13       9.8760      0.00000
     14      11.5151      0.00000
     15      12.9288      0.00000
     16      15.0152      0.00000
     17      16.2452      0.00000
     18      16.6114      0.00000
     19      19.8173      0.00000
     20      20.6967      0.00000
     21      20.9821      0.00000
     22      21.3233      0.00000
     23      21.8565      0.00000
     24      23.0840      0.00000
     25      24.0529      0.00000
     26      24.9024      0.00000
     27      26.0448      0.00000
     28      27.9044      0.00000
     29      28.0436      0.00000
     30      28.5121      0.00000
     31      28.9417      0.00000
     32      29.9160      0.00000
     33      30.8481      0.00000
     34      31.2333      0.00000
     35      31.8020      0.00000
     36      33.0606      0.00000

 k-point    44 :      -0.2000    0.2000    0.0000
  band No.  band energies     occupation 
      1     -19.1374      2.00000
      2     -19.1350      2.00000
      3     -19.1281      2.00000
      4     -19.1277      2.00000
      5     -19.1226      2.00000
      6      -6.2913      2.00000
      7      -1.7957      2.00000
      8       2.3658      2.00000
      9       4.1820      2.00000
     10       4.9711      2.00000
     11       6.5384      0.00000
     12       6.8488      0.00000
     13       9.6779      0.00000
     14      11.0658      0.00000
     15      12.5507      0.00000
     16      14.6215      0.00000
     17      15.3280      0.00000
     18      17.2258      0.00000
     19      19.2301      0.00000
     20      19.5758      0.00000
     21      20.2092      0.00000
     22      21.3974      0.00000
     23      21.9483      0.00000
     24      23.6918      0.00000
     25      24.7773      0.00000
     26      25.4017      0.00000
     27      27.0987      0.00000
     28      27.7069      0.00000
     29      28.2819      0.00000
     30      29.4356      0.00000
     31      30.0465      0.00000
     32      30.7534      0.00000
     33      31.2122      0.00000
     34      31.9311      0.00000
     35      32.4432      0.00000
     36      32.9502      0.00000

 k-point    45 :       0.2667    0.2667    0.0000
  band No.  band energies     occupation 
      1     -19.1380      2.00000
      2     -19.1348      2.00000
      3     -19.1285      2.00000
      4     -19.1267      2.00000
      5     -19.1228      2.00000
      6      -6.4664      2.00000
      7      -1.1213      2.00000
      8       2.4427      2.00000
      9       2.9838      2.00000
     10       3.7200      2.00000
     11       8.3833      0.00000
     12       8.4419      0.00000
     13       9.8607      0.00000
     14      10.7120      0.00000
     15      13.7907      0.00000
     16      13.8801      0.00000
     17      14.9455      0.00000
     18      15.1584      0.00000
     19      17.8676      0.00000
     20      19.7840      0.00000
     21      20.1648      0.00000
     22      20.9719      0.00000
     23      21.9444      0.00000
     24      22.9470      0.00000
     25      24.3688      0.00000
     26      26.3631      0.00000
     27      27.2007      0.00000
     28      28.0760      0.00000
     29      28.1988      0.00000
     30      29.0127      0.00000
     31      31.2758      0.00000
     32      31.5819      0.00000
     33      32.1059      0.00000
     34      32.5626      0.00000
     35      32.7381      0.00000
     36      33.6857      0.00000

 k-point    46 :       0.3333    0.2667    0.0000
  band No.  band energies     occupation 
      1     -19.1383      2.00000
      2     -19.1346      2.00000
      3     -19.1286      2.00000
      4     -19.1266      2.00000
      5     -19.1225      2.00000
      6      -6.2441      2.00000
      7      -1.4046      2.00000
      8       2.1759      2.00000
      9       2.8021      2.00000
     10       3.3218      2.00000
     11       8.4273      0.00000
     12       9.0485      0.00000
     13       9.8738      0.00000
     14      10.6144      0.00000
     15      14.3824      0.00000
     16      14.5627      0.00000
     17      15.2909      0.00000
     18      15.9048      0.00000
     19      18.5553      0.00000
     20      18.9472      0.00000
     21      20.0542      0.00000
     22      20.6611      0.00000
     23      21.9593      0.00000
     24      23.2249      0.00000
     25      23.4961      0.00000
     26      26.2939      0.00000
     27      26.6119      0.00000
     28      27.2570      0.00000
     29      27.5553      0.00000
     30      28.8265      0.00000
     31      30.5432      0.00000
     32      30.9738      0.00000
     33      32.0025      0.00000
     34      32.8766      0.00000
     35      33.1847      0.00000
     36      33.4729      0.00000

 k-point    47 :       0.4000    0.2667    0.0000
  band No.  band energies     occupation 
      1     -19.1384      2.00000
      2     -19.1346      2.00000
      3     -19.1286      2.00000
      4     -19.1266      2.00000
      5     -19.1222      2.00000
      6      -5.9740      2.00000
      7      -1.7970      2.00000
      8       1.8782      2.00000
      9       2.6378      2.00000
     10       3.2053      2.00000
     11       8.6365      0.00000
     12       9.4630      0.00000
     13       9.7138      0.00000
     14      10.3576      0.00000
     15      15.2944      0.00000
     16      15.4254      0.00000
     17      15.7605      0.00000
     18      16.6218      0.00000
     19      17.5079      0.00000
     20      18.8922      0.00000
     21      20.2303      0.00000
     22      21.1378      0.00000
     23      22.0088      0.00000
     24      22.8350      0.00000
     25      24.2465      0.00000
     26      25.2133      0.00000
     27      25.7503      0.00000
     28      26.7832      0.00000
     29      27.2542      0.00000
     30      28.7972      0.00000
     31      29.6657      0.00000
     32      30.1511      0.00000
     33      31.3375      0.00000
     34      32.1633      0.00000
     35      33.2799      0.00000
     36      33.7931      0.00000

 k-point    48 :       0.4667    0.2667    0.0000
  band No.  band energies     occupation 
      1     -19.1383      2.00000
      2     -19.1347      2.00000
      3     -19.1286      2.00000
      4     -19.1267      2.00000
      5     -19.1219      2.00000
      6      -5.6893      2.00000
      7      -2.2239      2.00000
      8       1.5663      2.00000
      9       2.6225      2.00000
     10       3.2440      2.00000
     11       8.7374      0.00000
     12       9.2189      0.00000
     13       9.9549      0.00000
     14      10.4159      0.00000
     15      15.3482      0.00000
     16      16.0809      0.00000
     17      16.4911      0.00000
     18      16.8854      0.00000
     19      17.3271      0.00000
     20      18.8142      0.00000
     21      20.6211      0.00000
     22      21.5787      0.00000
     23      22.3842      0.00000
     24      23.2630      0.00000
     25      24.0139      0.00000
     26      24.3173      0.00000
     27      25.6377      0.00000
     28      26.2022      0.00000
     29      27.3347      0.00000
     30      28.4338      0.00000
     31      28.9043      0.00000
     32      29.6080      0.00000
     33      30.4475      0.00000
     34      30.7151      0.00000
     35      32.7140      0.00000
     36      33.0527      0.00000

 k-point    49 :      -0.4667    0.2667    0.0000
  band No.  band energies     occupation 
      1     -19.1380      2.00000
      2     -19.1349      2.00000
      3     -19.1284      2.00000
      4     -19.1269      2.00000
      5     -19.1218      2.00000
      6      -5.4507      2.00000
      7      -2.5908      2.00000
      8       1.3318      2.00000
      9       2.7468      2.00000
     10       3.3784      2.00000
     11       8.4347      0.00000
     12       8.8188      0.00000
     13      10.3862      0.00000
     14      10.8972      0.00000
     15      14.3923      0.00000
     16      15.5337      0.00000
     17      17.0121      0.00000
     18      17.6920      0.00000
     19      18.4783      0.00000
     20      19.4305      0.00000
     21      19.9671      0.00000
     22      22.3494      0.00000
     23      22.8356      0.00000
     24      23.1968      0.00000
     25      23.7068      0.00000
     26      24.3731      0.00000
     27      25.4800      0.00000
     28      26.4949      0.00000
     29      27.0190      0.00000
     30      27.7897      0.00000
     31      28.2522      0.00000
     32      28.9226      0.00000
     33      29.5925      0.00000
     34      30.3190      0.00000
     35      31.6545      0.00000
     36      32.3881      0.00000

 k-point    50 :      -0.4000    0.2667    0.0000
  band No.  band energies     occupation 
      1     -19.1377      2.00000
      2     -19.1352      2.00000
      3     -19.1282      2.00000
      4     -19.1272      2.00000
      5     -19.1218      2.00000
      6      -5.3488      2.00000
      7      -2.7886      2.00000
      8       1.2350      2.00000
      9       2.9765      2.00000
     10       3.6008      2.00000
     11       7.9951      0.00000
     12       8.3402      0.00000
     13      10.6576      0.00000
     14      11.7815      0.00000
     15      13.4348      0.00000
     16      14.6238      0.00000
     17      17.2815      0.00000
     18      18.2193      0.00000
     19      19.6331      0.00000
     20      19.7901      0.00000
     21      20.5033      0.00000
     22      21.7060      0.00000
     23      22.5236      0.00000
     24      23.5853      0.00000
     25      24.0659      0.00000
     26      25.1086      0.00000
     27      25.3087      0.00000
     28      25.9531      0.00000
     29      26.4119      0.00000
     30      27.4028      0.00000
     31      28.1941      0.00000
     32      28.7018      0.00000
     33      29.6007      0.00000
     34      30.3472      0.00000
     35      31.0591      0.00000
     36      31.5962      0.00000

 k-point    51 :      -0.3333    0.2667    0.0000
  band No.  band energies     occupation 
      1     -19.1375      2.00000
      2     -19.1352      2.00000
      3     -19.1280      2.00000
      4     -19.1275      2.00000
      5     -19.1219      2.00000
      6      -5.4428      2.00000
      7      -2.7554      2.00000
      8       1.3103      2.00000
      9       3.2844      2.00000
     10       3.9098      2.00000
     11       7.5302      0.00000
     12       7.8413      0.00000
     13      10.6815      0.00000
     14      12.4607      0.00000
     15      13.0364      0.00000
     16      13.9506      0.00000
     17      16.4644      0.00000
     18      19.2072      0.00000
     19      19.3112      0.00000
     20      20.7558      0.00000
     21      21.2220      0.00000
     22      21.3603      0.00000
     23      22.7847      0.00000
     24      23.4722      0.00000
     25      23.9200      0.00000
     26      24.1304      0.00000
     27      25.1128      0.00000
     28      25.9506      0.00000
     29      26.5838      0.00000
     30      28.0697      0.00000
     31      28.4558      0.00000
     32      29.0868      0.00000
     33      29.8872      0.00000
     34      30.2585      0.00000
     35      31.1709      0.00000
     36      31.4639      0.00000

 k-point    52 :      -0.2667    0.2667    0.0000
  band No.  band energies     occupation 
      1     -19.1374      2.00000
      2     -19.1352      2.00000
      3     -19.1278      2.00000
      4     -19.1277      2.00000
      5     -19.1220      2.00000
      6      -5.6822      2.00000
      7      -2.5478      2.00000
      8       1.5772      2.00000
      9       3.6353      2.00000
     10       4.2937      2.00000
     11       7.0669      0.00000
     12       7.3629      0.00000
     13      10.4256      0.00000
     14      11.8752      0.00000
     15      13.4327      0.00000
     16      14.1772      0.00000
     17      15.8873      0.00000
     18      18.0198      0.00000
     19      20.3025      0.00000
     20      20.4523      0.00000
     21      21.8316      0.00000
     22      22.1898      0.00000
     23      22.2707      0.00000
     24      22.7315      0.00000
     25      22.9546      0.00000
     26      24.5886      0.00000
     27      25.0820      0.00000
     28      26.8106      0.00000
     29      27.4057      0.00000
     30      28.2781      0.00000
     31      28.8069      0.00000
     32      29.6283      0.00000
     33      30.0117      0.00000
     34      30.8615      0.00000
     35      31.5160      0.00000
     36      32.1616      0.00000

 k-point    53 :       0.3333    0.3333    0.0000
  band No.  band energies     occupation 
      1     -19.1388      2.00000
      2     -19.1343      2.00000
      3     -19.1288      2.00000
      4     -19.1264      2.00000
      5     -19.1222      2.00000
      6      -6.0705      2.00000
      7      -1.4811      2.00000
      8       1.8076      2.00000
      9       2.6837      2.00000
     10       2.8481      2.00000
     11       8.1990      0.00000
     12       9.8606      0.00000
     13      10.2476      0.00000
     14      10.9656      0.00000
     15      14.3954      0.00000
     16      14.9317      0.00000
     17      15.8560      0.00000
     18      16.4066      0.00000
     19      18.8399      0.00000
     20      19.2125      0.00000
     21      19.6175      0.00000
     22      20.4770      0.00000
     23      20.6344      0.00000
     24      22.3317      0.00000
     25      24.2250      0.00000
     26      25.7470      0.00000
     27      26.1636      0.00000
     28      26.7704      0.00000
     29      27.5451      0.00000
     30      29.1263      0.00000
     31      29.5675      0.00000
     32      31.5030      0.00000
     33      32.3196      0.00000
     34      32.5176      0.00000
     35      32.7165      0.00000
     36      32.8386      0.00000

 k-point    54 :       0.4000    0.3333    0.0000
  band No.  band energies     occupation 
      1     -19.1390      2.00000
      2     -19.1342      2.00000
      3     -19.1289      2.00000
      4     -19.1263      2.00000
      5     -19.1220      2.00000
      6      -5.8538      2.00000
      7      -1.6910      2.00000
      8       1.4432      2.00000
      9       2.4870      2.00000
     10       2.7458      2.00000
     11       8.2424      0.00000
     12      10.2322      0.00000
     13      10.5297      0.00000
     14      10.9097      0.00000
     15      14.9803      0.00000
     16      15.5072      0.00000
     17      16.3799      0.00000
     18      17.0618      0.00000
     19      17.8820      0.00000
     20      19.0906      0.00000
     21      19.7068      0.00000
     22      20.5610      0.00000
     23      20.9137      0.00000
     24      21.5317      0.00000
     25      24.4047      0.00000
     26      25.2057      0.00000
     27      25.5351      0.00000
     28      26.7055      0.00000
     29      27.4694      0.00000
     30      28.7282      0.00000
     31      29.1531      0.00000
     32      30.7752      0.00000
     33      31.9153      0.00000
     34      32.2886      0.00000
     35      33.2198      0.00000
     36      33.2949      0.00000

 k-point    55 :       0.4667    0.3333    0.0000
  band No.  band energies     occupation 
      1     -19.1389      2.00000
      2     -19.1343      2.00000
      3     -19.1288      2.00000
      4     -19.1263      2.00000
      5     -19.1218      2.00000
      6      -5.6215      2.00000
      7      -1.9877      2.00000
      8       1.1044      2.00000
      9       2.4044      2.00000
     10       2.8130      2.00000
     11       8.5534      0.00000
     12       9.9572      0.00000
     13      10.4869      0.00000
     14      11.1121      0.00000
     15      15.6779      0.00000
     16      15.9943      0.00000
     17      16.6368      0.00000
     18      17.1563      0.00000
     19      17.7457      0.00000
     20      18.6262      0.00000
     21      19.9098      0.00000
     22      20.7763      0.00000
     23      21.4290      0.00000
     24      22.2472      0.00000
     25      23.1412      0.00000
     26      24.6461      0.00000
     27      25.8797      0.00000
     28      26.5979      0.00000
     29      27.4718      0.00000
     30      28.2475      0.00000
     31      29.1400      0.00000
     32      29.6700      0.00000
     33      31.1869      0.00000
     34      31.3191      0.00000
     35      32.8904      0.00000
     36      33.7051      0.00000

 k-point    56 :      -0.4667    0.3333    0.0000
  band No.  band energies     occupation 
      1     -19.1387      2.00000
      2     -19.1345      2.00000
      3     -19.1287      2.00000
      4     -19.1265      2.00000
      5     -19.1217      2.00000
      6      -5.4159      2.00000
      7      -2.3053      2.00000
      8       0.8694      2.00000
      9       2.4753      2.00000
     10       2.9595      2.00000
     11       8.8810      0.00000
     12       9.5747      0.00000
     13      10.2193      0.00000
     14      11.4354      0.00000
     15      14.8512      0.00000
     16      15.9367      0.00000
     17      17.1433      0.00000
     18      17.8606      0.00000
     19      18.2201      0.00000
     20      18.9089      0.00000
     21      19.8014      0.00000
     22      21.3529      0.00000
     23      21.8314      0.00000
     24      22.2329      0.00000
     25      23.7948      0.00000
     26      24.2018      0.00000
     27      24.8043      0.00000
     28      27.2714      0.00000
     29      27.4732      0.00000
     30      28.2194      0.00000
     31      28.5489      0.00000
     32      29.2715      0.00000
     33      29.6803      0.00000
     34      30.4166      0.00000
     35      32.5457      0.00000
     36      32.9280      0.00000

 k-point    57 :      -0.4000    0.3333    0.0000
  band No.  band energies     occupation 
      1     -19.1382      2.00000
      2     -19.1349      2.00000
      3     -19.1285      2.00000
      4     -19.1268      2.00000
      5     -19.1217      2.00000
      6      -5.2933      2.00000
      7      -2.5720      2.00000
      8       0.8051      2.00000
      9       2.6632      2.00000
     10       3.1878      2.00000
     11       8.6746      0.00000
     12       9.0719      0.00000
     13      10.6918      0.00000
     14      11.5208      0.00000
     15      13.8958      0.00000
     16      15.1557      0.00000
     17      17.3794      0.00000
     18      18.6183      0.00000
     19      18.9203      0.00000
     20      19.5921      0.00000
     21      20.4430      0.00000
     22      20.9800      0.00000
     23      22.0676      0.00000
     24      22.9612      0.00000
     25      23.4689      0.00000
     26      23.9932      0.00000
     27      25.7956      0.00000
     28      26.5568      0.00000
     29      27.1594      0.00000
     30      27.8713      0.00000
     31      28.3100      0.00000
     32      28.6465      0.00000
     33      29.2695      0.00000
     34      30.3205      0.00000
     35      31.5136      0.00000
     36      32.0678      0.00000

 k-point    58 :      -0.3333    0.3333    0.0000
  band No.  band energies     occupation 
      1     -19.1377      2.00000
      2     -19.1352      2.00000
      3     -19.1282      2.00000
      4     -19.1271      2.00000
      5     -19.1218      2.00000
      6      -5.3022      2.00000
      7      -2.7275      2.00000
      8       0.9492      2.00000
      9       2.9416      2.00000
     10       3.5047      2.00000
     11       8.1463      0.00000
     12       8.4646      0.00000
     13      11.2641      0.00000
     14      11.7108      0.00000
     15      13.1029      0.00000
     16      14.5215      0.00000
     17      16.7616      0.00000
     18      19.6980      0.00000
     19      19.7911      0.00000
     20      20.0314      0.00000
     21      20.2332      0.00000
     22      21.5994      0.00000
     23      21.9366      0.00000
     24      22.9015      0.00000
     25      24.1039      0.00000
     26      24.6781      0.00000
     27      25.2746      0.00000
     28      25.5677      0.00000
     29      27.2504      0.00000
     30      27.7164      0.00000
     31      28.0459      0.00000
     32      28.4823      0.00000
     33      29.8280      0.00000
     34      30.3863      0.00000
     35      30.8799      0.00000
     36      31.5486      0.00000

 k-point    59 :       0.4000    0.4000    0.0000
  band No.  band energies     occupation 
      1     -19.1394      2.00000
      2     -19.1339      2.00000
      3     -19.1290      2.00000
      4     -19.1261      2.00000
      5     -19.1218      2.00000
      6      -5.7016      2.00000
      7      -1.7123      2.00000
      8       1.0854      2.00000
      9       2.4049      2.00000
     10       2.4695      2.00000
     11       8.0168      0.00000
     12      10.5897      0.00000
     13      11.2165      0.00000
     14      11.3454      0.00000
     15      14.9255      0.00000
     16      15.7507      0.00000
     17      17.0671      0.00000
     18      17.5720      0.00000
     19      18.1050      0.00000
     20      18.8603      0.00000
     21      19.5159      0.00000
     22      19.5755      0.00000
     23      20.6073      0.00000
     24      21.3153      0.00000
     25      23.6255      0.00000
     26      24.0526      0.00000
     27      26.4662      0.00000
     28      26.9130      0.00000
     29      27.4646      0.00000
     30      28.0747      0.00000
     31      29.3493      0.00000
     32      31.4313      0.00000
     33      32.0045      0.00000
     34      32.3541      0.00000
     35      32.4243      0.00000
     36      32.6903      0.00000

 k-point    60 :       0.4667    0.4000    0.0000
  band No.  band energies     occupation 
      1     -19.1395      2.00000
      2     -19.1339      2.00000
      3     -19.1291      2.00000
      4     -19.1260      2.00000
      5     -19.1216      2.00000
      6      -5.5411      2.00000
      7      -1.8465      2.00000
      8       0.7939      2.00000
      9       2.2794      2.00000
     10       2.5017      2.00000
     11       8.1077      0.00000
     12      10.5454      0.00000
     13      11.1317      0.00000
     14      11.8671      0.00000
     15      15.4405      0.00000
     16      16.0736      0.00000
     17      17.0276      0.00000
     18      17.5184      0.00000
     19      18.3065      0.00000
     20      18.7607      0.00000
     21      19.2434      0.00000
     22      19.8823      0.00000
     23      20.4000      0.00000
     24      22.2761      0.00000
     25      22.5330      0.00000
     26      23.3075      0.00000
     27      26.3048      0.00000
     28      27.2016      0.00000
     29      27.5586      0.00000
     30      27.9660      0.00000
     31      29.3489      0.00000
     32      30.6573      0.00000
     33      31.6142      0.00000
     34      31.9807      0.00000
     35      32.6111      0.00000
     36      33.0861      0.00000

 k-point    61 :      -0.4667    0.4000    0.0000
  band No.  band energies     occupation 
      1     -19.1393      2.00000
      2     -19.1341      2.00000
      3     -19.1290      2.00000
      4     -19.1261      2.00000
      5     -19.1216      2.00000
      6      -5.4017      2.00000
      7      -2.0579      2.00000
      8       0.6063      2.00000
      9       2.2917      2.00000
     10       2.6406      2.00000
     11       8.4885      0.00000
     12      10.2166      0.00000
     13      10.6711      0.00000
     14      12.1344      0.00000
     15      15.4710      0.00000
     16      16.3201      0.00000
     17      16.4974      0.00000
     18      17.7898      0.00000
     19      18.4846      0.00000
     20      19.1271      0.00000
     21      19.5016      0.00000
     22      20.2988      0.00000
     23      20.9522      0.00000
     24      21.4640      0.00000
     25      22.7348      0.00000
     26      23.9298      0.00000
     27      25.7406      0.00000
     28      26.6137      0.00000
     29      27.6440      0.00000
     30      28.4941      0.00000
     31      29.4224      0.00000
     32      29.6100      0.00000
     33      30.8482      0.00000
     34      31.0561      0.00000
     35      32.4690      0.00000
     36      33.2374      0.00000

 k-point    62 :      -0.4000    0.4000    0.0000
  band No.  band energies     occupation 
      1     -19.1388      2.00000
      2     -19.1344      2.00000
      3     -19.1287      2.00000
      4     -19.1264      2.00000
      5     -19.1216      2.00000
      6      -5.3124      2.00000
      7      -2.3126      2.00000
      8       0.5946      2.00000
      9       2.4280      2.00000
     10       2.8683      2.00000
     11       8.9150      0.00000
     12       9.7239      0.00000
     13      10.2516      0.00000
     14      12.0298      0.00000
     15      14.5861      0.00000
     16      15.7892      0.00000
     17      17.2112      0.00000
     18      18.1052      0.00000
     19      18.7411      0.00000
     20      19.6307      0.00000
     21      19.9178      0.00000
     22      20.6007      0.00000
     23      20.9316      0.00000
     24      22.4298      0.00000
     25      22.6427      0.00000
     26      24.7729      0.00000
     27      25.3429      0.00000
     28      26.4105      0.00000
     29      27.5128      0.00000
     30      28.4778      0.00000
     31      28.7119      0.00000
     32      29.0797      0.00000
     33      29.7952      0.00000
     34      30.6528      0.00000
     35      32.1913      0.00000
     36      32.5814      0.00000

 k-point    63 :       0.4667    0.4667    0.0000
  band No.  band energies     occupation 
      1     -19.1397      2.00000
      2     -19.1337      2.00000
      3     -19.1292      2.00000
      4     -19.1259      2.00000
      5     -19.1215      2.00000
      6      -5.4673      2.00000
      7      -1.8184      2.00000
      8       0.6123      2.00000
      9       2.2255      2.00000
     10       2.3586      2.00000
     11       7.9175      0.00000
     12      10.7986      0.00000
     13      11.4498      0.00000
     14      12.3621      0.00000
     15      15.2717      0.00000
     16      16.4582      0.00000
     17      17.2304      0.00000
     18      17.8780      0.00000
     19      17.9095      0.00000
     20      18.6041      0.00000
     21      19.0691      0.00000
     22      20.1304      0.00000
     23      20.1960      0.00000
     24      21.6985      0.00000
     25      22.0788      0.00000
     26      23.0979      0.00000
     27      25.3149      0.00000
     28      27.4486      0.00000
     29      27.7900      0.00000
     30      28.9835      0.00000
     31      29.4821      0.00000
     32      31.0260      0.00000
     33      31.3930      0.00000
     34      32.0307      0.00000
     35      32.3896      0.00000
     36      32.4774      0.00000

 k-point    64 :      -0.4667    0.4667    0.0000
  band No.  band energies     occupation 
      1     -19.1396      2.00000
      2     -19.1338      2.00000
      3     -19.1291      2.00000
      4     -19.1259      2.00000
      5     -19.1215      2.00000
      6      -5.4178      2.00000
      7      -1.8914      2.00000
      8       0.5378      2.00000
      9       2.2098      2.00000
     10       2.4299      2.00000
     11       8.0597      0.00000
     12      10.6666      0.00000
     13      11.2365      0.00000
     14      12.4679      0.00000
     15      15.6229      0.00000
     16      16.2709      0.00000
     17      16.8976      0.00000
     18      17.6120      0.00000
     19      18.2846      0.00000
     20      18.8979      0.00000
     21      19.2053      0.00000
     22      20.3278      0.00000
     23      20.5386      0.00000
     24      21.4536      0.00000
     25      21.5482      0.00000
     26      23.9018      0.00000
     27      24.8905      0.00000
     28      27.3604      0.00000
     29      27.6746      0.00000
     30      28.9856      0.00000
     31      29.8307      0.00000
     32      30.4611      0.00000
     33      30.8863      0.00000
     34      31.8672      0.00000
     35      32.3055      0.00000
     36      32.9368      0.00000

 k-point    65 :       0.0667    0.0667    0.0667
  band No.  band energies     occupation 
      1     -19.1363      2.00000
      2     -19.1363      2.00000
      3     -19.1275      2.00000
      4     -19.1275      2.00000
      5     -19.1241      2.00000
      6      -7.2787      2.00000
      7       0.4486      2.00000
      8       3.9156      2.00000
      9       4.0838      2.00000
     10       4.0838      2.00000
     11       8.2883      0.00000
     12       8.7496      0.00000
     13       8.7496      0.00000
     14      11.5106      0.00000
     15      11.6617      0.00000
     16      11.6617      0.00000
     17      13.6486      0.00000
     18      13.6486      0.00000
     19      13.8790      0.00000
     20      14.1905      0.00000
     21      24.4253      0.00000
     22      24.4253      0.00000
     23      24.7231      0.00000
     24      27.2911      0.00000
     25      27.2911      0.00000
     26      27.6858      0.00000
     27      27.7820      0.00000
     28      28.3066      0.00000
     29      28.3066      0.00000
     30      29.7384      0.00000
     31      29.7384      0.00000
     32      31.8794      0.00000
     33      31.8794      0.00000
     34      32.7486      0.00000
     35      34.3397      0.00000
     36      34.3397      0.00000

 k-point    66 :       0.1333    0.0667    0.0667
  band No.  band energies     occupation 
      1     -19.1363      2.00000
      2     -19.1362      2.00000
      3     -19.1276      2.00000
      4     -19.1275      2.00000
      5     -19.1240      2.00000
      6      -7.2099      2.00000
      7       0.1712      2.00000
      8       3.6773      2.00000
      9       4.1646      2.00000
     10       4.3677      2.00000
     11       8.1066      0.00000
     12       8.3559      0.00000
     13       8.8710      0.00000
     14      11.3293      0.00000
     15      11.5936      0.00000
     16      11.8107      0.00000
     17      13.6415      0.00000
     18      14.3538      0.00000
     19      14.4202      0.00000
     20      14.7658      0.00000
     21      22.8190      0.00000
     22      24.5522      0.00000
     23      24.6956      0.00000
     24      26.4547      0.00000
     25      26.7958      0.00000
     26      27.8395      0.00000
     27      28.1489      0.00000
     28      28.2726      0.00000
     29      28.7393      0.00000
     30      29.8096      0.00000
     31      30.5050      0.00000
     32      31.6693      0.00000
     33      31.7982      0.00000
     34      32.9701      0.00000
     35      33.5914      0.00000
     36      34.5257      0.00000

 k-point    67 :       0.2000    0.0667    0.0667
  band No.  band energies     occupation 
      1     -19.1365      2.00000
      2     -19.1361      2.00000
      3     -19.1277      2.00000
      4     -19.1275      2.00000
      5     -19.1238      2.00000
      6      -7.0536      2.00000
      7      -0.3244      2.00000
      8       3.3918      2.00000
      9       4.1999      2.00000
     10       4.7539      2.00000
     11       7.6942      0.00000
     12       7.9011      0.00000
     13       8.8883      0.00000
     14      11.0751      0.00000
     15      11.7408      0.00000
     16      12.0129      0.00000
     17      14.1947      0.00000
     18      15.3466      0.00000
     19      15.5033      0.00000
     20      15.7249      0.00000
     21      21.1935      0.00000
     22      24.3952      0.00000
     23      24.4396      0.00000
     24      25.2617      0.00000
     25      25.9740      0.00000
     26      27.7718      0.00000
     27      28.0300      0.00000
     28      28.4501      0.00000
     29      29.2703      0.00000
     30      29.3986      0.00000
     31      30.3934      0.00000
     32      32.0524      0.00000
     33      32.6815      0.00000
     34      33.0601      0.00000
     35      33.4542      0.00000
     36      34.0906      0.00000

 k-point    68 :       0.2667    0.0667    0.0667
  band No.  band energies     occupation 
      1     -19.1368      2.00000
      2     -19.1358      2.00000
      3     -19.1277      2.00000
      4     -19.1275      2.00000
      5     -19.1234      2.00000
      6      -6.8156      2.00000
      7      -0.9536      2.00000
      8       3.1938      2.00000
      9       4.1853      2.00000
     10       5.0828      2.00000
     11       7.1887      0.00000
     12       7.4703      0.00000
     13       8.6616      0.00000
     14      11.1600      0.00000
     15      12.1332      0.00000
     16      12.3843      0.00000
     17      15.1587      0.00000
     18      16.5115      0.00000
     19      16.6016      0.00000
     20      17.0249      0.00000
     21      19.7512      0.00000
     22      23.0965      0.00000
     23      23.3387      0.00000
     24      25.3162      0.00000
     25      25.8955      0.00000
     26      27.0016      0.00000
     27      28.1505      0.00000
     28      28.5200      0.00000
     29      29.2000      0.00000
     30      29.2960      0.00000
     31      29.8009      0.00000
     32      31.2140      0.00000
     33      32.5565      0.00000
     34      32.5608      0.00000
     35      33.4042      0.00000
     36      33.9165      0.00000

 k-point    69 :       0.3333    0.0667    0.0667
  band No.  band energies     occupation 
      1     -19.1372      2.00000
      2     -19.1354      2.00000
      3     -19.1277      2.00000
      4     -19.1276      2.00000
      5     -19.1229      2.00000
      6      -6.5077      2.00000
      7      -1.6383      2.00000
      8       3.1014      2.00000
      9       4.1245      2.00000
     10       5.3242      2.00000
     11       6.7054      0.00000
     12       7.1245      0.00000
     13       8.2203      0.00000
     14      11.6746      0.00000
     15      12.7493      0.00000
     16      12.9515      0.00000
     17      16.2386      0.00000
     18      17.0998      0.00000
     19      17.7948      0.00000
     20      18.5749      0.00000
     21      19.0300      0.00000
     22      21.5473      0.00000
     23      22.1770      0.00000
     24      25.5988      0.00000
     25      25.9190      0.00000
     26      26.1035      0.00000
     27      27.8813      0.00000
     28      28.3757      0.00000
     29      28.7900      0.00000
     30      29.5266      0.00000
     31      29.6845      0.00000
     32      30.0683      0.00000
     33      31.1892      0.00000
     34      31.7268      0.00000
     35      32.2121      0.00000
     36      33.4665      0.00000

 k-point    70 :       0.4000    0.0667    0.0667
  band No.  band energies     occupation 
      1     -19.1376      2.00000
      2     -19.1351      2.00000
      3     -19.1278      2.00000
      4     -19.1277      2.00000
      5     -19.1225      2.00000
      6      -6.1553      2.00000
      7      -2.3021      2.00000
      8       3.1129      2.00000
      9       4.0266      2.00000
     10       5.4410      2.00000
     11       6.3523      0.00000
     12       6.9020      0.00000
     13       7.7267      0.00000
     14      12.4763      0.00000
     15      13.5579      0.00000
     16      13.7057      0.00000
     17      15.9515      0.00000
     18      17.6742      0.00000
     19      19.0610      0.00000
     20      19.1265      0.00000
     21      20.0897      0.00000
     22      20.4147      0.00000
     23      21.7605      0.00000
     24      24.4337      0.00000
     25      25.7884      0.00000
     26      26.1988      0.00000
     27      27.1900      0.00000
     28      28.1964      0.00000
     29      28.6082      0.00000
     30      28.8140      0.00000
     31      29.6931      0.00000
     32      29.8087      0.00000
     33      30.1821      0.00000
     34      30.2468      0.00000
     35      31.6465      0.00000
     36      33.2673      0.00000

 k-point    71 :       0.4667    0.0667    0.0667
  band No.  band energies     occupation 
      1     -19.1379      2.00000
      2     -19.1348      2.00000
      3     -19.1279      2.00000
      4     -19.1276      2.00000
      5     -19.1222      2.00000
      6      -5.8174      2.00000
      7      -2.8512      2.00000
      8       3.2179      2.00000
      9       3.9072      2.00000
     10       5.3415      2.00000
     11       6.2739      0.00000
     12       6.8200      0.00000
     13       7.2757      0.00000
     14      13.4426      0.00000
     15      14.5281      0.00000
     16      14.5747      0.00000
     17      14.8965      0.00000
     18      17.5632      0.00000
     19      18.5643      0.00000
     20      19.8103      0.00000
     21      20.6726      0.00000
     22      22.1192      0.00000
     23      22.6539      0.00000
     24      23.0168      0.00000
     25      24.5843      0.00000
     26      26.4673      0.00000
     27      26.6231      0.00000
     28      27.3592      0.00000
     29      27.8772      0.00000
     30      28.5852      0.00000
     31      28.8088      0.00000
     32      29.5266      0.00000
     33      29.8941      0.00000
     34      30.3799      0.00000
     35      31.8490      0.00000
     36      32.9362      0.00000

 k-point    72 :      -0.4667    0.0667    0.0667
  band No.  band energies     occupation 
      1     -19.1380      2.00000
      2     -19.1347      2.00000
      3     -19.1280      2.00000
      4     -19.1276      2.00000
      5     -19.1220      2.00000
      6      -5.6202      2.00000
      7      -3.1380      2.00000
      8       3.3984      2.00000
      9       3.7874      2.00000
     10       5.0969      2.00000
     11       6.4306      0.00000
     12       6.8778      0.00000
     13       6.9144      0.00000
     14      13.6140      0.00000
     15      14.6350      0.00000
     16      15.6147      0.00000
     17      15.7212      0.00000
     18      16.5036      0.00000
     19      17.2725      0.00000
     20      21.2253      0.00000
     21      21.4398      0.00000
     22      22.2779      0.00000
     23      22.5365      0.00000
     24      23.9552      0.00000
     25      24.4931      0.00000
     26      24.9627      0.00000
     27      25.7831      0.00000
     28      26.7156      0.00000
     29      27.6432      0.00000
     30      28.4919      0.00000
     31      28.6256      0.00000
     32      29.6482      0.00000
     33      30.1709      0.00000
     34      30.6938      0.00000
     35      32.1491      0.00000
     36      32.3063      0.00000

 k-point    73 :      -0.4000    0.0667    0.0667
  band No.  band energies     occupation 
      1     -19.1381      2.00000
      2     -19.1346      2.00000
      3     -19.1281      2.00000
      4     -19.1275      2.00000
      5     -19.1221      2.00000
      6      -5.6990      2.00000
      7      -3.0181      2.00000
      8       3.6202      2.00000
      9       3.6892      2.00000
     10       4.8582      2.00000
     11       6.5830      0.00000
     12       6.7826      0.00000
     13       7.0633      0.00000
     14      12.6709      0.00000
     15      15.2318      0.00000
     16      15.8060      0.00000
     17      15.8902      0.00000
     18      16.9381      0.00000
     19      16.9995      0.00000
     20      20.0489      0.00000
     21      21.1637      0.00000
     22      22.5508      0.00000
     23      23.1098      0.00000
     24      23.7441      0.00000
     25      23.9965      0.00000
     26      25.5121      0.00000
     27      26.3476      0.00000
     28      26.4279      0.00000
     29      27.4064      0.00000
     30      28.8667      0.00000
     31      29.2388      0.00000
     32      29.7969      0.00000
     33      30.2868      0.00000
     34      30.6741      0.00000
     35      32.0632      0.00000
     36      32.1509      0.00000

 k-point    74 :      -0.3333    0.0667    0.0667
  band No.  band energies     occupation 
      1     -19.1379      2.00000
      2     -19.1346      2.00000
      3     -19.1281      2.00000
      4     -19.1276      2.00000
      5     -19.1223      2.00000
      6      -5.9925      2.00000
      7      -2.5540      2.00000
      8       3.6295      2.00000
      9       3.8134      2.00000
     10       4.7008      2.00000
     11       6.4977      0.00000
     12       7.0949      0.00000
     13       7.3591      0.00000
     14      11.8693      0.00000
     15      14.1515      0.00000
     16      14.8307      0.00000
     17      16.6996      0.00000
     18      18.1036      0.00000
     19      18.2506      0.00000
     20      18.8225      0.00000
     21      19.8731      0.00000
     22      21.1184      0.00000
     23      22.2575      0.00000
     24      24.5190      0.00000
     25      25.1739      0.00000
     26      25.9548      0.00000
     27      26.0957      0.00000
     28      27.7013      0.00000
     29      28.5699      0.00000
     30      29.1151      0.00000
     31      29.8465      0.00000
     32      30.0365      0.00000
     33      30.2714      0.00000
     34      30.4311      0.00000
     35      31.9842      0.00000
     36      32.6097      0.00000

 k-point    75 :      -0.2667    0.0667    0.0667
  band No.  band energies     occupation 
      1     -19.1376      2.00000
      2     -19.1347      2.00000
      3     -19.1281      2.00000
      4     -19.1276      2.00000
      5     -19.1226      2.00000
      6      -6.3485      2.00000
      7      -1.9100      2.00000
      8       3.6176      2.00000
      9       3.8736      2.00000
     10       4.6741      2.00000
     11       6.5476      0.00000
     12       7.4898      0.00000
     13       7.7431      0.00000
     14      11.2765      0.00000
     15      13.1453      0.00000
     16      13.8484      0.00000
     17      16.8756      0.00000
     18      17.1789      0.00000
     19      18.6760      0.00000
     20      19.5195      0.00000
     21      19.7887      0.00000
     22      19.8387      0.00000
     23      21.4654      0.00000
     24      25.3145      0.00000
     25      25.4315      0.00000
     26      26.4062      0.00000
     27      26.8319      0.00000
     28      28.9429      0.00000
     29      29.1686      0.00000
     30      29.4954      0.00000
     31      29.8108      0.00000
     32      29.8725      0.00000
     33      31.0981      0.00000
     34      31.1680      0.00000
     35      32.1862      0.00000
     36      33.2873      0.00000

 k-point    76 :      -0.2000    0.0667    0.0667
  band No.  band energies     occupation 
      1     -19.1372      2.00000
      2     -19.1350      2.00000
      3     -19.1280      2.00000
      4     -19.1276      2.00000
      5     -19.1231      2.00000
      6      -6.6812      2.00000
      7      -1.1979      2.00000
      8       3.6552      2.00000
      9       3.7980      2.00000
     10       4.7137      2.00000
     11       6.7902      0.00000
     12       7.9025      0.00000
     13       8.1818      0.00000
     14      10.9285      0.00000
     15      12.3129      0.00000
     16      13.0123      0.00000
     17      15.9399      0.00000
     18      16.1150      0.00000
     19      17.3637      0.00000
     20      18.2288      0.00000
     21      21.1832      0.00000
     22      21.3517      0.00000
     23      22.0286      0.00000
     24      25.0075      0.00000
     25      25.3554      0.00000
     26      27.5648      0.00000
     27      27.9372      0.00000
     28      28.6974      0.00000
     29      29.1314      0.00000
     30      29.7039      0.00000
     31      29.7146      0.00000
     32      30.9356      0.00000
     33      32.1120      0.00000
     34      32.2549      0.00000
     35      32.8946      0.00000
     36      34.0274      0.00000

 k-point    77 :      -0.1333    0.0667    0.0667
  band No.  band energies     occupation 
      1     -19.1369      2.00000
      2     -19.1354      2.00000
      3     -19.1279      2.00000
      4     -19.1276      2.00000
      5     -19.1235      2.00000
      6      -6.9534      2.00000
      7      -0.5024      2.00000
      8       3.6856      2.00000
      9       3.7362      2.00000
     10       4.6964      2.00000
     11       7.2020      0.00000
     12       8.2714      0.00000
     13       8.6134      0.00000
     14      10.8370      0.00000
     15      11.7432      0.00000
     16      12.3672      0.00000
     17      14.8305      0.00000
     18      15.1202      0.00000
     19      16.0214      0.00000
     20      16.9016      0.00000
     21      22.6927      0.00000
     22      22.9031      0.00000
     23      23.2801      0.00000
     24      24.8251      0.00000
     25      25.2827      0.00000
     26      28.1793      0.00000
     27      28.4151      0.00000
     28      28.5544      0.00000
     29      28.7195      0.00000
     30      29.5338      0.00000
     31      30.3521      0.00000
     32      31.9639      0.00000
     33      32.4890      0.00000
     34      33.1100      0.00000
     35      33.6082      0.00000
     36      34.1479      0.00000

 k-point    78 :      -0.0667    0.0667    0.0667
  band No.  band energies     occupation 
      1     -19.1366      2.00000
      2     -19.1358      2.00000
      3     -19.1278      2.00000
      4     -19.1276      2.00000
      5     -19.1238      2.00000
      6      -7.1484      2.00000
      7       0.0790      2.00000
      8       3.6248      2.00000
      9       3.8479      2.00000
     10       4.5750      2.00000
     11       7.6959      0.00000
     12       8.5163      0.00000
     13       8.9229      0.00000
     14      10.9766      0.00000
     15      11.5244      0.00000
     16      11.9710      0.00000
     17      13.9448      0.00000
     18      14.2554      0.00000
     19      14.8921      0.00000
     20      15.6673      0.00000
     21      24.0456      0.00000
     22      24.1021      0.00000
     23      24.5443      0.00000
     24      25.1288      0.00000
     25      25.6694      0.00000
     26      27.6258      0.00000
     27      28.0212      0.00000
     28      28.4188      0.00000
     29      28.7266      0.00000
     30      29.6415      0.00000
     31      31.1986      0.00000
     32      31.7048      0.00000
     33      32.9988      0.00000
     34      33.0514      0.00000
     35      33.9214      0.00000
     36      34.1137      0.00000

 k-point    79 :       0.1333    0.1333    0.0667
  band No.  band energies     occupation 
      1     -19.1365      2.00000
      2     -19.1362      2.00000
      3     -19.1276      2.00000
      4     -19.1273      2.00000
      5     -19.1240      2.00000
      6      -7.1743      2.00000
      7       0.0239      2.00000
      8       3.7120      2.00000
      9       3.8991      2.00000
     10       4.6935      2.00000
     11       7.7049      0.00000
     12       8.5350      0.00000
     13       8.8774      0.00000
     14      11.2137      0.00000
     15      11.7165      0.00000
     16      12.1133      0.00000
     17      13.7248      0.00000
     18      14.0363      0.00000
     19      14.5579      0.00000
     20      15.4337      0.00000
     21      22.8263      0.00000
     22      23.0438      0.00000
     23      24.7795      0.00000
     24      26.5687      0.00000
     25      27.0033      0.00000
     26      27.4174      0.00000
     27      28.1454      0.00000
     28      28.9996      0.00000
     29      29.2446      0.00000
     30      29.4907      0.00000
     31      30.8494      0.00000
     32      31.2814      0.00000
     33      31.8050      0.00000
     34      32.5631      0.00000
     35      33.7161      0.00000
     36      34.0408      0.00000

 k-point    80 :       0.2000    0.1333    0.0667
  band No.  band energies     occupation 
      1     -19.1367      2.00000
      2     -19.1361      2.00000
      3     -19.1277      2.00000
      4     -19.1273      2.00000
      5     -19.1238      2.00000
      6      -7.0511      2.00000
      7      -0.3292      2.00000
      8       3.3566      2.00000
      9       3.9322      2.00000
     10       5.0642      2.00000
     11       7.2052      0.00000
     12       8.3750      0.00000
     13       9.0239      0.00000
     14      10.9883      0.00000
     15      11.9448      0.00000
     16      12.3932      0.00000
     17      13.8599      0.00000
     18      14.6224      0.00000
     19      15.3557      0.00000
     20      16.4300      0.00000
     21      21.2810      0.00000
     22      23.0847      0.00000
     23      24.8492      0.00000
     24      25.2633      0.00000
     25      26.7090      0.00000
     26      26.9602      0.00000
     27      27.9836      0.00000
     28      28.5212      0.00000
     29      29.6388      0.00000
     30      30.1586      0.00000
     31      30.9009      0.00000
     32      31.7411      0.00000
     33      32.1916      0.00000
     34      32.5610      0.00000
     35      33.2400      0.00000
     36      33.8804      0.00000

 k-point    81 :       0.2667    0.1333    0.0667
  band No.  band energies     occupation 
      1     -19.1369      2.00000
      2     -19.1359      2.00000
      3     -19.1278      2.00000
      4     -19.1273      2.00000
      5     -19.1235      2.00000
      6      -6.8448      2.00000
      7      -0.8362      2.00000
      8       3.0253      2.00000
      9       3.9639      2.00000
     10       5.2797      2.00000
     11       6.8570      0.00000
     12       8.0220      0.00000
     13       9.0798      0.00000
     14      10.8186      0.00000
     15      12.3045      0.00000
     16      12.7593      0.00000
     17      14.5007      0.00000
     18      15.5953      0.00000
     19      16.6113      0.00000
     20      17.4547      0.00000
     21      19.8257      0.00000
     22      22.8784      0.00000
     23      24.0554      0.00000
     24      24.6861      0.00000
     25      25.9816      0.00000
     26      26.5265      0.00000
     27      27.6211      0.00000
     28      28.5033      0.00000
     29      29.3741      0.00000
     30      30.1143      0.00000
     31      30.8411      0.00000
     32      31.0649      0.00000
     33      32.4372      0.00000
     34      32.6865      0.00000
     35      32.9619      0.00000
     36      33.9736      0.00000

 k-point    82 :       0.3333    0.1333    0.0667
  band No.  band energies     occupation 
      1     -19.1371      2.00000
      2     -19.1356      2.00000
      3     -19.1278      2.00000
      4     -19.1273      2.00000
      5     -19.1230      2.00000
      6      -6.5648      2.00000
      7      -1.4393      2.00000
      8       2.8181      2.00000
      9       3.9080      2.00000
     10       5.2844      2.00000
     11       6.7290      0.00000
     12       7.6466      0.00000
     13       8.8767      0.00000
     14      10.9928      0.00000
     15      12.8871      0.00000
     16      13.2824      0.00000
     17      15.4915      0.00000
     18      16.5434      0.00000
     19      17.8501      0.00000
     20      18.1425      0.00000
     21      19.3280      0.00000
     22      21.7430      0.00000
     23      23.3696      0.00000
     24      24.3124      0.00000
     25      25.4805      0.00000
     26      26.0326      0.00000
     27      27.7310      0.00000
     28      28.2703      0.00000
     29      28.7362      0.00000
     30      29.4184      0.00000
     31      30.2569      0.00000
     32      30.9938      0.00000
     33      31.5219      0.00000
     34      32.0655      0.00000
     35      32.5358      0.00000
     36      33.2398      0.00000

 k-point    83 :       0.4000    0.1333    0.0667
  band No.  band energies     occupation 
      1     -19.1375      2.00000
      2     -19.1353      2.00000
      3     -19.1279      2.00000
      4     -19.1274      2.00000
      5     -19.1226      2.00000
      6      -6.2305      2.00000
      7      -2.0686      2.00000
      8       2.7450      2.00000
      9       3.7604      2.00000
     10       5.1905      2.00000
     11       6.6715      0.00000
     12       7.4122      0.00000
     13       8.4632      0.00000
     14      11.5853      0.00000
     15      13.6519      0.00000
     16      13.9867      0.00000
     17      15.8662      0.00000
     18      16.9269      0.00000
     19      18.3575      0.00000
     20      19.5110      0.00000
     21      19.9776      0.00000
     22      20.9475      0.00000
     23      22.3092      0.00000
     24      24.1657      0.00000
     25      24.7724      0.00000
     26      26.1850      0.00000
     27      27.2259      0.00000
     28      27.9227      0.00000
     29      28.1168      0.00000
     30      28.9406      0.00000
     31      29.5121      0.00000
     32      30.3573      0.00000
     33      30.9173      0.00000
     34      31.2141      0.00000
     35      32.0442      0.00000
     36      32.5630      0.00000

 k-point    84 :       0.4667    0.1333    0.0667
  band No.  band energies     occupation 
      1     -19.1378      2.00000
      2     -19.1350      2.00000
      3     -19.1279      2.00000
      4     -19.1275      2.00000
      5     -19.1223      2.00000
      6      -5.8855      2.00000
      7      -2.6376      2.00000
      8       2.7956      2.00000
      9       3.5577      2.00000
     10       5.1020      2.00000
     11       6.5348      0.00000
     12       7.4238      0.00000
     13       8.0126      0.00000
     14      12.4514      0.00000
     15      14.5192      0.00000
     16      14.7356      0.00000
     17      14.9786      0.00000
     18      17.4999      0.00000
     19      18.9432      0.00000
     20      19.5481      0.00000
     21      20.7009      0.00000
     22      21.7352      0.00000
     23      22.3584      0.00000
     24      23.0990      0.00000
     25      25.1005      0.00000
     26      25.5143      0.00000
     27      26.7460      0.00000
     28      27.2101      0.00000
     29      27.8277      0.00000
     30      28.4308      0.00000
     31      28.7185      0.00000
     32      29.2593      0.00000
     33      30.2296      0.00000
     34      31.1875      0.00000
     35      31.6908      0.00000
     36      32.6373      0.00000

 k-point    85 :      -0.4667    0.1333    0.0667
  band No.  band energies     occupation 
      1     -19.1380      2.00000
      2     -19.1348      2.00000
      3     -19.1279      2.00000
      4     -19.1275      2.00000
      5     -19.1221      2.00000
      6      -5.6261      2.00000
      7      -3.0197      2.00000
      8       2.9488      2.00000
      9       3.3608      2.00000
     10       5.0120      2.00000
     11       6.4315      0.00000
     12       7.4865      0.00000
     13       7.7113      0.00000
     14      13.3738      0.00000
     15      13.7808      0.00000
     16      15.5616      0.00000
     17      15.9441      0.00000
     18      16.6408      0.00000
     19      18.5520      0.00000
     20      20.2729      0.00000
     21      21.1706      0.00000
     22      21.8035      0.00000
     23      23.3371      0.00000
     24      23.6087      0.00000
     25      24.5657      0.00000
     26      25.3569      0.00000
     27      25.8846      0.00000
     28      26.4867      0.00000
     29      27.1730      0.00000
     30      27.6211      0.00000
     31      28.6175      0.00000
     32      28.8150      0.00000
     33      30.4036      0.00000
     34      31.2278      0.00000
     35      31.5373      0.00000
     36      32.7002      0.00000

 k-point    86 :      -0.4000    0.1333    0.0667
  band No.  band energies     occupation 
      1     -19.1381      2.00000
      2     -19.1346      2.00000
      3     -19.1280      2.00000
      4     -19.1275      2.00000
      5     -19.1220      2.00000
      6      -5.5986      2.00000
      7      -3.0528      2.00000
      8       3.0951      2.00000
      9       3.3033      2.00000
     10       4.8861      2.00000
     11       6.4735      0.00000
     12       7.2056      0.00000
     13       7.9034      0.00000
     14      12.6173      0.00000
     15      14.6886      0.00000
     16      15.4697      0.00000
     17      16.5541      0.00000
     18      17.1263      0.00000
     19      17.4663      0.00000
     20      19.8698      0.00000
     21      21.6532      0.00000
     22      22.1438      0.00000
     23      23.2525      0.00000
     24      23.7600      0.00000
     25      24.7426      0.00000
     26      25.0890      0.00000
     27      25.6355      0.00000
     28      26.0556      0.00000
     29      27.2415      0.00000
     30      27.6182      0.00000
     31      28.7201      0.00000
     32      29.0365      0.00000
     33      30.5452      0.00000
     34      31.3556      0.00000
     35      31.6643      0.00000
     36      32.2230      0.00000

 k-point    87 :      -0.3333    0.1333    0.0667
  band No.  band energies     occupation 
      1     -19.1380      2.00000
      2     -19.1346      2.00000
      3     -19.1281      2.00000
      4     -19.1275      2.00000
      5     -19.1222      2.00000
      6      -5.8237      2.00000
      7      -2.7128      2.00000
      8       3.0421      2.00000
      9       3.5708      2.00000
     10       4.7330      2.00000
     11       6.6652      0.00000
     12       6.9626      0.00000
     13       8.1977      0.00000
     14      11.8067      0.00000
     15      14.3119      0.00000
     16      15.8924      0.00000
     17      16.0760      0.00000
     18      17.5280      0.00000
     19      18.4335      0.00000
     20      18.8995      0.00000
     21      20.7316      0.00000
     22      21.8649      0.00000
     23      22.8667      0.00000
     24      23.7082      0.00000
     25      24.3975      0.00000
     26      25.1287      0.00000
     27      26.3230      0.00000
     28      27.0732      0.00000
     29      27.9255      0.00000
     30      28.3881      0.00000
     31      28.9652      0.00000
     32      29.6097      0.00000
     33      30.4368      0.00000
     34      31.5319      0.00000
     35      31.8508      0.00000
     36      32.2464      0.00000

 k-point    88 :      -0.2667    0.1333    0.0667
  band No.  band energies     occupation 
      1     -19.1378      2.00000
      2     -19.1346      2.00000
      3     -19.1282      2.00000
      4     -19.1275      2.00000
      5     -19.1224      2.00000
      6      -6.1616      2.00000
      7      -2.1488      2.00000
      8       3.0213      2.00000
      9       3.8658      2.00000
     10       4.6199      2.00000
     11       6.7488      0.00000
     12       7.0492      0.00000
     13       8.5087      0.00000
     14      11.2087      0.00000
     15      13.3450      0.00000
     16      14.9771      0.00000
     17      16.3212      0.00000
     18      17.3967      0.00000
     19      18.9718      0.00000
     20      19.7096      0.00000
     21      19.9340      0.00000
     22      20.3380      0.00000
     23      21.8636      0.00000
     24      24.0310      0.00000
     25      24.9081      0.00000
     26      26.0183      0.00000
     27      26.4849      0.00000
     28      28.1224      0.00000
     29      28.5542      0.00000
     30      29.2139      0.00000
     31      29.7582      0.00000
     32      30.2171      0.00000
     33      30.8971      0.00000
     34      31.2531      0.00000
     35      32.3970      0.00000
     36      32.5857      0.00000

 k-point    89 :      -0.2000    0.1333    0.0667
  band No.  band energies     occupation 
      1     -19.1375      2.00000
      2     -19.1348      2.00000
      3     -19.1282      2.00000
      4     -19.1275      2.00000
      5     -19.1228      2.00000
      6      -6.5024      2.00000
      7      -1.4952      2.00000
      8       3.0766      2.00000
      9       3.9684      2.00000
     10       4.6881      2.00000
     11       6.7169      0.00000
     12       7.4622      0.00000
     13       8.7864      0.00000
     14      10.8481      0.00000
     15      12.5764      0.00000
     16      13.9622      0.00000
     17      15.4124      0.00000
     18      17.0349      0.00000
     19      18.2469      0.00000
     20      18.9915      0.00000
     21      20.2890      0.00000
     22      21.3295      0.00000
     23      21.9229      0.00000
     24      23.7570      0.00000
     25      25.3965      0.00000
     26      26.5674      0.00000
     27      27.2740      0.00000
     28      28.4787      0.00000
     29      29.3955      0.00000
     30      29.7282      0.00000
     31      30.4348      0.00000
     32      30.6097      0.00000
     33      31.1349      0.00000
     34      32.1013      0.00000
     35      32.7953      0.00000
     36      33.3387      0.00000

 k-point    90 :      -0.1333    0.1333    0.0667
  band No.  band energies     occupation 
      1     -19.1371      2.00000
      2     -19.1352      2.00000
      3     -19.1281      2.00000
      4     -19.1275      2.00000
      5     -19.1232      2.00000
      6      -6.7951      2.00000
      7      -0.8465      2.00000
      8       3.2107      2.00000
      9       3.8784      2.00000
     10       4.8522      2.00000
     11       6.8491      0.00000
     12       7.9292      0.00000
     13       8.9736      0.00000
     14      10.6928      0.00000
     15      12.0885      0.00000
     16      13.0856      0.00000
     17      14.4682      0.00000
     18      16.0306      0.00000
     19      16.8756      0.00000
     20      17.9021      0.00000
     21      21.4968      0.00000
     22      22.5852      0.00000
     23      22.9194      0.00000
     24      24.0030      0.00000
     25      25.2390      0.00000
     26      27.1295      0.00000
     27      27.7323      0.00000
     28      28.8222      0.00000
     29      29.5278      0.00000
     30      30.1505      0.00000
     31      30.4774      0.00000
     32      31.2145      0.00000
     33      31.9072      0.00000
     34      32.7652      0.00000
     35      33.4938      0.00000
     36      33.6096      0.00000

 k-point    91 :      -0.0667    0.1333    0.0667
  band No.  band energies     occupation 
      1     -19.1368      2.00000
      2     -19.1356      2.00000
      3     -19.1279      2.00000
      4     -19.1275      2.00000
      5     -19.1236      2.00000
      6      -7.0169      2.00000
      7      -0.2940      2.00000
      8       3.4090      2.00000
      9       3.7948      2.00000
     10       4.8572      2.00000
     11       7.1970      0.00000
     12       8.3544      0.00000
     13       9.0102      0.00000
     14      10.7218      0.00000
     15      11.8253      0.00000
     16      12.4274      0.00000
     17      13.8775      0.00000
     18      14.9828      0.00000
     19      15.7253      0.00000
     20      16.6714      0.00000
     21      22.7705      0.00000
     22      23.0249      0.00000
     23      24.3598      0.00000
     24      25.0102      0.00000
     25      25.3967      0.00000
     26      26.8738      0.00000
     27      28.2277      0.00000
     28      28.7782      0.00000
     29      28.8981      0.00000
     30      30.0440      0.00000
     31      31.0000      0.00000
     32      32.0141      0.00000
     33      32.5941      0.00000
     34      32.8226      0.00000
     35      33.5930      0.00000
     36      34.2110      0.00000

 k-point    92 :       0.2000    0.2000    0.0667
  band No.  band energies     occupation 
      1     -19.1369      2.00000
      2     -19.1359      2.00000
      3     -19.1278      2.00000
      4     -19.1271      2.00000
      5     -19.1237      2.00000
      6      -6.9625      2.00000
      7      -0.5096      2.00000
      8       3.2697      2.00000
      9       3.5795      2.00000
     10       5.2364      2.00000
     11       6.9392      0.00000
     12       8.6221      0.00000
     13       9.1405      0.00000
     14      10.8186      0.00000
     15      12.3840      0.00000
     16      12.8727      0.00000
     17      13.9753      0.00000
     18      14.2711      0.00000
     19      15.6675      0.00000
     20      17.4283      0.00000
     21      21.3332      0.00000
     22      21.6012      0.00000
     23      25.0083      0.00000
     24      25.0482      0.00000
     25      25.5973      0.00000
     26      27.2313      0.00000
     27      27.4984      0.00000
     28      28.3181      0.00000
     29      30.3021      0.00000
     30      30.8535      0.00000
     31      31.1008      0.00000
     32      31.5909      0.00000
     33      31.8842      0.00000
     34      32.2774      0.00000
     35      33.1436      0.00000
     36      33.3637      0.00000

 k-point    93 :       0.2667    0.2000    0.0667
  band No.  band energies     occupation 
      1     -19.1372      2.00000
      2     -19.1357      2.00000
      3     -19.1279      2.00000
      4     -19.1270      2.00000
      5     -19.1234      2.00000
      6      -6.7912      2.00000
      7      -0.8468      2.00000
      8       2.9230      2.00000
      9       3.5193      2.00000
     10       4.9993      2.00000
     11       7.1257      0.00000
     12       8.5459      0.00000
     13       9.2462      0.00000
     14      10.6729      0.00000
     15      12.8078      0.00000
     16      13.3012      0.00000
     17      14.2684      0.00000
     18      14.8518      0.00000
     19      16.5666      0.00000
     20      18.3672      0.00000
     21      20.0349      0.00000
     22      21.6910      0.00000
     23      23.6767      0.00000
     24      25.1745      0.00000
     25      25.3934      0.00000
     26      26.2733      0.00000
     27      27.0299      0.00000
     28      28.4482      0.00000
     29      29.7454      0.00000
     30      30.4647      0.00000
     31      31.1587      0.00000
     32      31.3350      0.00000
     33      32.1203      0.00000
     34      32.3843      0.00000
     35      32.9139      0.00000
     36      33.4241      0.00000

 k-point    94 :       0.3333    0.2000    0.0667
  band No.  band energies     occupation 
      1     -19.1374      2.00000
      2     -19.1355      2.00000
      3     -19.1280      2.00000
      4     -19.1269      2.00000
      5     -19.1230      2.00000
      6      -6.5449      2.00000
      7      -1.3097      2.00000
      8       2.6178      2.00000
      9       3.4278      2.00000
     10       4.6979      2.00000
     11       7.4389      0.00000
     12       8.3410      0.00000
     13       9.2851      0.00000
     14      10.5162      0.00000
     15      13.3469      0.00000
     16      13.8388      0.00000
     17      14.9706      0.00000
     18      15.7753      0.00000
     19      17.8514      0.00000
     20      18.1041      0.00000
     21      20.0306      0.00000
     22      21.4916      0.00000
     23      22.7949      0.00000
     24      24.6042      0.00000
     25      25.0769      0.00000
     26      25.8016      0.00000
     27      26.5678      0.00000
     28      28.3087      0.00000
     29      28.7163      0.00000
     30      29.4577      0.00000
     31      30.5378      0.00000
     32      31.2045      0.00000
     33      32.0763      0.00000
     34      32.4774      0.00000
     35      32.7861      0.00000
     36      33.8035      0.00000

 k-point    95 :       0.4000    0.2000    0.0667
  band No.  band energies     occupation 
      1     -19.1376      2.00000
      2     -19.1353      2.00000
      3     -19.1281      2.00000
      4     -19.1270      2.00000
      5     -19.1226      2.00000
      6      -6.2394      2.00000
      7      -1.8472      2.00000
      8       2.4501      2.00000
      9       3.1931      2.00000
     10       4.5573      2.00000
     11       7.5409      0.00000
     12       8.2190      0.00000
     13       9.1621      0.00000
     14      10.6572      0.00000
     15      14.1170      0.00000
     16      14.4794      0.00000
     17      15.7145      0.00000
     18      16.3239      0.00000
     19      17.6559      0.00000
     20      19.4032      0.00000
     21      20.0229      0.00000
     22      21.4856      0.00000
     23      22.8708      0.00000
     24      23.5724      0.00000
     25      24.1042      0.00000
     26      26.0640      0.00000
     27      26.5893      0.00000
     28      27.1152      0.00000
     29      28.0191      0.00000
     30      29.0256      0.00000
     31      29.7590      0.00000
     32      30.5723      0.00000
     33      31.3354      0.00000
     34      32.1848      0.00000
     35      32.4268      0.00000
     36      32.8809      0.00000

 k-point    96 :       0.4667    0.2000    0.0667
  band No.  band energies     occupation 
      1     -19.1378      2.00000
      2     -19.1352      2.00000
      3     -19.1281      2.00000
      4     -19.1271      2.00000
      5     -19.1223      2.00000
      6      -5.9077      2.00000
      7      -2.3834      2.00000
      8       2.4219      2.00000
      9       2.8957      2.00000
     10       4.5609      2.00000
     11       7.2871      0.00000
     12       8.3756      0.00000
     13       8.8191      0.00000
     14      11.2678      0.00000
     15      14.8333      0.00000
     16      15.0550      0.00000
     17      15.3233      0.00000
     18      17.0780      0.00000
     19      18.3035      0.00000
     20      19.3012      0.00000
     21      21.1730      0.00000
     22      21.8605      0.00000
     23      22.2317      0.00000
     24      23.1965      0.00000
     25      24.0961      0.00000
     26      25.7819      0.00000
     27      26.1477      0.00000
     28      26.7730      0.00000
     29      27.2881      0.00000
     30      28.5453      0.00000
     31      29.1720      0.00000
     32      29.5085      0.00000
     33      30.3847      0.00000
     34      31.0637      0.00000
     35      32.0082      0.00000
     36      32.8419      0.00000

 k-point    97 :      -0.4667    0.2000    0.0667
  band No.  band energies     occupation 
      1     -19.1379      2.00000
      2     -19.1350      2.00000
      3     -19.1280      2.00000
      4     -19.1273      2.00000
      5     -19.1221      2.00000
      6      -5.6198      2.00000
      7      -2.8104      2.00000
      8       2.4683      2.00000
      9       2.6860      2.00000
     10       4.6381      2.00000
     11       6.9621      0.00000
     12       8.3057      0.00000
     13       8.7276      0.00000
     14      12.1641      0.00000
     15      13.7856      0.00000
     16      15.9848      0.00000
     17      16.2846      0.00000
     18      16.6195      0.00000
     19      19.1107      0.00000
     20      19.8620      0.00000
     21      20.6601      0.00000
     22      21.5416      0.00000
     23      23.0846      0.00000
     24      23.8731      0.00000
     25      24.4787      0.00000
     26      25.0034      0.00000
     27      25.6098      0.00000
     28      26.6388      0.00000
     29      27.0884      0.00000
     30      27.7234      0.00000
     31      27.9985      0.00000
     32      28.9335      0.00000
     33      29.7837      0.00000
     34      30.5790      0.00000
     35      31.8955      0.00000
     36      32.8297      0.00000

 k-point    98 :      -0.4000    0.2000    0.0667
  band No.  band energies     occupation 
      1     -19.1380      2.00000
      2     -19.1349      2.00000
      3     -19.1280      2.00000
      4     -19.1274      2.00000
      5     -19.1220      2.00000
      6      -5.5004      2.00000
      7      -2.9798      2.00000
      8       2.3606      2.00000
      9       2.8269      2.00000
     10       4.7358      2.00000
     11       6.7008      0.00000
     12       7.9330      0.00000
     13       8.9677      0.00000
     14      12.6983      0.00000
     15      13.3599      0.00000
     16      15.4607      0.00000
     17      16.8822      0.00000
     18      17.4826      0.00000
     19      18.9271      0.00000
     20      19.4901      0.00000
     21      20.7301      0.00000
     22      22.3181      0.00000
     23      23.2516      0.00000
     24      23.8170      0.00000
     25      24.5271      0.00000
     26      24.9590      0.00000
     27      25.6471      0.00000
     28      26.1754      0.00000
     29      26.7556      0.00000
     30      27.4536      0.00000
     31      27.7767      0.00000
     32      28.7029      0.00000
     33      29.5724      0.00000
     34      30.7318      0.00000
     35      32.0819      0.00000
     36      32.4026      0.00000

 k-point    99 :      -0.3333    0.2000    0.0667
  band No.  band energies     occupation 
      1     -19.1379      2.00000
      2     -19.1347      2.00000
      3     -19.1281      2.00000
      4     -19.1275      2.00000
      5     -19.1220      2.00000
      6      -5.6309      2.00000
      7      -2.8023      2.00000
      8       2.2751      2.00000
      9       3.1483      2.00000
     10       4.7901      2.00000
     11       6.5794      0.00000
     12       7.5906      0.00000
     13       9.1998      0.00000
     14      11.9595      0.00000
     15      14.3183      0.00000
     16      14.5705      0.00000
     17      17.0716      0.00000
     18      17.7909      0.00000
     19      18.7154      0.00000
     20      19.1337      0.00000
     21      21.7738      0.00000
     22      22.1496      0.00000
     23      22.6092      0.00000
     24      23.2404      0.00000
     25      24.1093      0.00000
     26      24.7128      0.00000
     27      25.9127      0.00000
     28      26.7461      0.00000
     29      26.9933      0.00000
     30      27.8879      0.00000
     31      28.3979      0.00000
     32      29.2313      0.00000
     33      29.7601      0.00000
     34      30.8958      0.00000
     35      32.1667      0.00000
     36      32.5474      0.00000

 k-point   100 :      -0.2667    0.2000    0.0667
  band No.  band energies     occupation 
      1     -19.1378      2.00000
      2     -19.1347      2.00000
      3     -19.1282      2.00000
      4     -19.1275      2.00000
      5     -19.1222      2.00000
      6      -5.9241      2.00000
      7      -2.3728      2.00000
      8       2.3012      2.00000
      9       3.5459      2.00000
     10       4.7422      2.00000
     11       6.6608      0.00000
     12       7.3023      0.00000
     13       9.3609      0.00000
     14      11.3929      0.00000
     15      13.4753      0.00000
     16      15.4780      0.00000
     17      16.3299      0.00000
     18      16.7443      0.00000
     19      19.5283      0.00000
     20      20.2224      0.00000
     21      20.7520      0.00000
     22      21.1463      0.00000
     23      22.0094      0.00000
     24      23.2695      0.00000
     25      23.8970      0.00000
     26      25.5417      0.00000
     27      26.4074      0.00000
     28      26.8536      0.00000
     29      27.3514      0.00000
     30      29.0167      0.00000
     31      29.2465      0.00000
     32      30.0137      0.00000
     33      30.6450      0.00000
     34      31.0521      0.00000
     35      32.4639      0.00000
     36      32.7025      0.00000

 k-point   101 :      -0.2000    0.2000    0.0667
  band No.  band energies     occupation 
      1     -19.1376      2.00000
      2     -19.1348      2.00000
      3     -19.1282      2.00000
      4     -19.1275      2.00000
      5     -19.1225      2.00000
      6      -6.2566      2.00000
      7      -1.8377      2.00000
      8       2.4590      2.00000
      9       3.9180      2.00000
     10       4.6508      2.00000
     11       6.8873      0.00000
     12       7.1245      0.00000
     13       9.4074      0.00000
     14      10.9991      0.00000
     15      12.8506      0.00000
     16      14.9397      0.00000
     17      15.3422      0.00000
     18      17.1926      0.00000
     19      19.1405      0.00000
     20      19.4420      0.00000
     21      20.6311      0.00000
     22      21.4092      0.00000
     23      21.6515      0.00000
     24      23.0410      0.00000
     25      24.9793      0.00000
     26      25.8080      0.00000
     27      26.3615      0.00000
     28      27.6228      0.00000
     29      28.6105      0.00000
     30      29.4733      0.00000
     31      29.9271      0.00000
     32      30.6539      0.00000
     33      31.1688      0.00000
     34      32.2738      0.00000
     35      32.5053      0.00000
     36      32.9332      0.00000

 k-point   102 :      -0.1333    0.2000    0.0667
  band No.  band energies     occupation 
      1     -19.1373      2.00000
      2     -19.1350      2.00000
      3     -19.1282      2.00000
      4     -19.1275      2.00000
      5     -19.1229      2.00000
      6      -6.5601      2.00000
      7      -1.3012      2.00000
      8       2.7574      2.00000
      9       3.9821      2.00000
     10       4.7870      2.00000
     11       6.8323      0.00000
     12       7.4481      0.00000
     13       9.3216      0.00000
     14      10.7027      0.00000
     15      12.4800      0.00000
     16      14.1354      0.00000
     17      14.4016      0.00000
     18      17.0179      0.00000
     19      18.0726      0.00000
     20      18.7442      0.00000
     21      20.3209      0.00000
     22      21.4707      0.00000
     23      22.9937      0.00000
     24      23.9001      0.00000
     25      25.2933      0.00000
     26      25.9394      0.00000
     27      26.6621      0.00000
     28      28.5981      0.00000
     29      29.4401      0.00000
     30      30.0761      0.00000
     31      30.4213      0.00000
     32      30.7082      0.00000
     33      31.6111      0.00000
     34      32.3190      0.00000
     35      33.0579      0.00000
     36      33.8644      0.00000

 k-point   103 :      -0.0667    0.2000    0.0667
  band No.  band energies     occupation 
      1     -19.1370      2.00000
      2     -19.1353      2.00000
      3     -19.1280      2.00000
      4     -19.1275      2.00000
      5     -19.1232      2.00000
      6      -6.8029      2.00000
      7      -0.8371      2.00000
      8       3.1770      2.00000
      9       3.8044      2.00000
     10       4.9999      2.00000
     11       6.8573      0.00000
     12       7.9560      0.00000
     13       9.0325      0.00000
     14      10.6116      0.00000
     15      12.1547      0.00000
     16      13.1353      0.00000
     17      14.2980      0.00000
     18      15.9910      0.00000
     19      16.9794      0.00000
     20      17.7356      0.00000
     21      21.2406      0.00000
     22      21.5755      0.00000
     23      24.2997      0.00000
     24      25.0789      0.00000
     25      25.3366      0.00000
     26      26.0167      0.00000
     27      27.5213      0.00000
     28      28.6277      0.00000
     29      29.1790      0.00000
     30      29.9774      0.00000
     31      31.2699      0.00000
     32      31.3683      0.00000
     33      31.8496      0.00000
     34      32.7106      0.00000
     35      33.4090      0.00000
     36      34.1153      0.00000

 k-point   104 :       0.2667    0.2667    0.0667
  band No.  band energies     occupation 
      1     -19.1376      2.00000
      2     -19.1354      2.00000
      3     -19.1281      2.00000
      4     -19.1267      2.00000
      5     -19.1232      2.00000
      6      -6.6572      2.00000
      7      -0.9979      2.00000
      8       2.7354      2.00000
      9       3.2166      2.00000
     10       4.4383      2.00000
     11       7.7353      0.00000
     12       8.6031      0.00000
     13       9.4982      0.00000
     14      10.6747      0.00000
     15      13.4347      0.00000
     16      13.7076      0.00000
     17      14.5499      0.00000
     18      14.6309      0.00000
     19      16.9944      0.00000
     20      19.1259      0.00000
     21      19.9986      0.00000
     22      20.7436      0.00000
     23      23.5460      0.00000
     24      23.9584      0.00000
     25      25.0341      0.00000
     26      25.6952      0.00000
     27      27.6198      0.00000
     28      28.4928      0.00000
     29      29.3640      0.00000
     30      29.6274      0.00000
     31      30.8317      0.00000
     32      31.2691      0.00000
     33      32.0787      0.00000
     34      32.5600      0.00000
     35      32.9679      0.00000
     36      33.5102      0.00000

 k-point   105 :       0.3333    0.2667    0.0667
  band No.  band energies     occupation 
      1     -19.1379      2.00000
      2     -19.1352      2.00000
      3     -19.1283      2.00000
      4     -19.1266      2.00000
      5     -19.1229      2.00000
      6      -6.4497      2.00000
      7      -1.2843      2.00000
      8       2.4200      2.00000
      9       3.0414      2.00000
     10       4.0114      2.00000
     11       8.3041      0.00000
     12       8.5966      0.00000
     13       9.5387      0.00000
     14      10.6449      0.00000
     15      13.8565      0.00000
     16      14.3279      0.00000
     17      15.0331      0.00000
     18      15.2012      0.00000
     19      17.9237      0.00000
     20      18.3958      0.00000
     21      20.1649      0.00000
     22      21.0429      0.00000
     23      22.4948      0.00000
     24      23.6995      0.00000
     25      24.3389      0.00000
     26      25.7309      0.00000
     27      27.2069      0.00000
     28      27.8207      0.00000
     29      28.7880      0.00000
     30      29.0446      0.00000
     31      30.1210      0.00000
     32      31.0317      0.00000
     33      32.2641      0.00000
     34      32.8514      0.00000
     35      33.0445      0.00000
     36      33.4638      0.00000

 k-point   106 :       0.4000    0.2667    0.0667
  band No.  band energies     occupation 
      1     -19.1380      2.00000
      2     -19.1351      2.00000
      3     -19.1283      2.00000
      4     -19.1266      2.00000
      5     -19.1225      2.00000
      6      -6.1821      2.00000
      7      -1.6795      2.00000
      8       2.1678      2.00000
      9       2.7201      2.00000
     10       3.8983      2.00000
     11       8.4351      0.00000
     12       8.8932      0.00000
     13       9.5122      0.00000
     14      10.4729      0.00000
     15      14.4979      0.00000
     16      15.0998      0.00000
     17      15.6370      0.00000
     18      15.9370      0.00000
     19      17.3439      0.00000
     20      19.2720      0.00000
     21      20.1827      0.00000
     22      20.8668      0.00000
     23      22.5021      0.00000
     24      23.1730      0.00000
     25      24.4631      0.00000
     26      25.3804      0.00000
     27      26.1838      0.00000
     28      26.8968      0.00000
     29      28.4855      0.00000
     30      28.7343      0.00000
     31      29.2652      0.00000
     32      30.5307      0.00000
     33      31.9566      0.00000
     34      32.4347      0.00000
     35      32.8481      0.00000
     36      33.4558      0.00000

 k-point   107 :       0.4667    0.2667    0.0667
  band No.  band energies     occupation 
      1     -19.1381      2.00000
      2     -19.1350      2.00000
      3     -19.1283      2.00000
      4     -19.1267      2.00000
      5     -19.1222      2.00000
      6      -5.8805      2.00000
      7      -2.1285      2.00000
      8       2.0054      2.00000
      9       2.3917      2.00000
     10       3.9714      2.00000
     11       8.1677      0.00000
     12       9.2396      0.00000
     13       9.5834      0.00000
     14      10.4632      0.00000
     15      15.0632      0.00000
     16      15.4821      0.00000
     17      15.9106      0.00000
     18      16.6954      0.00000
     19      17.6735      0.00000
     20      19.0862      0.00000
     21      20.8459      0.00000
     22      21.1513      0.00000
     23      22.0534      0.00000
     24      23.7483      0.00000
     25      24.4174      0.00000
     26      24.7865      0.00000
     27      25.1956      0.00000
     28      26.7999      0.00000
     29      27.8244      0.00000
     30      27.9464      0.00000
     31      29.1921      0.00000
     32      29.8566      0.00000
     33      31.0633      0.00000
     34      31.7185      0.00000
     35      31.7909      0.00000
     36      32.2696      0.00000

 k-point   108 :      -0.4667    0.2667    0.0667
  band No.  band energies     occupation 
      1     -19.1380      2.00000
      2     -19.1350      2.00000
      3     -19.1282      2.00000
      4     -19.1269      2.00000
      5     -19.1220      2.00000
      6      -5.5957      2.00000
      7      -2.5445      2.00000
      8       1.8214      2.00000
      9       2.3007      2.00000
     10       4.1157      2.00000
     11       7.7672      0.00000
     12       9.1204      0.00000
     13       9.7691      0.00000
     14      11.0241      0.00000
     15      14.0648      0.00000
     16      16.3771      0.00000
     17      16.7035      0.00000
     18      16.8075      0.00000
     19      18.3764      0.00000
     20      19.4560      0.00000
     21      20.2413      0.00000
     22      21.9462      0.00000
     23      22.8424      0.00000
     24      23.1185      0.00000
     25      23.7655      0.00000
     26      25.1517      0.00000
     27      25.5918      0.00000
     28      26.4229      0.00000
     29      27.1424      0.00000
     30      27.5921      0.00000
     31      28.4794      0.00000
     32      29.0721      0.00000
     33      30.1177      0.00000
     34      30.7242      0.00000
     35      31.2295      0.00000
     36      32.1024      0.00000

 k-point   109 :      -0.4000    0.2667    0.0667
  band No.  band energies     occupation 
      1     -19.1379      2.00000
      2     -19.1350      2.00000
      3     -19.1281      2.00000
      4     -19.1271      2.00000
      5     -19.1219      2.00000
      6      -5.4193      2.00000
      7      -2.8074      2.00000
      8       1.6485      2.00000
      9       2.4510      2.00000
     10       4.2991      2.00000
     11       7.3473      0.00000
     12       8.7308      0.00000
     13      10.0182      0.00000
     14      11.9208      0.00000
     15      13.1501      0.00000
     16      15.5849      0.00000
     17      17.2358      0.00000
     18      17.8703      0.00000
     19      19.2105      0.00000
     20      19.5305      0.00000
     21      20.2920      0.00000
     22      21.8574      0.00000
     23      22.5665      0.00000
     24      23.3622      0.00000
     25      24.6526      0.00000
     26      25.0055      0.00000
     27      25.3767      0.00000
     28      26.2241      0.00000
     29      26.9625      0.00000
     30      27.3944      0.00000
     31      27.8935      0.00000
     32      28.2858      0.00000
     33      29.3631      0.00000
     34      30.5300      0.00000
     35      31.3999      0.00000
     36      32.2362      0.00000

 k-point   110 :      -0.3333    0.2667    0.0667
  band No.  band energies     occupation 
      1     -19.1378      2.00000
      2     -19.1350      2.00000
      3     -19.1280      2.00000
      4     -19.1274      2.00000
      5     -19.1219      2.00000
      6      -5.4476      2.00000
      7      -2.8084      2.00000
      8       1.5909      2.00000
      9       2.7475      2.00000
     10       4.4955      2.00000
     11       6.9647      0.00000
     12       8.3227      0.00000
     13      10.1520      0.00000
     14      12.2824      0.00000
     15      13.1569      0.00000
     16      14.5879      0.00000
     17      16.9465      0.00000
     18      18.9930      0.00000
     19      19.1829      0.00000
     20      19.6321      0.00000
     21      21.0517      0.00000
     22      21.3926      0.00000
     23      22.9741      0.00000
     24      23.6580      0.00000
     25      24.0465      0.00000
     26      24.5064      0.00000
     27      25.0377      0.00000
     28      26.4049      0.00000
     29      26.8946      0.00000
     30      27.5858      0.00000
     31      28.0814      0.00000
     32      28.6475      0.00000
     33      29.3588      0.00000
     34      30.6400      0.00000
     35      31.9083      0.00000
     36      32.3199      0.00000

 k-point   111 :      -0.2667    0.2667    0.0667
  band No.  band energies     occupation 
      1     -19.1377      2.00000
      2     -19.1349      2.00000
      3     -19.1281      2.00000
      4     -19.1275      2.00000
      5     -19.1220      2.00000
      6      -5.6645      2.00000
      7      -2.5673      2.00000
      8       1.6892      2.00000
      9       3.1491      2.00000
     10       4.6423      2.00000
     11       6.6979      0.00000
     12       7.9236      0.00000
     13      10.1227      0.00000
     14      11.7522      0.00000
     15      13.8064      0.00000
     16      14.2954      0.00000
     17      16.1390      0.00000
     18      17.9934      0.00000
     19      20.1478      0.00000
     20      20.5269      0.00000
     21      20.7909      0.00000
     22      21.9278      0.00000
     23      22.4300      0.00000
     24      22.5663      0.00000
     25      23.8384      0.00000
     26      24.7895      0.00000
     27      25.5049      0.00000
     28      26.1376      0.00000
     29      27.0316      0.00000
     30      28.2415      0.00000
     31      28.7246      0.00000
     32      29.4063      0.00000
     33      30.2770      0.00000
     34      30.9496      0.00000
     35      32.0502      0.00000
     36      32.6939      0.00000

 k-point   112 :      -0.2000    0.2667    0.0667
  band No.  band energies     occupation 
      1     -19.1376      2.00000
      2     -19.1349      2.00000
      3     -19.1281      2.00000
      4     -19.1275      2.00000
      5     -19.1222      2.00000
      6      -5.9639      2.00000
      7      -2.2054      2.00000
      8       1.9632      2.00000
      9       3.6080      2.00000
     10       4.6486      2.00000
     11       6.6711      0.00000
     12       7.5290      0.00000
     13       9.9348      0.00000
     14      11.2578      0.00000
     15      13.2979      0.00000
     16      14.8579      0.00000
     17      16.1827      0.00000
     18      16.6912      0.00000
     19      19.9501      0.00000
     20      20.2887      0.00000
     21      20.8636      0.00000
     22      21.6806      0.00000
     23      21.9324      0.00000
     24      23.0406      0.00000
     25      23.7662      0.00000
     26      24.9763      0.00000
     27      26.2818      0.00000
     28      26.7238      0.00000
     29      27.5545      0.00000
     30      28.9070      0.00000
     31      29.3717      0.00000
     32      29.8517      0.00000
     33      30.8764      0.00000
     34      32.0469      0.00000
     35      32.2574      0.00000
     36      33.0907      0.00000

 k-point   113 :      -0.1333    0.2667    0.0667
  band No.  band energies     occupation 
      1     -19.1374      2.00000
      2     -19.1350      2.00000
      3     -19.1282      2.00000
      4     -19.1275      2.00000
      5     -19.1225      2.00000
      6      -6.2625      2.00000
      7      -1.8223      2.00000
      8       2.4131      2.00000
      9       3.9391      2.00000
     10       4.6306      2.00000
     11       6.8946      0.00000
     12       7.1815      0.00000
     13       9.5504      0.00000
     14      10.9042      0.00000
     15      12.8584      0.00000
     16      14.8556      0.00000
     17      15.3316      0.00000
     18      17.1722      0.00000
     19      19.0432      0.00000
     20      19.5549      0.00000
     21      19.8025      0.00000
     22      21.0902      0.00000
     23      23.0426      0.00000
     24      23.7639      0.00000
     25      24.6143      0.00000
     26      25.2186      0.00000
     27      26.3482      0.00000
     28      27.6322      0.00000
     29      29.1725      0.00000
     30      29.2896      0.00000
     31      29.5833      0.00000
     32      30.3118      0.00000
     33      31.0952      0.00000
     34      32.1375      0.00000
     35      32.6156      0.00000
     36      33.0864      0.00000

 k-point   114 :      -0.0667    0.2667    0.0667
  band No.  band energies     occupation 
      1     -19.1372      2.00000
      2     -19.1352      2.00000
      3     -19.1281      2.00000
      4     -19.1275      2.00000
      5     -19.1228      2.00000
      6      -6.5166      2.00000
      7      -1.4699      2.00000
      8       3.0013      2.00000
      9       3.8165      2.00000
     10       4.9307      2.00000
     11       6.7751      0.00000
     12       7.4621      0.00000
     13       8.9148      0.00000
     14      10.8553      0.00000
     15      12.4792      0.00000
     16      14.0270      0.00000
     17      15.1941      0.00000
     18      17.0183      0.00000
     19      18.3987      0.00000
     20      18.6434      0.00000
     21      19.7423      0.00000
     22      20.6374      0.00000
     23      23.4548      0.00000
     24      24.9160      0.00000
     25      25.5636      0.00000
     26      25.8208      0.00000
     27      26.6609      0.00000
     28      28.4196      0.00000
     29      29.0882      0.00000
     30      29.4722      0.00000
     31      30.1222      0.00000
     32      30.8791      0.00000
     33      31.4468      0.00000
     34      31.8998      0.00000
     35      33.2430      0.00000
     36      33.4706      0.00000

 k-point   115 :       0.3333    0.3333    0.0667
  band No.  band energies     occupation 
      1     -19.1383      2.00000
      2     -19.1349      2.00000
      3     -19.1285      2.00000
      4     -19.1264      2.00000
      5     -19.1226      2.00000
      6      -6.2853      2.00000
      7      -1.3839      2.00000
      8       2.0980      2.00000
      9       2.8801      2.00000
     10       3.4353      2.00000
     11       8.4303      0.00000
     12       9.1356      0.00000
     13       9.9023      0.00000
     14      10.8186      0.00000
     15      14.3252      0.00000
     16      14.6370      0.00000
     17      15.2202      0.00000
     18      15.6490      0.00000
     19      18.3069      0.00000
     20      18.8564      0.00000
     21      18.8871      0.00000
     22      21.4907      0.00000
     23      22.1494      0.00000
     24      23.0037      0.00000
     25      23.4437      0.00000
     26      25.9558      0.00000
     27      27.1154      0.00000
     28      27.4065      0.00000
     29      28.0600      0.00000
     30      28.8563      0.00000
     31      30.4692      0.00000
     32      30.6098      0.00000
     33      31.8479      0.00000
     34      32.1327      0.00000
     35      32.7690      0.00000
     36      33.5279      0.00000

 k-point   116 :       0.4000    0.3333    0.0667
  band No.  band energies     occupation 
      1     -19.1386      2.00000
      2     -19.1347      2.00000
      3     -19.1286      2.00000
      4     -19.1263      2.00000
      5     -19.1223      2.00000
      6      -6.0639      2.00000
      7      -1.6059      2.00000
      8       1.7604      2.00000
      9       2.5807      2.00000
     10       3.2789      2.00000
     11       8.4354      0.00000
     12       9.6809      0.00000
     13      10.0037      0.00000
     14      10.8616      0.00000
     15      14.6550      0.00000
     16      15.4019      0.00000
     17      15.7923      0.00000
     18      16.2560      0.00000
     19      17.5044      0.00000
     20      19.0929      0.00000
     21      19.7337      0.00000
     22      20.5047      0.00000
     23      21.6836      0.00000
     24      22.6457      0.00000
     25      24.1834      0.00000
     26      25.5765      0.00000
     27      26.1039      0.00000
     28      26.8001      0.00000
     29      27.7406      0.00000
     30      28.9741      0.00000
     31      29.7894      0.00000
     32      30.0941      0.00000
     33      31.3841      0.00000
     34      32.3395      0.00000
     35      33.0510      0.00000
     36      33.6210      0.00000

 k-point   117 :       0.4667    0.3333    0.0667
  band No.  band energies     occupation 
      1     -19.1386      2.00000
      2     -19.1346      2.00000
      3     -19.1286      2.00000
      4     -19.1263      2.00000
      5     -19.1221      2.00000
      6      -5.8076      2.00000
      7      -1.9210      2.00000
      8       1.4740      2.00000
      9       2.2386      2.00000
     10       3.4062      2.00000
     11       8.5986      0.00000
     12       9.5475      0.00000
     13      10.4005      0.00000
     14      10.7117      0.00000
     15      15.2679      0.00000
     16      15.6050      0.00000
     17      16.5234      0.00000
     18      16.9198      0.00000
     19      17.2327      0.00000
     20      19.1228      0.00000
     21      19.8531      0.00000
     22      20.7057      0.00000
     23      21.2331      0.00000
     24      23.0407      0.00000
     25      24.0487      0.00000
     26      25.1707      0.00000
     27      25.7306      0.00000
     28      26.2975      0.00000
     29      27.3486      0.00000
     30      28.7385      0.00000
     31      29.1016      0.00000
     32      29.7001      0.00000
     33      31.0249      0.00000
     34      31.8414      0.00000
     35      32.3713      0.00000
     36      33.0831      0.00000

 k-point   118 :      -0.4667    0.3333    0.0667
  band No.  band energies     occupation 
      1     -19.1385      2.00000
      2     -19.1347      2.00000
      3     -19.1285      2.00000
      4     -19.1265      2.00000
      5     -19.1219      2.00000
      6      -5.5541      2.00000
      7      -2.2699      2.00000
      8       1.2317      2.00000
      9       2.1030      2.00000
     10       3.5974      2.00000
     11       8.5187      0.00000
     12       9.5791      0.00000
     13      10.3952      0.00000
     14      10.8669      0.00000
     15      14.5019      0.00000
     16      16.3284      0.00000
     17      17.0717      0.00000
     18      17.4712      0.00000
     19      17.9029      0.00000
     20      18.9231      0.00000
     21      19.6882      0.00000
     22      20.8482      0.00000
     23      22.4426      0.00000
     24      22.9206      0.00000
     25      23.5850      0.00000
     26      24.5568      0.00000
     27      25.7442      0.00000
     28      26.3492      0.00000
     29      27.3324      0.00000
     30      27.9175      0.00000
     31      28.7955      0.00000
     32      29.5784      0.00000
     33      30.1594      0.00000
     34      31.0263      0.00000
     35      31.4118      0.00000
     36      31.7515      0.00000

 k-point   119 :      -0.4000    0.3333    0.0667
  band No.  band energies     occupation 
      1     -19.1382      2.00000
      2     -19.1349      2.00000
      3     -19.1284      2.00000
      4     -19.1268      2.00000
      5     -19.1218      2.00000
      6      -5.3650      2.00000
      7      -2.5675      2.00000
      8       1.0756      2.00000
      9       2.1826      2.00000
     10       3.8215      2.00000
     11       8.0762      0.00000
     12       9.4810      0.00000
     13      10.7555      0.00000
     14      11.0900      0.00000
     15      13.6154      0.00000
     16      15.8606      0.00000
     17      17.4222      0.00000
     18      18.1650      0.00000
     19      18.9487      0.00000
     20      19.1722      0.00000
     21      20.0196      0.00000
     22      21.2132      0.00000
     23      22.0587      0.00000
     24      23.1087      0.00000
     25      23.8355      0.00000
     26      24.7755      0.00000
     27      25.6195      0.00000
     28      26.1036      0.00000
     29      26.9423      0.00000
     30      27.8844      0.00000
     31      28.4908      0.00000
     32      28.8685      0.00000
     33      29.5074      0.00000
     34      30.0733      0.00000
     35      31.1192      0.00000
     36      31.7014      0.00000

 k-point   120 :      -0.3333    0.3333    0.0667
  band No.  band energies     occupation 
      1     -19.1379      2.00000
      2     -19.1351      2.00000
      3     -19.1282      2.00000
      4     -19.1271      2.00000
      5     -19.1218      2.00000
      6      -5.3150      2.00000
      7      -2.7239      2.00000
      8       1.0692      2.00000
      9       2.4283      2.00000
     10       4.0727      2.00000
     11       7.5367      0.00000
     12       9.0661      0.00000
     13      10.9889      0.00000
     14      11.7791      0.00000
     15      12.8886      0.00000
     16      14.9943      0.00000
     17      16.9392      0.00000
     18      19.1765      0.00000
     19      19.7445      0.00000
     20      20.1161      0.00000
     21      20.3378      0.00000
     22      20.6911      0.00000
     23      22.6369      0.00000
     24      23.1701      0.00000
     25      23.6533      0.00000
     26      24.8705      0.00000
     27      25.4083      0.00000
     28      26.0241      0.00000
     29      26.8504      0.00000
     30      27.4186      0.00000
     31      27.8825      0.00000
     32      29.0858      0.00000
     33      29.3106      0.00000
     34      29.9124      0.00000
     35      31.2723      0.00000
     36      32.2872      0.00000

 k-point   121 :      -0.2667    0.3333    0.0667
  band No.  band energies     occupation 
      1     -19.1376      2.00000
      2     -19.1352      2.00000
      3     -19.1280      2.00000
      4     -19.1274      2.00000
      5     -19.1219      2.00000
      6      -5.4329      2.00000
      7      -2.7040      2.00000
      8       1.2512      2.00000
      9       2.8027      2.00000
     10       4.3267      2.00000
     11       7.0159      0.00000
     12       8.5753      0.00000
     13      10.7584      0.00000
     14      12.1687      0.00000
     15      13.0129      0.00000
     16      14.3318      0.00000
     17      16.2913      0.00000
     18      19.2614      0.00000
     19      19.5113      0.00000
     20      20.6348      0.00000
     21      20.9819      0.00000
     22      21.4771      0.00000
     23      22.5770      0.00000
     24      23.6688      0.00000
     25      23.8279      0.00000
     26      24.0525      0.00000
     27      24.7739      0.00000
     28      26.1771      0.00000
     29      26.9016      0.00000
     30      27.2682      0.00000
     31      28.5741      0.00000
     32      28.8756      0.00000
     33      29.5834      0.00000
     34      30.8761      0.00000
     35      31.3353      0.00000
     36      32.3491      0.00000

 k-point   122 :      -0.2000    0.3333    0.0667
  band No.  band energies     occupation 
      1     -19.1375      2.00000
      2     -19.1351      2.00000
      3     -19.1280      2.00000
      4     -19.1276      2.00000
      5     -19.1220      2.00000
      6      -5.6645      2.00000
      7      -2.5566      2.00000
      8       1.6327      2.00000
      9       3.2702      2.00000
     10       4.5062      2.00000
     11       6.6482      0.00000
     12       8.0399      0.00000
     13      10.2818      0.00000
     14      11.6782      0.00000
     15      13.7558      0.00000
     16      14.2770      0.00000
     17      16.0773      0.00000
     18      17.9977      0.00000
     19      18.9097      0.00000
     20      21.3358      0.00000
     21      21.6962      0.00000
     22      22.0256      0.00000
     23      22.6111      0.00000
     24      22.8052      0.00000
     25      23.0657      0.00000
     26      24.8081      0.00000
     27      25.3491      0.00000
     28      26.5119      0.00000
     29      27.1351      0.00000
     30      27.7668      0.00000
     31      28.4717      0.00000
     32      29.6291      0.00000
     33      30.1741      0.00000
     34      30.9406      0.00000
     35      32.0507      0.00000
     36      32.6316      0.00000

 k-point   123 :      -0.1333    0.3333    0.0667
  band No.  band energies     occupation 
      1     -19.1375      2.00000
      2     -19.1350      2.00000
      3     -19.1281      2.00000
      4     -19.1276      2.00000
      5     -19.1222      2.00000
      6      -5.9314      2.00000
      7      -2.3476      2.00000
      8       2.1961      2.00000
      9       3.7369      2.00000
     10       4.5330      2.00000
     11       6.6150      0.00000
     12       7.4749      0.00000
     13       9.5430      0.00000
     14      11.4434      0.00000
     15      13.2835      0.00000
     16      15.3789      0.00000
     17      16.4899      0.00000
     18      16.5461      0.00000
     19      18.4565      0.00000
     20      20.2495      0.00000
     21      21.1556      0.00000
     22      21.8040      0.00000
     23      22.6096      0.00000
     24      23.2426      0.00000
     25      24.1250      0.00000
     26      25.1076      0.00000
     27      26.2865      0.00000
     28      26.8100      0.00000
     29      28.1739      0.00000
     30      28.5164      0.00000
     31      29.0414      0.00000
     32      29.4378      0.00000
     33      30.6584      0.00000
     34      31.0622      0.00000
     35      32.1985      0.00000
     36      32.5360      0.00000

 k-point   124 :      -0.0667    0.3333    0.0667
  band No.  band energies     occupation 
      1     -19.1374      2.00000
      2     -19.1350      2.00000
      3     -19.1281      2.00000
      4     -19.1276      2.00000
      5     -19.1225      2.00000
      6      -6.1789      2.00000
      7      -2.1135      2.00000
      8       2.8893      2.00000
      9       3.8159      2.00000
     10       4.7519      2.00000
     11       6.8321      0.00000
     12       7.0434      0.00000
     13       8.6570      0.00000
     14      11.4613      0.00000
     15      12.9600      0.00000
     16      15.0469      0.00000
     17      16.1088      0.00000
     18      17.3445      0.00000
     19      18.2432      0.00000
     20      19.1982      0.00000
     21      20.1952      0.00000
     22      20.9085      0.00000
     23      22.4054      0.00000
     24      24.2969      0.00000
     25      25.4320      0.00000
     26      25.9999      0.00000
     27      26.6727      0.00000
     28      27.4308      0.00000
     29      28.6187      0.00000
     30      28.9554      0.00000
     31      29.6567      0.00000
     32      29.9685      0.00000
     33      30.4959      0.00000
     34      31.2653      0.00000
     35      32.0513      0.00000
     36      33.0607      0.00000

 k-point   125 :       0.4000    0.4000    0.0667
  band No.  band energies     occupation 
      1     -19.1390      2.00000
      2     -19.1344      2.00000
      3     -19.1288      2.00000
      4     -19.1261      2.00000
      5     -19.1221      2.00000
      6      -5.8966      2.00000
      7      -1.6499      2.00000
      8       1.3517      2.00000
      9       2.6135      2.00000
     10       2.7854      2.00000
     11       8.2273      0.00000
     12      10.2877      0.00000
     13      10.5968      0.00000
     14      11.1135      0.00000
     15      14.8587      0.00000
     16      15.4822      0.00000
     17      16.4255      0.00000
     18      16.9003      0.00000
     19      17.7578      0.00000
     20      18.2270      0.00000
     21      20.1287      0.00000
     22      20.5159      0.00000
     23      20.9088      0.00000
     24      21.3451      0.00000
     25      24.8396      0.00000
     26      25.2842      0.00000
     27      25.3749      0.00000
     28      26.3810      0.00000
     29      28.2206      0.00000
     30      28.9972      0.00000
     31      29.0228      0.00000
     32      30.6109      0.00000
     33      30.8508      0.00000
     34      32.0151      0.00000
     35      32.7923      0.00000
     36      33.4421      0.00000

 k-point   126 :       0.4667    0.4000    0.0667
  band No.  band energies     occupation 
      1     -19.1392      2.00000
      2     -19.1342      2.00000
      3     -19.1288      2.00000
      4     -19.1261      2.00000
      5     -19.1219      2.00000
      6      -5.6997      2.00000
      7      -1.8065      2.00000
      8       1.0311      2.00000
      9       2.2781      2.00000
     10       2.8869      2.00000
     11       8.2725      0.00000
     12      10.1836      0.00000
     13      11.0757      0.00000
     14      11.3211      0.00000
     15      15.2486      0.00000
     16      15.8128      0.00000
     17      16.7577      0.00000
     18      17.2764      0.00000
     19      17.7442      0.00000
     20      18.7030      0.00000
     21      19.4050      0.00000
     22      20.0923      0.00000
     23      21.1402      0.00000
     24      21.6001      0.00000
     25      23.5102      0.00000
     26      24.7071      0.00000
     27      26.1519      0.00000
     28      26.5493      0.00000
     29      27.8766      0.00000
     30      28.2204      0.00000
     31      29.2093      0.00000
     32      30.0631      0.00000
     33      30.7005      0.00000
     34      32.2140      0.00000
     35      32.9131      0.00000
     36      33.3523      0.00000

 k-point   127 :      -0.4667    0.4000    0.0667
  band No.  band energies     occupation 
      1     -19.1391      2.00000
      2     -19.1343      2.00000
      3     -19.1288      2.00000
      4     -19.1262      2.00000
      5     -19.1217      2.00000
      6      -5.5028      2.00000
      7      -2.0437      2.00000
      8       0.8068      2.00000
      9       2.0501      2.00000
     10       3.1166      2.00000
     11       8.5543      0.00000
     12       9.7952      0.00000
     13      10.9172      0.00000
     14      11.6869      0.00000
     15      15.0758      0.00000
     16      16.0080      0.00000
     17      17.1250      0.00000
     18      17.8608      0.00000
     19      18.2954      0.00000
     20      18.8505      0.00000
     21      18.9549      0.00000
     22      19.9891      0.00000
     23      21.7258      0.00000
     24      21.9991      0.00000
     25      22.9630      0.00000
     26      24.3402      0.00000
     27      25.7999      0.00000
     28      26.8870      0.00000
     29      27.5305      0.00000
     30      28.0643      0.00000
     31      28.7854      0.00000
     32      29.7879      0.00000
     33      30.5690      0.00000
     34      31.5600      0.00000
     35      31.9999      0.00000
     36      32.9723      0.00000

 k-point   128 :      -0.4000    0.4000    0.0667
  band No.  band energies     occupation 
      1     -19.1387      2.00000
      2     -19.1345      2.00000
      3     -19.1287      2.00000
      4     -19.1264      2.00000
      5     -19.1217      2.00000
      6      -5.3451      2.00000
      7      -2.3124      2.00000
      8       0.6998      2.00000
      9       2.0358      2.00000
     10       3.3742      2.00000
     11       8.6477      0.00000
     12       9.6452      0.00000
     13      10.6121      0.00000
     14      11.8066      0.00000
     15      14.2125      0.00000
     16      16.2822      0.00000
     17      17.0747      0.00000
     18      18.0561      0.00000
     19      18.9603      0.00000
     20      19.3436      0.00000
     21      19.5721      0.00000
     22      20.4793      0.00000
     23      21.1333      0.00000
     24      22.2076      0.00000
     25      24.0217      0.00000
     26      24.5244      0.00000
     27      24.9814      0.00000
     28      26.6100      0.00000
     29      27.2058      0.00000
     30      27.8680      0.00000
     31      29.0118      0.00000
     32      29.3065      0.00000
     33      29.7898      0.00000
     34      30.8650      0.00000
     35      31.7054      0.00000
     36      31.8111      0.00000

 k-point   129 :      -0.3333    0.4000    0.0667
  band No.  band energies     occupation 
      1     -19.1382      2.00000
      2     -19.1349      2.00000
      3     -19.1284      2.00000
      4     -19.1268      2.00000
      5     -19.1217      2.00000
      6      -5.2691      2.00000
      7      -2.5574      2.00000
      8       0.7592      2.00000
      9       2.2132      2.00000
     10       3.6566      2.00000
     11       8.1195      0.00000
     12       9.6740      0.00000
     13      10.8062      0.00000
     14      11.6193      0.00000
     15      13.4467      0.00000
     16      15.5658      0.00000
     17      17.2049      0.00000
     18      18.3469      0.00000
     19      19.2572      0.00000
     20      20.0942      0.00000
     21      20.3655      0.00000
     22      20.6808      0.00000
     23      22.0986      0.00000
     24      22.4742      0.00000
     25      23.5420      0.00000
     26      24.3525      0.00000
     27      26.0192      0.00000
     28      26.2881      0.00000
     29      26.8128      0.00000
     30      27.5741      0.00000
     31      27.8788      0.00000
     32      28.9172      0.00000
     33      29.9650      0.00000
     34      30.1918      0.00000
     35      31.0449      0.00000
     36      32.2545      0.00000

 k-point   130 :      -0.2667    0.4000    0.0667
  band No.  band energies     occupation 
      1     -19.1378      2.00000
      2     -19.1352      2.00000
      3     -19.1282      2.00000
      4     -19.1272      2.00000
      5     -19.1218      2.00000
      6      -5.3021      2.00000
      7      -2.7296      2.00000
      8       1.0189      2.00000
      9       2.5452      2.00000
     10       3.9594      2.00000
     11       7.4442      0.00000
     12       9.1838      0.00000
     13      11.0914      0.00000
     14      11.7910      0.00000
     15      12.8464      0.00000
     16      14.9132      0.00000
     17      16.9577      0.00000
     18      18.4317      0.00000
     19      19.2122      0.00000
     20      20.5776      0.00000
     21      21.3321      0.00000
     22      21.7262      0.00000
     23      21.9294      0.00000
     24      22.9905      0.00000
     25      23.8923      0.00000
     26      24.8883      0.00000
     27      25.1552      0.00000
     28      25.7488      0.00000
     29      26.7852      0.00000
     30      27.5500      0.00000
     31      27.6968      0.00000
     32      28.9546      0.00000
     33      29.2277      0.00000
     34      30.2425      0.00000
     35      31.1406      0.00000
     36      32.5007      0.00000

 k-point   131 :      -0.2000    0.4000    0.0667
  band No.  band energies     occupation 
      1     -19.1375      2.00000
      2     -19.1353      2.00000
      3     -19.1280      2.00000
      4     -19.1275      2.00000
      5     -19.1219      2.00000
      6      -5.4358      2.00000
      7      -2.8039      2.00000
      8       1.4766      2.00000
      9       2.9968      2.00000
     10       4.2470      2.00000
     11       6.8361      0.00000
     12       8.5368      0.00000
     13      10.3048      0.00000
     14      12.4007      0.00000
     15      13.0992      0.00000
     16      14.3569      0.00000
     17      16.8826      0.00000
     18      17.8730      0.00000
     19      19.1328      0.00000
     20      20.6826      0.00000
     21      21.1185      0.00000
     22      22.3758      0.00000
     23      23.0172      0.00000
     24      23.6192      0.00000
     25      23.8982      0.00000
     26      24.4152      0.00000
     27      25.4592      0.00000
     28      26.0862      0.00000
     29      26.7085      0.00000
     30      26.9937      0.00000
     31      28.0566      0.00000
     32      28.6169      0.00000
     33      29.5098      0.00000
     34      30.4123      0.00000
     35      31.8462      0.00000
     36      32.4807      0.00000

 k-point   132 :      -0.1333    0.4000    0.0667
  band No.  band energies     occupation 
      1     -19.1375      2.00000
      2     -19.1351      2.00000
      3     -19.1279      2.00000
      4     -19.1277      2.00000
      5     -19.1220      2.00000
      6      -5.6299      2.00000
      7      -2.7826      2.00000
      8       2.0999      2.00000
      9       3.5064      2.00000
     10       4.4280      2.00000
     11       6.4885      0.00000
     12       7.8223      0.00000
     13       9.3527      0.00000
     14      12.2839      0.00000
     15      13.8783      0.00000
     16      14.4896      0.00000
     17      16.7794      0.00000
     18      17.7182      0.00000
     19      17.8176      0.00000
     20      20.5219      0.00000
     21      21.6019      0.00000
     22      21.9966      0.00000
     23      22.9920      0.00000
     24      23.7164      0.00000
     25      24.3882      0.00000
     26      24.7123      0.00000
     27      25.8534      0.00000
     28      26.6785      0.00000
     29      27.2537      0.00000
     30      27.7860      0.00000
     31      28.2075      0.00000
     32      28.8255      0.00000
     33      29.1973      0.00000
     34      30.7477      0.00000
     35      32.1796      0.00000
     36      32.4736      0.00000

 k-point   133 :      -0.0667    0.4000    0.0667
  band No.  band energies     occupation 
      1     -19.1376      2.00000
      2     -19.1350      2.00000
      3     -19.1280      2.00000
      4     -19.1276      2.00000
      5     -19.1222      2.00000
      6      -5.8368      2.00000
      7      -2.6805      2.00000
      8       2.8325      2.00000
      9       3.7898      2.00000
     10       4.6118      2.00000
     11       6.5789      0.00000
     12       7.1054      0.00000
     13       8.3663      0.00000
     14      12.3217      0.00000
     15      13.6474      0.00000
     16      15.7045      0.00000
     17      16.1553      0.00000
     18      16.8105      0.00000
     19      18.1156      0.00000
     20      19.8952      0.00000
     21      20.9470      0.00000
     22      22.0061      0.00000
     23      22.4985      0.00000
     24      23.2815      0.00000
     25      25.2740      0.00000
     26      25.8564      0.00000
     27      26.7307      0.00000
     28      26.9893      0.00000
     29      27.6448      0.00000
     30      28.1630      0.00000
     31      28.6431      0.00000
     32      29.6982      0.00000
     33      30.0626      0.00000
     34      30.5312      0.00000
     35      31.2450      0.00000
     36      32.6524      0.00000

 k-point   134 :       0.4667    0.4667    0.0667
  band No.  band energies     occupation 
      1     -19.1395      2.00000
      2     -19.1340      2.00000
      3     -19.1290      2.00000
      4     -19.1259      2.00000
      5     -19.1217      2.00000
      6      -5.5748      2.00000
      7      -1.8077      2.00000
      8       0.7336      2.00000
      9       2.4417      2.00000
     10       2.4484      2.00000
     11       8.0686      0.00000
     12      10.5642      0.00000
     13      11.3027      0.00000
     14      11.9334      0.00000
     15      15.3325      0.00000
     16      16.1182      0.00000
     17      17.0339      0.00000
     18      17.1880      0.00000
     19      17.9821      0.00000
     20      19.0457      0.00000
     21      19.3188      0.00000
     22      19.9407      0.00000
     23      20.0100      0.00000
     24      22.0047      0.00000
     25      23.0155      0.00000
     26      23.2470      0.00000
     27      26.1283      0.00000
     28      27.0563      0.00000
     29      27.7057      0.00000
     30      28.6686      0.00000
     31      29.1589      0.00000
     32      30.5385      0.00000
     33      30.7019      0.00000
     34      31.9730      0.00000
     35      32.2475      0.00000
     36      33.3013      0.00000

 k-point   135 :      -0.4667    0.4667    0.0667
  band No.  band energies     occupation 
      1     -19.1395      2.00000
      2     -19.1339      2.00000
      3     -19.1290      2.00000
      4     -19.1260      2.00000
      5     -19.1216      2.00000
      6      -5.4558      2.00000
      7      -1.9137      2.00000
      8       0.5774      2.00000
      9       2.1378      2.00000
     10       2.6895      2.00000
     11       8.1624      0.00000
     12      10.3623      0.00000
     13      11.3092      0.00000
     14      12.2765      0.00000
     15      15.6400      0.00000
     16      15.8175      0.00000
     17      17.0248      0.00000
     18      17.8399      0.00000
     19      18.1261      0.00000
     20      18.8122      0.00000
     21      19.4260      0.00000
     22      19.9183      0.00000
     23      20.5294      0.00000
     24      21.5660      0.00000
     25      22.8346      0.00000
     26      23.1734      0.00000
     27      25.6778      0.00000
     28      26.6008      0.00000
     29      28.0414      0.00000
     30      28.8120      0.00000
     31      29.3883      0.00000
     32      30.0896      0.00000
     33      30.8423      0.00000
     34      31.5358      0.00000
     35      32.4780      0.00000
     36      33.1720      0.00000

 k-point   136 :      -0.4000    0.4667    0.0667
  band No.  band energies     occupation 
      1     -19.1393      2.00000
      2     -19.1341      2.00000
      3     -19.1289      2.00000
      4     -19.1262      2.00000
      5     -19.1216      2.00000
      6      -5.3661      2.00000
      7      -2.0987      2.00000
      8       0.5544      2.00000
      9       2.0217      2.00000
     10       2.9744      2.00000
     11       8.5072      0.00000
     12       9.8200      0.00000
     13      11.0873      0.00000
     14      12.2418      0.00000
     15      14.9589      0.00000
     16      16.2313      0.00000
     17      16.9858      0.00000
     18      17.9289      0.00000
     19      18.4564      0.00000
     20      19.1378      0.00000
     21      19.9539      0.00000
     22      20.1402      0.00000
     23      20.7755      0.00000
     24      21.3589      0.00000
     25      22.7181      0.00000
     26      24.5222      0.00000
     27      25.2443      0.00000
     28      26.3384      0.00000
     29      27.0924      0.00000
     30      28.7274      0.00000
     31      29.5574      0.00000
     32      29.8659      0.00000
     33      30.5842      0.00000
     34      31.1754      0.00000
     35      32.2911      0.00000
     36      32.5026      0.00000

 k-point   137 :      -0.3333    0.4667    0.0667
  band No.  band energies     occupation 
      1     -19.1387      2.00000
      2     -19.1345      2.00000
      3     -19.1287      2.00000
      4     -19.1265      2.00000
      5     -19.1216      2.00000
      6      -5.3221      2.00000
      7      -2.3381      2.00000
      8       0.6857      2.00000
      9       2.1147      2.00000
     10       3.2843      2.00000
     11       8.5761      0.00000
     12       9.5976      0.00000
     13      10.7126      0.00000
     14      11.8165      0.00000
     15      14.2609      0.00000
     16      16.2244      0.00000
     17      16.9641      0.00000
     18      17.9957      0.00000
     19      18.5752      0.00000
     20      19.3150      0.00000
     21      20.4145      0.00000
     22      20.7799      0.00000
     23      21.3611      0.00000
     24      22.4208      0.00000
     25      23.0470      0.00000
     26      24.5862      0.00000
     27      25.1783      0.00000
     28      26.4245      0.00000
     29      26.9548      0.00000
     30      27.7627      0.00000
     31      28.9230      0.00000
     32      29.5755      0.00000
     33      30.0559      0.00000
     34      30.8382      0.00000
     35      31.5546      0.00000
     36      32.3060      0.00000

 k-point   138 :      -0.2667    0.4667    0.0667
  band No.  band energies     occupation 
      1     -19.1381      2.00000
      2     -19.1349      2.00000
      3     -19.1284      2.00000
      4     -19.1269      2.00000
      5     -19.1217      2.00000
      6      -5.3292      2.00000
      7      -2.5974      2.00000
      8       0.9971      2.00000
      9       2.3934      2.00000
     10       3.6174      2.00000
     11       7.9059      0.00000
     12       9.6307      0.00000
     13      10.7901      0.00000
     14      11.1303      0.00000
     15      13.7747      0.00000
     16      15.5822      0.00000
     17      17.4127      0.00000
     18      17.7343      0.00000
     19      18.2829      0.00000
     20      19.9118      0.00000
     21      20.8318      0.00000
     22      21.9285      0.00000
     23      22.2778      0.00000
     24      23.2806      0.00000
     25      23.7540      0.00000
     26      23.9450      0.00000
     27      25.3293      0.00000
     28      26.0364      0.00000
     29      26.8840      0.00000
     30      27.4604      0.00000
     31      28.5067      0.00000
     32      28.9780      0.00000
     33      29.3578      0.00000
     34      30.3104      0.00000
     35      31.1798      0.00000
     36      32.6967      0.00000

 k-point   139 :      -0.2000    0.4667    0.0667
  band No.  band energies     occupation 
      1     -19.1376      2.00000
      2     -19.1352      2.00000
      3     -19.1281      2.00000
      4     -19.1273      2.00000
      5     -19.1218      2.00000
      6      -5.3836      2.00000
      7      -2.8283      2.00000
      8       1.4820      2.00000
      9       2.8212      2.00000
     10       3.9632      2.00000
     11       7.1578      0.00000
     12       8.9793      0.00000
     13      10.0983      0.00000
     14      11.9043      0.00000
     15      13.5038      0.00000
     16      15.0796      0.00000
     17      16.5891      0.00000
     18      18.1353      0.00000
     19      18.8511      0.00000
     20      19.9319      0.00000
     21      20.8291      0.00000
     22      22.2271      0.00000
     23      23.3726      0.00000
     24      23.7515      0.00000
     25      24.5103      0.00000
     26      24.8095      0.00000
     27      25.4184      0.00000
     28      26.0339      0.00000
     29      26.2861      0.00000
     30      26.8018      0.00000
     31      27.6270      0.00000
     32      28.4970      0.00000
     33      29.4590      0.00000
     34      30.3894      0.00000
     35      31.6750      0.00000
     36      32.7589      0.00000

 k-point   140 :      -0.1333    0.4667    0.0667
  band No.  band energies     occupation 
      1     -19.1375      2.00000
      2     -19.1352      2.00000
      3     -19.1279      2.00000
      4     -19.1276      2.00000
      5     -19.1219      2.00000
      6      -5.4764      2.00000
      7      -2.9856      2.00000
      8       2.1053      2.00000
      9       3.3442      2.00000
     10       4.2756      2.00000
     11       6.5728      0.00000
     12       8.1385      0.00000
     13       9.1107      0.00000
     14      13.0483      0.00000
     15      13.5377      0.00000
     16      14.7303      0.00000
     17      15.9405      0.00000
     18      18.3492      0.00000
     19      18.8027      0.00000
     20      19.8566      0.00000
     21      20.4232      0.00000
     22      22.7515      0.00000
     23      23.6006      0.00000
     24      24.4408      0.00000
     25      24.9690      0.00000
     26      25.1069      0.00000
     27      25.4655      0.00000
     28      26.0305      0.00000
     29      26.4050      0.00000
     30      27.4572      0.00000
     31      27.7834      0.00000
     32      28.0259      0.00000
     33      28.8986      0.00000
     34      30.8523      0.00000
     35      32.2122      0.00000
     36      32.4976      0.00000

 k-point   141 :      -0.0667    0.4667    0.0667
  band No.  band energies     occupation 
      1     -19.1377      2.00000
      2     -19.1350      2.00000
      3     -19.1279      2.00000
      4     -19.1277      2.00000
      5     -19.1220      2.00000
      6      -5.5933      2.00000
      7      -3.0423      2.00000
      8       2.8130      2.00000
      9       3.7553      2.00000
     10       4.5563      2.00000
     11       6.3792      0.00000
     12       7.2482      0.00000
     13       8.1541      0.00000
     14      13.3253      0.00000
     15      14.4848      0.00000
     16      14.6550      0.00000
     17      15.6085      0.00000
     18      17.3208      0.00000
     19      18.4896      0.00000
     20      19.8823      0.00000
     21      21.2433      0.00000
     22      22.2124      0.00000
     23      23.7248      0.00000
     24      23.8435      0.00000
     25      24.5600      0.00000
     26      25.5208      0.00000
     27      26.1595      0.00000
     28      26.4670      0.00000
     29      26.9028      0.00000
     30      27.9200      0.00000
     31      28.4888      0.00000
     32      29.1863      0.00000
     33      29.3562      0.00000
     34      30.5731      0.00000
     35      31.1380      0.00000
     36      32.2609      0.00000

 k-point   142 :      -0.4667   -0.4667    0.0667
  band No.  band energies     occupation 
      1     -19.1397      2.00000
      2     -19.1338      2.00000
      3     -19.1291      2.00000
      4     -19.1259      2.00000
      5     -19.1215      2.00000
      6      -5.4285      2.00000
      7      -1.8904      2.00000
      8       0.5302      2.00000
      9       2.3148      2.00000
     10       2.3773      2.00000
     11       7.9942      0.00000
     12      10.6413      0.00000
     13      11.3633      0.00000
     14      12.4628      0.00000
     15      15.5571      0.00000
     16      16.3111      0.00000
     17      17.0753      0.00000
     18      17.3351      0.00000
     19      18.3541      0.00000
     20      18.9216      0.00000
     21      19.0455      0.00000
     22      20.4250      0.00000
     23      20.8027      0.00000
     24      21.3210      0.00000
     25      21.5317      0.00000
     26      23.6951      0.00000
     27      24.8943      0.00000
     28      26.2880      0.00000
     29      28.8674      0.00000
     30      29.2407      0.00000
     31      29.7446      0.00000
     32      30.4254      0.00000
     33      30.7971      0.00000
     34      31.0265      0.00000
     35      32.1699      0.00000
     36      33.1817      0.00000

 k-point   143 :      -0.4000   -0.4667    0.0667
  band No.  band energies     occupation 
      1     -19.1396      2.00000
      2     -19.1338      2.00000
      3     -19.1291      2.00000
      4     -19.1260      2.00000
      5     -19.1216      2.00000
      6      -5.4297      2.00000
      7      -1.9571      2.00000
      8       0.6243      2.00000
      9       2.1418      2.00000
     10       2.6360      2.00000
     11       8.1363      0.00000
     12      10.2916      0.00000
     13      11.3059      0.00000
     14      12.2088      0.00000
     15      15.6673      0.00000
     16      15.8279      0.00000
     17      17.4020      0.00000
     18      17.7125      0.00000
     19      18.0173      0.00000
     20      19.0092      0.00000
     21      19.4509      0.00000
     22      19.9115      0.00000
     23      21.1048      0.00000
     24      21.5601      0.00000
     25      22.0029      0.00000
     26      23.6958      0.00000
     27      25.2208      0.00000
     28      26.1456      0.00000
     29      28.0807      0.00000
     30      29.2229      0.00000
     31      29.5755      0.00000
     32      30.0769      0.00000
     33      31.0976      0.00000
     34      31.5280      0.00000
     35      32.5022      0.00000
     36      33.1350      0.00000

 k-point   144 :      -0.3333   -0.4667    0.0667
  band No.  band energies     occupation 
      1     -19.1391      2.00000
      2     -19.1341      2.00000
      3     -19.1289      2.00000
      4     -19.1263      2.00000
      5     -19.1216      2.00000
      6      -5.4568      2.00000
      7      -2.1059      2.00000
      8       0.8357      2.00000
      9       2.1411      2.00000
     10       2.9660      2.00000
     11       8.4985      0.00000
     12       9.6306      0.00000
     13      11.0417      0.00000
     14      11.6002      0.00000
     15      15.2434      0.00000
     16      16.0479      0.00000
     17      16.8697      0.00000
     18      17.7184      0.00000
     19      18.3044      0.00000
     20      18.9487      0.00000
     21      19.8642      0.00000
     22      20.2348      0.00000
     23      21.6067      0.00000
     24      22.4280      0.00000
     25      22.9694      0.00000
     26      23.4925      0.00000
     27      25.5120      0.00000
     28      26.6486      0.00000
     29      27.0388      0.00000
     30      28.4197      0.00000
     31      28.9909      0.00000
     32      29.9670      0.00000
     33      30.9330      0.00000
     34      31.6113      0.00000
     35      32.3186      0.00000
     36      33.2624      0.00000

 k-point   145 :      -0.2667   -0.4667    0.0667
  band No.  band energies     occupation 
      1     -19.1385      2.00000
      2     -19.1346      2.00000
      3     -19.1286      2.00000
      4     -19.1267      2.00000
      5     -19.1218      2.00000
      6      -5.4977      2.00000
      7      -2.3288      2.00000
      8       1.1689      2.00000
      9       2.3570      2.00000
     10       3.3253      2.00000
     11       8.3364      0.00000
     12       9.5358      0.00000
     13      10.5283      0.00000
     14      10.8454      0.00000
     15      14.8599      0.00000
     16      16.1195      0.00000
     17      16.6998      0.00000
     18      17.1000      0.00000
     19      18.1108      0.00000
     20      19.4066      0.00000
     21      20.2434      0.00000
     22      21.5959      0.00000
     23      22.4139      0.00000
     24      23.1639      0.00000
     25      23.7319      0.00000
     26      24.3341      0.00000
     27      24.5779      0.00000
     28      25.9026      0.00000
     29      27.4769      0.00000
     30      27.9837      0.00000
     31      28.5670      0.00000
     32      29.6848      0.00000
     33      30.0740      0.00000
     34      31.0584      0.00000
     35      31.9688      0.00000
     36      32.9589      0.00000

 k-point   146 :      -0.2000   -0.4667    0.0667
  band No.  band energies     occupation 
      1     -19.1379      2.00000
      2     -19.1350      2.00000
      3     -19.1283      2.00000
      4     -19.1271      2.00000
      5     -19.1219      2.00000
      6      -5.5388      2.00000
      7      -2.5924      2.00000
      8       1.6257      2.00000
      9       2.7619      2.00000
     10       3.7107      2.00000
     11       7.5629      0.00000
     12       9.2927      0.00000
     13       9.7841      0.00000
     14      11.0116      0.00000
     15      14.6315      0.00000
     16      15.5496      0.00000
     17      16.2528      0.00000
     18      17.4951      0.00000
     19      17.9566      0.00000
     20      20.0922      0.00000
     21      20.5103      0.00000
     22      22.4403      0.00000
     23      23.2385      0.00000
     24      23.4327      0.00000
     25      24.1413      0.00000
     26      24.8313      0.00000
     27      25.4894      0.00000
     28      25.5871      0.00000
     29      26.7032      0.00000
     30      27.2485      0.00000
     31      28.2615      0.00000
     32      29.1539      0.00000
     33      30.3483      0.00000
     34      30.6367      0.00000
     35      31.6289      0.00000
     36      33.1567      0.00000

 k-point   147 :      -0.1333   -0.4667    0.0667
  band No.  band energies     occupation 
      1     -19.1376      2.00000
      2     -19.1351      2.00000
      3     -19.1280      2.00000
      4     -19.1275      2.00000
      5     -19.1219      2.00000
      6      -5.5712      2.00000
      7      -2.8461      2.00000
      8       2.1862      2.00000
      9       3.2915      2.00000
     10       4.1150      2.00000
     11       6.8329      0.00000
     12       8.3033      0.00000
     13       8.9749      0.00000
     14      12.1025      0.00000
     15      14.5276      0.00000
     16      14.9736      0.00000
     17      15.8020      0.00000
     18      17.6332      0.00000
     19      18.3891      0.00000
     20      20.3458      0.00000
     21      20.7738      0.00000
     22      21.7673      0.00000
     23      23.4487      0.00000
     24      24.5620      0.00000
     25      25.0022      0.00000
     26      25.1236      0.00000
     27      25.4737      0.00000
     28      26.4017      0.00000
     29      26.7229      0.00000
     30      27.1685      0.00000
     31      27.6544      0.00000
     32      28.4801      0.00000
     33      29.7295      0.00000
     34      30.9063      0.00000
     35      32.1315      0.00000
     36      32.7375      0.00000

 k-point   148 :      -0.4000   -0.4000    0.0667
  band No.  band energies     occupation 
      1     -19.1396      2.00000
      2     -19.1337      2.00000
      3     -19.1291      2.00000
      4     -19.1260      2.00000
      5     -19.1216      2.00000
      6      -5.5266      2.00000
      7      -1.8880      2.00000
      8       0.8468      2.00000
      9       2.3472      2.00000
     10       2.4243      2.00000
     11       8.0149      0.00000
     12      10.4948      0.00000
     13      11.1941      0.00000
     14      11.7894      0.00000
     15      15.4039      0.00000
     16      16.0973      0.00000
     17      17.2643      0.00000
     18      17.8441      0.00000
     19      18.3102      0.00000
     20      18.5743      0.00000
     21      19.2134      0.00000
     22      20.0055      0.00000
     23      20.5050      0.00000
     24      22.3176      0.00000
     25      22.6729      0.00000
     26      22.9350      0.00000
     27      25.5668      0.00000
     28      26.2632      0.00000
     29      28.0205      0.00000
     30      29.0873      0.00000
     31      29.2525      0.00000
     32      30.8629      0.00000
     33      31.4718      0.00000
     34      31.7129      0.00000
     35      32.5014      0.00000
     36      33.0831      0.00000

 k-point   149 :      -0.3333   -0.4000    0.0667
  band No.  band energies     occupation 
      1     -19.1393      2.00000
      2     -19.1339      2.00000
      3     -19.1290      2.00000
      4     -19.1262      2.00000
      5     -19.1217      2.00000
      6      -5.6374      2.00000
      7      -1.8967      2.00000
      8       1.1544      2.00000
      9       2.2946      2.00000
     10       2.7145      2.00000
     11       8.1954      0.00000
     12      10.0271      0.00000
     13      11.0549      0.00000
     14      11.1583      0.00000
     15      15.2735      0.00000
     16      15.9585      0.00000
     17      16.7564      0.00000
     18      17.6495      0.00000
     19      18.3736      0.00000
     20      18.6813      0.00000
     21      19.4718      0.00000
     22      20.3367      0.00000
     23      21.0777      0.00000
     24      21.9388      0.00000
     25      23.3422      0.00000
     26      23.9830      0.00000
     27      25.4363      0.00000
     28      26.7535      0.00000
     29      27.3209      0.00000
     30      28.3517      0.00000
     31      29.6629      0.00000
     32      30.2158      0.00000
     33      31.9480      0.00000
     34      32.2863      0.00000
     35      32.7913      0.00000
     36      33.2281      0.00000

 k-point   150 :      -0.2667   -0.4000    0.0667
  band No.  band energies     occupation 
      1     -19.1387      2.00000
      2     -19.1343      2.00000
      3     -19.1288      2.00000
      4     -19.1265      2.00000
      5     -19.1219      2.00000
      6      -5.7395      2.00000
      7      -1.9992      2.00000
      8       1.5001      2.00000
      9       2.4416      2.00000
     10       3.0931      2.00000
     11       8.4817      0.00000
     12       9.3899      0.00000
     13      10.2360      0.00000
     14      10.8351      0.00000
     15      15.2784      0.00000
     16      15.8896      0.00000
     17      16.1085      0.00000
     18      17.2967      0.00000
     19      17.8508      0.00000
     20      18.7053      0.00000
     21      20.7205      0.00000
     22      21.2605      0.00000
     23      21.5016      0.00000
     24      22.2661      0.00000
     25      24.3535      0.00000
     26      24.9647      0.00000
     27      25.3086      0.00000
     28      25.4447      0.00000
     29      27.1991      0.00000
     30      28.8420      0.00000
     31      29.1439      0.00000
     32      29.9990      0.00000
     33      31.5196      0.00000
     34      31.8310      0.00000
     35      32.9826      0.00000
     36      33.6223      0.00000

 k-point   151 :      -0.2000   -0.4000    0.0667
  band No.  band energies     occupation 
      1     -19.1381      2.00000
      2     -19.1347      2.00000
      3     -19.1285      2.00000
      4     -19.1269      2.00000
      5     -19.1220      2.00000
      6      -5.8137      2.00000
      7      -2.1908      2.00000
      8       1.8778      2.00000
      9       2.8289      2.00000
     10       3.5187      2.00000
     11       8.0024      0.00000
     12       9.2072      0.00000
     13       9.4985      0.00000
     14      10.5531      0.00000
     15      14.9729      0.00000
     16      15.4925      0.00000
     17      16.3859      0.00000
     18      16.9310      0.00000
     19      17.4211      0.00000
     20      19.1202      0.00000
     21      21.3169      0.00000
     22      21.5611      0.00000
     23      22.8154      0.00000
     24      23.5647      0.00000
     25      23.9259      0.00000
     26      24.6560      0.00000
     27      25.4509      0.00000
     28      26.3234      0.00000
     29      26.6214      0.00000
     30      28.1804      0.00000
     31      29.6607      0.00000
     32      29.8928      0.00000
     33      31.0041      0.00000
     34      31.3170      0.00000
     35      32.3695      0.00000
     36      33.2976      0.00000

 k-point   152 :      -0.1333   -0.4000    0.0667
  band No.  band energies     occupation 
      1     -19.1376      2.00000
      2     -19.1351      2.00000
      3     -19.1282      2.00000
      4     -19.1273      2.00000
      5     -19.1221      2.00000
      6      -5.8477      2.00000
      7      -2.4343      2.00000
      8       2.3193      2.00000
      9       3.3475      2.00000
     10       4.0121      2.00000
     11       7.2166      0.00000
     12       8.1467      0.00000
     13       9.1020      0.00000
     14      11.2014      0.00000
     15      14.1982      0.00000
     16      15.6016      0.00000
     17      16.4866      0.00000
     18      16.8171      0.00000
     19      17.4296      0.00000
     20      19.6888      0.00000
     21      21.4680      0.00000
     22      22.0585      0.00000
     23      22.4017      0.00000
     24      23.5674      0.00000
     25      24.7184      0.00000
     26      25.2657      0.00000
     27      25.9606      0.00000
     28      26.7851      0.00000
     29      27.0314      0.00000
     30      27.9262      0.00000
     31      29.0548      0.00000
     32      29.4477      0.00000
     33      30.4419      0.00000
     34      31.3260      0.00000
     35      31.9992      0.00000
     36      32.9260      0.00000

 k-point   153 :      -0.3333   -0.3333    0.0667
  band No.  band energies     occupation 
      1     -19.1391      2.00000
      2     -19.1339      2.00000
      3     -19.1290      2.00000
      4     -19.1263      2.00000
      5     -19.1219      2.00000
      6      -5.8262      2.00000
      7      -1.7446      2.00000
      8       1.5585      2.00000
      9       2.5608      2.00000
     10       2.5795      2.00000
     11       8.1230      0.00000
     12      10.1910      0.00000
     13      10.4246      0.00000
     14      10.9223      0.00000
     15      14.9487      0.00000
     16      15.5137      0.00000
     17      16.4670      0.00000
     18      17.2476      0.00000
     19      18.8970      0.00000
     20      19.1570      0.00000
     21      19.5038      0.00000
     22      20.0696      0.00000
     23      20.8858      0.00000
     24      21.6968      0.00000
     25      24.3411      0.00000
     26      24.9923      0.00000
     27      25.0902      0.00000
     28      25.9388      0.00000
     29      28.0405      0.00000
     30      29.0991      0.00000
     31      29.1627      0.00000
     32      30.9533      0.00000
     33      32.0616      0.00000
     34      32.5159      0.00000
     35      32.9993      0.00000
     36      33.0646      0.00000

 k-point   154 :      -0.2667   -0.3333    0.0667
  band No.  band energies     occupation 
      1     -19.1387      2.00000
      2     -19.1342      2.00000
      3     -19.1288      2.00000
      4     -19.1266      2.00000
      5     -19.1221      2.00000
      6      -5.9923      2.00000
      7      -1.6850      2.00000
      8       1.9304      2.00000
      9       2.6443      2.00000
     10       2.9503      2.00000
     11       8.3129      0.00000
     12       9.6157      0.00000
     13       9.7271      0.00000
     14      10.8172      0.00000
     15      14.6496      0.00000
     16      15.3040      0.00000
     17      15.8467      0.00000
     18      16.8107      0.00000
     19      18.7764      0.00000
     20      19.1159      0.00000
     21      20.0963      0.00000
     22      20.5220      0.00000
     23      21.2479      0.00000
     24      22.5496      0.00000
     25      24.2314      0.00000
     26      25.2452      0.00000
     27      25.6006      0.00000
     28      26.1178      0.00000
     29      27.8751      0.00000
     30      29.2552      0.00000
     31      29.7487      0.00000
     32      30.3758      0.00000
     33      32.3942      0.00000
     34      32.8466      0.00000
     35      32.9193      0.00000
     36      33.4259      0.00000

 k-point   155 :      -0.2000   -0.3333    0.0667
  band No.  band energies     occupation 
      1     -19.1381      2.00000
      2     -19.1346      2.00000
      3     -19.1286      2.00000
      4     -19.1269      2.00000
      5     -19.1223      2.00000
      6      -6.1140      2.00000
      7      -1.7395      2.00000
      8       2.1997      2.00000
      9       2.9924      2.00000
     10       3.4429      2.00000
     11       8.3398      0.00000
     12       8.7739      0.00000
     13       9.2853      0.00000
     14      10.5515      0.00000
     15      14.3678      0.00000
     16      15.0337      0.00000
     17      15.5560      0.00000
     18      16.7497      0.00000
     19      18.5724      0.00000
     20      18.8527      0.00000
     21      19.8199      0.00000
     22      21.7633      0.00000
     23      22.6796      0.00000
     24      23.4437      0.00000
     25      23.5540      0.00000
     26      24.8660      0.00000
     27      26.2752      0.00000
     28      26.9362      0.00000
     29      27.3221      0.00000
     30      29.3709      0.00000
     31      29.7679      0.00000
     32      30.6797      0.00000
     33      31.6808      0.00000
     34      32.3523      0.00000
     35      33.0562      0.00000
     36      33.9410      0.00000

 k-point   156 :      -0.1333   -0.3333    0.0667
  band No.  band energies     occupation 
      1     -19.1376      2.00000
      2     -19.1350      2.00000
      3     -19.1283      2.00000
      4     -19.1272      2.00000
      5     -19.1224      2.00000
      6      -6.1784      2.00000
      7      -1.8960      2.00000
      8       2.4970      2.00000
      9       3.4319      2.00000
     10       4.0654      2.00000
     11       7.6356      0.00000
     12       7.8620      0.00000
     13       9.2476      0.00000
     14      10.6060      0.00000
     15      13.6172      0.00000
     16      15.3284      0.00000
     17      15.4543      0.00000
     18      16.9789      0.00000
     19      18.3573      0.00000
     20      18.9177      0.00000
     21      19.8730      0.00000
     22      21.7351      0.00000
     23      23.5149      0.00000
     24      23.8637      0.00000
     25      24.2884      0.00000
     26      24.8680      0.00000
     27      25.9678      0.00000
     28      27.6729      0.00000
     29      28.1873      0.00000
     30      28.8652      0.00000
     31      29.7147      0.00000
     32      30.6334      0.00000
     33      30.7876      0.00000
     34      31.9187      0.00000
     35      32.7017      0.00000
     36      33.4548      0.00000

 k-point   157 :      -0.2667   -0.2667    0.0667
  band No.  band energies     occupation 
      1     -19.1385      2.00000
      2     -19.1343      2.00000
      3     -19.1287      2.00000
      4     -19.1267      2.00000
      5     -19.1224      2.00000
      6      -6.2154      2.00000
      7      -1.4460      2.00000
      8       2.3326      2.00000
      9       2.8311      2.00000
     10       3.1240      2.00000
     11       8.2858      0.00000
     12       8.9595      0.00000
     13       9.8249      0.00000
     14      10.6393      0.00000
     15      14.3023      0.00000
     16      14.4422      0.00000
     17      15.6646      0.00000
     18      15.9958      0.00000
     19      19.0669      0.00000
     20      19.9279      0.00000
     21      20.0132      0.00000
     22      20.4924      0.00000
     23      20.9671      0.00000
     24      23.2044      0.00000
     25      23.6442      0.00000
     26      25.1361      0.00000
     27      26.6628      0.00000
     28      27.1266      0.00000
     29      28.5754      0.00000
     30      28.9962      0.00000
     31      30.2935      0.00000
     32      31.1251      0.00000
     33      32.1943      0.00000
     34      32.7836      0.00000
     35      32.8006      0.00000
     36      33.9080      0.00000

 k-point   158 :      -0.2000   -0.2667    0.0667
  band No.  band energies     occupation 
      1     -19.1380      2.00000
      2     -19.1346      2.00000
      3     -19.1285      2.00000
      4     -19.1269      2.00000
      5     -19.1226      2.00000
      6      -6.3851      2.00000
      7      -1.3253      2.00000
      8       2.5476      2.00000
      9       3.0808      2.00000
     10       3.6702      2.00000
     11       8.1806      0.00000
     12       8.4498      0.00000
     13       9.4095      0.00000
     14      10.5605      0.00000
     15      13.7512      0.00000
     16      14.2510      0.00000
     17      14.9756      0.00000
     18      15.9888      0.00000
     19      18.4753      0.00000
     20      19.6325      0.00000
     21      20.1480      0.00000
     22      21.0612      0.00000
     23      22.2570      0.00000
     24      22.9720      0.00000
     25      24.3789      0.00000
     26      25.0741      0.00000
     27      27.3444      0.00000
     28      27.8827      0.00000
     29      28.3241      0.00000
     30      29.3198      0.00000
     31      30.6234      0.00000
     32      31.2839      0.00000
     33      32.0313      0.00000
     34      32.5853      0.00000
     35      33.0099      0.00000
     36      33.7975      0.00000

 k-point   159 :      -0.1333   -0.2667    0.0667
  band No.  band energies     occupation 
      1     -19.1375      2.00000
      2     -19.1350      2.00000
      3     -19.1283      2.00000
      4     -19.1272      2.00000
      5     -19.1228      2.00000
      6      -6.4878      2.00000
      7      -1.3396      2.00000
      8       2.7260      2.00000
      9       3.4501      2.00000
     10       4.3385      2.00000
     11       7.4180      0.00000
     12       8.1553      0.00000
     13       9.2173      0.00000
     14      10.4373      0.00000
     15      13.1553      0.00000
     16      14.2580      0.00000
     17      14.6391      0.00000
     18      16.4136      0.00000
     19      18.2780      0.00000
     20      19.1707      0.00000
     21      19.8971      0.00000
     22      20.9265      0.00000
     23      23.8412      0.00000
     24      24.0147      0.00000
     25      24.5217      0.00000
     26      25.3819      0.00000
     27      26.3212      0.00000
     28      28.7076      0.00000
     29      29.2633      0.00000
     30      29.4300      0.00000
     31      30.1614      0.00000
     32      30.7433      0.00000
     33      31.9258      0.00000
     34      32.2293      0.00000
     35      33.3329      0.00000
     36      34.0028      0.00000

 k-point   160 :      -0.2000   -0.2000    0.0667
  band No.  band energies     occupation 
      1     -19.1377      2.00000
      2     -19.1348      2.00000
      3     -19.1284      2.00000
      4     -19.1271      2.00000
      5     -19.1229      2.00000
      6      -6.5988      2.00000
      7      -1.0126      2.00000
      8       2.8490      2.00000
      9       3.1566      2.00000
     10       4.1666      2.00000
     11       7.6111      0.00000
     12       8.4576      0.00000
     13       9.4681      0.00000
     14      10.5067      0.00000
     15      13.2388      0.00000
     16      13.5090      0.00000
     17      14.9990      0.00000
     18      15.0547      0.00000
     19      17.5331      0.00000
     20      19.6594      0.00000
     21      21.1716      0.00000
     22      21.3802      0.00000
     23      22.1992      0.00000
     24      22.9326      0.00000
     25      24.6297      0.00000
     26      25.8091      0.00000
     27      28.2326      0.00000
     28      28.5067      0.00000
     29      28.9457      0.00000
     30      29.5393      0.00000
     31      31.3617      0.00000
     32      31.6130      0.00000
     33      31.8366      0.00000
     34      32.0855      0.00000
     35      32.6493      0.00000
     36      33.9414      0.00000

 k-point   161 :      -0.1333   -0.2000    0.0667
  band No.  band energies     occupation 
      1     -19.1373      2.00000
      2     -19.1351      2.00000
      3     -19.1282      2.00000
      4     -19.1273      2.00000
      5     -19.1231      2.00000
      6      -6.7406      2.00000
      7      -0.8453      2.00000
      8       3.0058      2.00000
      9       3.4442      2.00000
     10       4.7144      2.00000
     11       7.0760      0.00000
     12       8.4381      0.00000
     13       9.1994      0.00000
     14      10.5035      0.00000
     15      12.6775      0.00000
     16      13.2998      0.00000
     17      14.2837      0.00000
     18      15.4147      0.00000
     19      17.0163      0.00000
     20      18.7079      0.00000
     21      21.3901      0.00000
     22      21.5460      0.00000
     23      23.5280      0.00000
     24      23.8891      0.00000
     25      24.6056      0.00000
     26      26.6276      0.00000
     27      27.2391      0.00000
     28      28.9177      0.00000
     29      29.7491      0.00000
     30      30.3496      0.00000
     31      30.7885      0.00000
     32      31.0568      0.00000
     33      31.8624      0.00000
     34      32.5615      0.00000
     35      32.9417      0.00000
     36      33.7762      0.00000

 k-point   162 :      -0.1333   -0.1333    0.0667
  band No.  band energies     occupation 
      1     -19.1371      2.00000
      2     -19.1353      2.00000
      3     -19.1281      2.00000
      4     -19.1274      2.00000
      5     -19.1234      2.00000
      6      -6.9198      2.00000
      7      -0.4800      2.00000
      8       3.2757      2.00000
      9       3.5166      2.00000
     10       4.9643      2.00000
     11       6.9330      0.00000
     12       8.5277      0.00000
     13       9.1609      0.00000
     14      10.6250      0.00000
     15      12.1930      0.00000
     16      12.6618      0.00000
     17      14.3468      0.00000
     18      14.5918      0.00000
     19      16.1215      0.00000
     20      17.6832      0.00000
     21      22.5757      0.00000
     22      22.7050      0.00000
     23      23.6196      0.00000
     24      24.0732      0.00000
     25      24.6217      0.00000
     26      27.7170      0.00000
     27      27.9927      0.00000
     28      28.3592      0.00000
     29      29.9642      0.00000
     30      30.2899      0.00000
     31      31.2119      0.00000
     32      31.2221      0.00000
     33      32.0969      0.00000
     34      32.1559      0.00000
     35      33.6159      0.00000
     36      34.0798      0.00000

 k-point   163 :       0.1333    0.1333    0.1333
  band No.  band energies     occupation 
      1     -19.1364      2.00000
      2     -19.1364      2.00000
      3     -19.1274      2.00000
      4     -19.1274      2.00000
      5     -19.1241      2.00000
      6      -7.1712      2.00000
      7      -0.0910      2.00000
      8       4.1015      2.00000
      9       4.1015      2.00000
     10       4.2673      2.00000
     11       8.1591      0.00000
     12       8.3818      0.00000
     13       8.3818      0.00000
     14      11.3303      0.00000
     15      11.8669      0.00000
     16      11.8669      0.00000
     17      14.3170      0.00000
     18      14.3170      0.00000
     19      14.4776      0.00000
     20      14.8850      0.00000
     21      22.9181      0.00000
     22      22.9181      0.00000
     23      23.2698      0.00000
     24      27.8797      0.00000
     25      27.9902      0.00000
     26      27.9902      0.00000
     27      28.4845      0.00000
     28      28.4845      0.00000
     29      28.7787      0.00000
     30      29.7989      0.00000
     31      29.7989      0.00000
     32      31.3838      0.00000
     33      31.3838      0.00000
     34      32.0998      0.00000
     35      33.3190      0.00000
     36      35.0645      0.00000

 k-point   164 :       0.2000    0.1333    0.1333
  band No.  band energies     occupation 
      1     -19.1365      2.00000
      2     -19.1364      2.00000
      3     -19.1275      2.00000
      4     -19.1273      2.00000
      5     -19.1239      2.00000
      6      -7.0804      2.00000
      7      -0.3775      2.00000
      8       3.5737      2.00000
      9       4.2638      2.00000
     10       4.7466      2.00000
     11       7.7688      0.00000
     12       7.8557      0.00000
     13       8.8261      0.00000
     14      11.3158      0.00000
     15      11.7624      0.00000
     16      12.2867      0.00000
     17      13.9355      0.00000
     18      15.0526      0.00000
     19      15.2336      0.00000
     20      15.6143      0.00000
     21      21.3286      0.00000
     22      23.0970      0.00000
     23      23.3013      0.00000
     24      26.6366      0.00000
     25      27.0575      0.00000
     26      27.7470      0.00000
     27      28.9346      0.00000
     28      29.0397      0.00000
     29      29.2281      0.00000
     30      29.3332      0.00000
     31      30.1806      0.00000
     32      31.8787      0.00000
     33      31.9202      0.00000
     34      31.9761      0.00000
     35      32.9406      0.00000
     36      34.2051      0.00000

 k-point   165 :       0.2667    0.1333    0.1333
  band No.  band energies     occupation 
      1     -19.1367      2.00000
      2     -19.1363      2.00000
      3     -19.1275      2.00000
      4     -19.1272      2.00000
      5     -19.1236      2.00000
      6      -6.9048      2.00000
      7      -0.7935      2.00000
      8       3.0516      2.00000
      9       4.3445      2.00000
     10       5.2210      2.00000
     11       7.2378      0.00000
     12       7.4022      0.00000
     13       9.1873      0.00000
     14      11.2617      0.00000
     15      11.8755      0.00000
     16      12.7836      0.00000
     17      14.0381      0.00000
     18      16.1237      0.00000
     19      16.3362      0.00000
     20      16.5622      0.00000
     21      19.8131      0.00000
     22      23.3460      0.00000
     23      23.3731      0.00000
     24      25.0468      0.00000
     25      25.8292      0.00000
     26      26.9097      0.00000
     27      28.8171      0.00000
     28      29.0169      0.00000
     29      29.3940      0.00000
     30      29.5354      0.00000
     31      30.3064      0.00000
     32      31.3160      0.00000
     33      32.5712      0.00000
     34      32.9476      0.00000
     35      33.2096      0.00000
     36      33.2522      0.00000

 k-point   166 :       0.3333    0.1333    0.1333
  band No.  band energies     occupation 
      1     -19.1370      2.00000
      2     -19.1360      2.00000
      3     -19.1276      2.00000
      4     -19.1273      2.00000
      5     -19.1232      2.00000
      6      -6.6519      2.00000
      7      -1.3116      2.00000
      8       2.6638      2.00000
      9       4.3122      2.00000
     10       5.5434      2.00000
     11       6.7539      0.00000
     12       7.0875      0.00000
     13       9.3152      0.00000
     14      11.2788      0.00000
     15      12.2230      0.00000
     16      13.4023      0.00000
     17      14.7344      0.00000
     18      16.9450      0.00000
     19      17.5679      0.00000
     20      17.6029      0.00000
     21      18.9901      0.00000
     22      23.0410      0.00000
     23      23.1740      0.00000
     24      23.9676      0.00000
     25      25.0784      0.00000
     26      25.8042      0.00000
     27      27.9276      0.00000
     28      29.1919      0.00000
     29      29.5643      0.00000
     30      29.6769      0.00000
     31      30.0228      0.00000
     32      30.5374      0.00000
     33      31.5207      0.00000
     34      32.1506      0.00000
     35      32.8440      0.00000
     36      33.5815      0.00000

 k-point   167 :       0.4000    0.1333    0.1333
  band No.  band energies     occupation 
      1     -19.1373      2.00000
      2     -19.1356      2.00000
      3     -19.1276      2.00000
      4     -19.1275      2.00000
      5     -19.1228      2.00000
      6      -6.3368      2.00000
      7      -1.8886      2.00000
      8       2.4439      2.00000
      9       4.1691      2.00000
     10       5.5534      2.00000
     11       6.5271      0.00000
     12       6.9390      0.00000
     13       9.1039      0.00000
     14      11.7021      0.00000
     15      12.7959      0.00000
     16      14.1334      0.00000
     17      15.5440      0.00000
     18      16.3612      0.00000
     19      18.8958      0.00000
     20      19.1041      0.00000
     21      19.5993      0.00000
     22      21.7366      0.00000
     23      22.2383      0.00000
     24      24.2333      0.00000
     25      24.6514      0.00000
     26      25.0939      0.00000
     27      26.8396      0.00000
     28      28.6491      0.00000
     29      29.1207      0.00000
     30      29.5702      0.00000
     31      29.7348      0.00000
     32      30.1531      0.00000
     33      30.8235      0.00000
     34      31.4221      0.00000
     35      32.3207      0.00000
     36      32.5067      0.00000

 k-point   168 :       0.4667    0.1333    0.1333
  band No.  band energies     occupation 
      1     -19.1377      2.00000
      2     -19.1352      2.00000
      3     -19.1276      2.00000
      4     -19.1275      2.00000
      5     -19.1224      2.00000
      6      -5.9921      2.00000
      7      -2.4531      2.00000
      8       2.3887      2.00000
      9       3.9576      2.00000
     10       5.2442      2.00000
     11       6.6192      0.00000
     12       6.9436      0.00000
     13       8.7062      0.00000
     14      12.4890      0.00000
     15      13.5720      0.00000
     16      14.6287      0.00000
     17      15.0654      0.00000
     18      17.1516      0.00000
     19      19.6051      0.00000
     20      20.0823      0.00000
     21      20.4735      0.00000
     22      21.0679      0.00000
     23      22.1481      0.00000
     24      23.2605      0.00000
     25      24.8470      0.00000
     26      25.0733      0.00000
     27      26.0029      0.00000
     28      27.4174      0.00000
     29      28.0876      0.00000
     30      28.6678      0.00000
     31      29.8642      0.00000
     32      29.8655      0.00000
     33      30.2254      0.00000
     34      30.9893      0.00000
     35      31.8830      0.00000
     36      32.4468      0.00000

 k-point   169 :      -0.4667    0.1333    0.1333
  band No.  band energies     occupation 
      1     -19.1380      2.00000
      2     -19.1348      2.00000
      3     -19.1278      2.00000
      4     -19.1274      2.00000
      5     -19.1222      2.00000
      6      -5.6906      2.00000
      7      -2.8954      2.00000
      8       2.4792      2.00000
      9       3.7329      2.00000
     10       4.8650      2.00000
     11       6.8275      0.00000
     12       7.0722      0.00000
     13       8.2846      0.00000
     14      13.3310      0.00000
     15      13.6920      0.00000
     16      14.5221      0.00000
     17      16.0064      0.00000
     18      17.5631      0.00000
     19      18.8132      0.00000
     20      19.6934      0.00000
     21      21.6100      0.00000
     22      22.1168      0.00000
     23      22.6140      0.00000
     24      23.0124      0.00000
     25      24.3680      0.00000
     26      25.3234      0.00000
     27      25.8850      0.00000
     28      26.6601      0.00000
     29      27.0979      0.00000
     30      27.1789      0.00000
     31      28.2031      0.00000
     32      30.1338      0.00000
     33      30.4770      0.00000
     34      31.3614      0.00000
     35      31.8057      0.00000
     36      32.7236      0.00000

 k-point   170 :      -0.4000    0.1333    0.1333
  band No.  band energies     occupation 
      1     -19.1382      2.00000
      2     -19.1346      2.00000
      3     -19.1280      2.00000
      4     -19.1274      2.00000
      5     -19.1220      2.00000
      6      -5.5673      2.00000
      7      -3.0552      2.00000
      8       2.6931      2.00000
      9       3.5373      2.00000
     10       4.5152      2.00000
     11       7.0785      0.00000
     12       7.3014      0.00000
     13       7.9079      0.00000
     14      12.4519      0.00000
     15      14.6711      0.00000
     16      15.6009      0.00000
     17      16.6884      0.00000
     18      17.1203      0.00000
     19      17.5189      0.00000
     20      20.4825      0.00000
     21      20.8537      0.00000
     22      21.9533      0.00000
     23      23.3735      0.00000
     24      24.3245      0.00000
     25      24.5926      0.00000
     26      25.2087      0.00000
     27      25.3429      0.00000
     28      25.8202      0.00000
     29      26.5761      0.00000
     30      26.9935      0.00000
     31      27.6479      0.00000
     32      30.2372      0.00000
     33      30.6609      0.00000
     34      31.6415      0.00000
     35      31.9063      0.00000
     36      32.8928      0.00000

 k-point   171 :      -0.3333    0.1333    0.1333
  band No.  band energies     occupation 
      1     -19.1383      2.00000
      2     -19.1344      2.00000
      3     -19.1282      2.00000
      4     -19.1273      2.00000
      5     -19.1221      2.00000
      6      -5.7095      2.00000
      7      -2.8341      2.00000
      8       3.0013      2.00000
      9       3.3962      2.00000
     10       4.2230      2.00000
     11       7.3222      0.00000
     12       7.6157      0.00000
     13       7.6352      0.00000
     14      11.5979      0.00000
     15      15.5212      0.00000
     16      15.8641      0.00000
     17      16.0949      0.00000
     18      17.0164      0.00000
     19      18.2601      0.00000
     20      19.1335      0.00000
     21      20.6813      0.00000
     22      22.2094      0.00000
     23      22.7619      0.00000
     24      24.2009      0.00000
     25      24.6145      0.00000
     26      25.1091      0.00000
     27      25.1199      0.00000
     28      26.3598      0.00000
     29      27.4023      0.00000
     30      27.5930      0.00000
     31      28.5980      0.00000
     32      30.1383      0.00000
     33      30.6384      0.00000
     34      31.5944      0.00000
     35      32.1734      0.00000
     36      33.0556      0.00000

 k-point   172 :      -0.2667    0.1333    0.1333
  band No.  band energies     occupation 
      1     -19.1381      2.00000
      2     -19.1344      2.00000
      3     -19.1283      2.00000
      4     -19.1274      2.00000
      5     -19.1223      2.00000
      6      -6.0175      2.00000
      7      -2.3345      2.00000
      8       3.3222      2.00000
      9       3.3293      2.00000
     10       4.0427      2.00000
     11       7.2570      0.00000
     12       7.7574      0.00000
     13       7.9999      0.00000
     14      10.9637      0.00000
     15      14.4718      0.00000
     16      15.0713      0.00000
     17      16.6128      0.00000
     18      17.5670      0.00000
     19      18.5084      0.00000
     20      19.1532      0.00000
     21      20.1258      0.00000
     22      20.8481      0.00000
     23      22.4807      0.00000
     24      24.0812      0.00000
     25      24.2027      0.00000
     26      24.7951      0.00000
     27      26.4717      0.00000
     28      27.5828      0.00000
     29      28.4067      0.00000
     30      28.8311      0.00000
     31      29.9515      0.00000
     32      29.9955      0.00000
     33      30.4909      0.00000
     34      31.2872      0.00000
     35      32.5576      0.00000
     36      33.2934      0.00000

 k-point   173 :      -0.2000    0.1333    0.1333
  band No.  band energies     occupation 
      1     -19.1378      2.00000
      2     -19.1345      2.00000
      3     -19.1283      2.00000
      4     -19.1274      2.00000
      5     -19.1226      2.00000
      6      -6.3611      2.00000
      7      -1.7047      2.00000
      8       3.3199      2.00000
      9       3.4326      2.00000
     10       4.1911      2.00000
     11       7.0730      0.00000
     12       8.0524      0.00000
     13       8.4295      0.00000
     14      10.5953      0.00000
     15      13.4984      0.00000
     16      14.0887      0.00000
     17      16.3741      0.00000
     18      16.4219      0.00000
     19      18.8707      0.00000
     20      19.5771      0.00000
     21      19.8389      0.00000
     22      21.0506      0.00000
     23      21.7754      0.00000
     24      23.7602      0.00000
     25      24.1570      0.00000
     26      25.6642      0.00000
     27      27.7874      0.00000
     28      28.6686      0.00000
     29      29.0720      0.00000
     30      29.6788      0.00000
     31      30.2394      0.00000
     32      30.2646      0.00000
     33      30.9114      0.00000
     34      31.6434      0.00000
     35      32.6537      0.00000
     36      33.7234      0.00000

 k-point   174 :      -0.1333    0.1333    0.1333
  band No.  band energies     occupation 
      1     -19.1374      2.00000
      2     -19.1349      2.00000
      3     -19.1283      2.00000
      4     -19.1274      2.00000
      5     -19.1230      2.00000
      6      -6.6721      2.00000
      7      -1.0529      2.00000
      8       3.3320      2.00000
      9       3.3872      2.00000
     10       4.6080      2.00000
     11       6.9394      0.00000
     12       8.3229      0.00000
     13       8.8532      0.00000
     14      10.5040      0.00000
     15      12.7116      0.00000
     16      13.2598      0.00000
     17      15.2944      0.00000
     18      15.4880      0.00000
     19      17.4132      0.00000
     20      18.8731      0.00000
     21      21.3345      0.00000
     22      21.8152      0.00000
     23      22.8116      0.00000
     24      23.4642      0.00000
     25      24.0404      0.00000
     26      26.8250      0.00000
     27      28.3885      0.00000
     28      28.9363      0.00000
     29      29.7452      0.00000
     30      29.8993      0.00000
     31      30.6151      0.00000
     32      30.8039      0.00000
     33      31.1655      0.00000
     34      32.3543      0.00000
     35      33.1463      0.00000
     36      33.4834      0.00000

 k-point   175 :       0.2000    0.2000    0.1333
  band No.  band energies     occupation 
      1     -19.1367      2.00000
      2     -19.1363      2.00000
      3     -19.1275      2.00000
      4     -19.1271      2.00000
      5     -19.1239      2.00000
      6      -7.0230      2.00000
      7      -0.5735      2.00000
      8       3.7748      2.00000
      9       3.8571      2.00000
     10       5.0430      2.00000
     11       7.2368      0.00000
     12       8.4024      0.00000
     13       8.5522      0.00000
     14      11.1426      0.00000
     15      12.0520      0.00000
     16      12.5342      0.00000
     17      14.4126      0.00000
     18      14.7154      0.00000
     19      15.3323      0.00000
     20      16.3760      0.00000
     21      21.3444      0.00000
     22      21.6220      0.00000
     23      23.3508      0.00000
     24      26.7168      0.00000
     25      26.8803      0.00000
     26      28.0759      0.00000
     27      28.1224      0.00000
     28      28.5705      0.00000
     29      29.4801      0.00000
     30      30.1823      0.00000
     31      30.5392      0.00000
     32      31.4149      0.00000
     33      31.7004      0.00000
     34      32.3690      0.00000
     35      32.4868      0.00000
     36      33.7164      0.00000

 k-point   176 :       0.2667    0.2000    0.1333
  band No.  band energies     occupation 
      1     -19.1369      2.00000
      2     -19.1362      2.00000
      3     -19.1275      2.00000
      4     -19.1270      2.00000
      5     -19.1237      2.00000
      6      -6.8812      2.00000
      7      -0.8778      2.00000
      8       3.1838      2.00000
      9       4.0122      2.00000
     10       5.3466      2.00000
     11       6.8678      0.00000
     12       8.0372      0.00000
     13       9.0319      0.00000
     14      11.0569      0.00000
     15      12.3184      0.00000
     16      13.0325      0.00000
     17      14.1584      0.00000
     18      15.4874      0.00000
     19      16.1215      0.00000
     20      17.3541      0.00000
     21      19.9300      0.00000
     22      21.7293      0.00000
     23      23.5275      0.00000
     24      25.3188      0.00000
     25      26.2980      0.00000
     26      27.0492      0.00000
     27      27.6931      0.00000
     28      28.9032      0.00000
     29      29.4297      0.00000
     30      30.4243      0.00000
     31      31.0217      0.00000
     32      31.2279      0.00000
     33      32.0286      0.00000
     34      32.3301      0.00000
     35      32.6678      0.00000
     36      33.4118      0.00000

 k-point   177 :       0.3333    0.2000    0.1333
  band No.  band energies     occupation 
      1     -19.1371      2.00000
      2     -19.1361      2.00000
      3     -19.1276      2.00000
      4     -19.1270      2.00000
      5     -19.1233      2.00000
      6      -6.6607      2.00000
      7      -1.2744      2.00000
      8       2.6475      2.00000
      9       4.0478      2.00000
     10       5.3760      2.00000
     11       6.8330      0.00000
     12       7.6352      0.00000
     13       9.4168      0.00000
     14      11.0576      0.00000
     15      12.5932      0.00000
     16      13.6771      0.00000
     17      14.3705      0.00000
     18      16.4208      0.00000
     19      17.3294      0.00000
     20      17.8059      0.00000
     21      19.2828      0.00000
     22      21.9671      0.00000
     23      23.5468      0.00000
     24      23.9811      0.00000
     25      25.2742      0.00000
     26      25.8616      0.00000
     27      27.7221      0.00000
     28      28.1224      0.00000
     29      29.4173      0.00000
     30      30.1240      0.00000
     31      30.7146      0.00000
     32      31.2233      0.00000
     33      31.7332      0.00000
     34      32.1822      0.00000
     35      32.5495      0.00000
     36      33.2135      0.00000

 k-point   178 :       0.4000    0.2000    0.1333
  band No.  band energies     occupation 
      1     -19.1373      2.00000
      2     -19.1358      2.00000
      3     -19.1277      2.00000
      4     -19.1271      2.00000
      5     -19.1229      2.00000
      6      -6.3738      2.00000
      7      -1.7475      2.00000
      8       2.2753      2.00000
      9       3.8759      2.00000
     10       5.3023      2.00000
     11       6.8019      0.00000
     12       7.5049      0.00000
     13       9.5831      0.00000
     14      11.1573      0.00000
     15      13.0567      0.00000
     16      14.4411      0.00000
     17      15.0551      0.00000
     18      16.1879      0.00000
     19      18.2074      0.00000
     20      18.8418      0.00000
     21      20.1085      0.00000
     22      21.7372      0.00000
     23      22.8726      0.00000
     24      23.5315      0.00000
     25      24.2118      0.00000
     26      25.1488      0.00000
     27      27.0523      0.00000
     28      27.9824      0.00000
     29      28.2142      0.00000
     30      29.7866      0.00000
     31      30.3269      0.00000
     32      30.9267      0.00000
     33      31.3661      0.00000
     34      31.5401      0.00000
     35      32.2927      0.00000
     36      33.1530      0.00000

 k-point   179 :       0.4667    0.2000    0.1333
  band No.  band energies     occupation 
      1     -19.1377      2.00000
      2     -19.1354      2.00000
      3     -19.1277      2.00000
      4     -19.1272      2.00000
      5     -19.1225      2.00000
      6      -6.0455      2.00000
      7      -2.2528      2.00000
      8       2.0918      2.00000
      9       3.5787      2.00000
     10       5.2073      2.00000
     11       6.6313      0.00000
     12       7.6879      0.00000
     13       9.4055      0.00000
     14      11.6475      0.00000
     15      13.7583      0.00000
     16      14.6611      0.00000
     17      15.3408      0.00000
     18      16.4279      0.00000
     19      19.2724      0.00000
     20      20.1068      0.00000
     21      20.6534      0.00000
     22      21.5174      0.00000
     23      22.2016      0.00000
     24      23.1541      0.00000
     25      23.6475      0.00000
     26      25.2041      0.00000
     27      26.0325      0.00000
     28      26.7673      0.00000
     29      28.3072      0.00000
     30      28.7163      0.00000
     31      29.5345      0.00000
     32      30.3829      0.00000
     33      30.9823      0.00000
     34      31.2115      0.00000
     35      31.9881      0.00000
     36      32.3237      0.00000

 k-point   180 :      -0.4667    0.2000    0.1333
  band No.  band energies     occupation 
      1     -19.1380      2.00000
      2     -19.1350      2.00000
      3     -19.1278      2.00000
      4     -19.1273      2.00000
      5     -19.1222      2.00000
      6      -5.7299      2.00000
      7      -2.7025      2.00000
      8       2.0864      2.00000
      9       3.2705      2.00000
     10       5.0277      2.00000
     11       6.5799      0.00000
     12       7.9455      0.00000
     13       9.0440      0.00000
     14      12.4737      0.00000
     15      13.5466      0.00000
     16      14.6572      0.00000
     17      16.2818      0.00000
     18      17.3090      0.00000
     19      19.0250      0.00000
     20      20.2157      0.00000
     21      21.2267      0.00000
     22      21.7157      0.00000
     23      22.4105      0.00000
     24      23.1266      0.00000
     25      24.1883      0.00000
     26      24.7766      0.00000
     27      25.4239      0.00000
     28      26.1231      0.00000
     29      27.4695      0.00000
     30      27.8741      0.00000
     31      28.7026      0.00000
     32      29.1852      0.00000
     33      30.6674      0.00000
     34      31.2777      0.00000
     35      31.9040      0.00000
     36      32.2241      0.00000

 k-point   181 :      -0.4000    0.2000    0.1333
  band No.  band energies     occupation 
      1     -19.1382      2.00000
      2     -19.1347      2.00000
      3     -19.1280      2.00000
      4     -19.1272      2.00000
      5     -19.1220      2.00000
      6      -5.5345      2.00000
      7      -2.9567      2.00000
      8       2.2337      2.00000
      9       3.0154      2.00000
     10       4.7694      2.00000
     11       6.6960      0.00000
     12       8.2065      0.00000
     13       8.6683      0.00000
     14      12.4545      0.00000
     15      13.5685      0.00000
     16      15.6813      0.00000
     17      16.8506      0.00000
     18      17.3490      0.00000
     19      18.6870      0.00000
     20      20.1024      0.00000
     21      20.3161      0.00000
     22      22.3944      0.00000
     23      23.0434      0.00000
     24      23.9132      0.00000
     25      24.1508      0.00000
     26      24.9677      0.00000
     27      25.3393      0.00000
     28      25.9925      0.00000
     29      26.5357      0.00000
     30      26.9205      0.00000
     31      27.6868      0.00000
     32      29.0294      0.00000
     33      30.7499      0.00000
     34      31.3093      0.00000
     35      32.0259      0.00000
     36      32.2902      0.00000

 k-point   182 :      -0.3333    0.2000    0.1333
  band No.  band energies     occupation 
      1     -19.1383      2.00000
      2     -19.1345      2.00000
      3     -19.1282      2.00000
      4     -19.1272      2.00000
      5     -19.1220      2.00000
      6      -5.5773      2.00000
      7      -2.8782      2.00000
      8       2.4959      2.00000
      9       2.8548      2.00000
     10       4.4835      2.00000
     11       6.9376      0.00000
     12       8.2343      0.00000
     13       8.5557      0.00000
     14      11.6080      0.00000
     15      14.7112      0.00000
     16      15.7678      0.00000
     17      16.6784      0.00000
     18      17.6657      0.00000
     19      18.3973      0.00000
     20      19.1725      0.00000
     21      21.1818      0.00000
     22      21.5884      0.00000
     23      23.1183      0.00000
     24      23.7595      0.00000
     25      24.4672      0.00000
     26      25.0455      0.00000
     27      25.3193      0.00000
     28      25.8802      0.00000
     29      26.7150      0.00000
     30      27.1702      0.00000
     31      28.1270      0.00000
     32      29.0163      0.00000
     33      31.0730      0.00000
     34      31.4729      0.00000
     35      32.2007      0.00000
     36      32.2630      0.00000

 k-point   183 :      -0.2667    0.2000    0.1333
  band No.  band energies     occupation 
      1     -19.1383      2.00000
      2     -19.1344      2.00000
      3     -19.1283      2.00000
      4     -19.1272      2.00000
      5     -19.1221      2.00000
      6      -5.8272      2.00000
      7      -2.4946      2.00000
      8       2.6717      2.00000
      9       2.9759      2.00000
     10       4.2086      2.00000
     11       7.2646      0.00000
     12       7.9437      0.00000
     13       8.7786      0.00000
     14      10.9963      0.00000
     15      14.6820      0.00000
     16      15.8315      0.00000
     17      16.2527      0.00000
     18      17.2917      0.00000
     19      18.6035      0.00000
     20      19.4823      0.00000
     21      20.5770      0.00000
     22      21.6308      0.00000
     23      22.3576      0.00000
     24      23.1516      0.00000
     25      24.1185      0.00000
     26      24.9493      0.00000
     27      25.9864      0.00000
     28      26.4192      0.00000
     29      27.6293      0.00000
     30      28.4451      0.00000
     31      28.8078      0.00000
     32      29.7398      0.00000
     33      31.4795      0.00000
     34      31.6392      0.00000
     35      32.1430      0.00000
     36      32.5328      0.00000

 k-point   184 :      -0.2000    0.2000    0.1333
  band No.  band energies     occupation 
      1     -19.1380      2.00000
      2     -19.1344      2.00000
      3     -19.1284      2.00000
      4     -19.1273      2.00000
      5     -19.1224      2.00000
      6      -6.1551      2.00000
      7      -1.9496      2.00000
      8       2.7059      2.00000
      9       3.3738      2.00000
     10       4.0088      2.00000
     11       7.5552      0.00000
     12       7.7548      0.00000
     13       8.9601      0.00000
     14      10.6679      0.00000
     15      13.7690      0.00000
     16      15.1512      0.00000
     17      15.8697      0.00000
     18      17.0528      0.00000
     19      18.8296      0.00000
     20      19.7883      0.00000
     21      20.1716      0.00000
     22      21.4020      0.00000
     23      21.7410      0.00000
     24      23.0366      0.00000
     25      24.2098      0.00000
     26      24.7543      0.00000
     27      27.1943      0.00000
     28      27.5342      0.00000
     29      28.3212      0.00000
     30      28.8330      0.00000
     31      29.9545      0.00000
     32      31.0056      0.00000
     33      31.3108      0.00000
     34      31.6112      0.00000
     35      32.7477      0.00000
     36      33.3457      0.00000

 k-point   185 :      -0.1333    0.2000    0.1333
  band No.  band energies     occupation 
      1     -19.1377      2.00000
      2     -19.1347      2.00000
      3     -19.1284      2.00000
      4     -19.1273      2.00000
      5     -19.1228      2.00000
      6      -6.4736      2.00000
      7      -1.3661      2.00000
      8       2.8146      2.00000
      9       3.5164      2.00000
     10       4.1987      2.00000
     11       7.3405      0.00000
     12       8.0939      0.00000
     13       9.0904      0.00000
     14      10.5539      0.00000
     15      13.0907      0.00000
     16      14.1325      0.00000
     17      14.9896      0.00000
     18      16.4243      0.00000
     19      18.3072      0.00000
     20      19.3802      0.00000
     21      20.5805      0.00000
     22      21.3485      0.00000
     23      22.5254      0.00000
     24      23.1416      0.00000
     25      24.0593      0.00000
     26      25.7386      0.00000
     27      27.4436      0.00000
     28      28.7264      0.00000
     29      29.1512      0.00000
     30      29.6679      0.00000
     31      30.3420      0.00000
     32      30.9271      0.00000
     33      31.4959      0.00000
     34      32.2537      0.00000
     35      33.3301      0.00000
     36      33.5394      0.00000

 k-point   186 :       0.2667    0.2667    0.1333
  band No.  band energies     occupation 
      1     -19.1372      2.00000
      2     -19.1360      2.00000
      3     -19.1277      2.00000
      4     -19.1268      2.00000
      5     -19.1235      2.00000
      6      -6.7750      2.00000
      7      -1.0622      2.00000
      8       3.2360      2.00000
      9       3.5151      2.00000
     10       5.1294      2.00000
     11       7.0352      0.00000
     12       8.5938      0.00000
     13       8.8524      0.00000
     14      10.7931      0.00000
     15      12.9110      0.00000
     16      13.4919      0.00000
     17      14.6546      0.00000
     18      14.9481      0.00000
     19      16.4968      0.00000
     20      18.2499      0.00000
     21      19.9110      0.00000
     22      20.4844      0.00000
     23      23.7019      0.00000
     24      25.1754      0.00000
     25      25.2393      0.00000
     26      26.3135      0.00000
     27      28.1966      0.00000
     28      28.6373      0.00000
     29      29.4619      0.00000
     30      29.9660      0.00000
     31      31.1947      0.00000
     32      31.3955      0.00000
     33      31.4418      0.00000
     34      32.1550      0.00000
     35      32.7124      0.00000
     36      33.2541      0.00000

 k-point   187 :       0.3333    0.2667    0.1333
  band No.  band energies     occupation 
      1     -19.1374      2.00000
      2     -19.1358      2.00000
      3     -19.1278      2.00000
      4     -19.1267      2.00000
      5     -19.1233      2.00000
      6      -6.5910      2.00000
      7      -1.3291      2.00000
      8       2.7158      2.00000
      9       3.5040      2.00000
     10       4.7602      2.00000
     11       7.4767      0.00000
     12       8.3652      0.00000
     13       9.2242      0.00000
     14      10.7970      0.00000
     15      13.3600      0.00000
     16      14.0444      0.00000
     17      14.5904      0.00000
     18      15.6953      0.00000
     19      17.3714      0.00000
     20      18.1525      0.00000
     21      19.6760      0.00000
     22      20.7648      0.00000
     23      23.6221      0.00000
     24      24.0924      0.00000
     25      24.4688      0.00000
     26      25.9598      0.00000
     27      27.3489      0.00000
     28      28.5216      0.00000
     29      28.9519      0.00000
     30      29.9051      0.00000
     31      30.2691      0.00000
     32      30.8975      0.00000
     33      31.5255      0.00000
     34      32.6684      0.00000
     35      33.1658      0.00000
     36      33.5742      0.00000

 k-point   188 :       0.4000    0.2667    0.1333
  band No.  band energies     occupation 
      1     -19.1376      2.00000
      2     -19.1356      2.00000
      3     -19.1279      2.00000
      4     -19.1267      2.00000
      5     -19.1229      2.00000
      6      -6.3395      2.00000
      7      -1.6715      2.00000
      8       2.2332      2.00000
      9       3.2927      2.00000
     10       4.6573      2.00000
     11       7.5968      0.00000
     12       8.3271      0.00000
     13       9.5499      0.00000
     14      10.8838      0.00000
     15      13.7225      0.00000
     16      14.7098      0.00000
     17      15.0137      0.00000
     18      16.1152      0.00000
     19      17.5624      0.00000
     20      18.6656      0.00000
     21      20.4117      0.00000
     22      21.1537      0.00000
     23      22.6264      0.00000
     24      23.3418      0.00000
     25      24.2222      0.00000
     26      25.8120      0.00000
     27      26.5018      0.00000
     28      27.2816      0.00000
     29      28.0621      0.00000
     30      29.6684      0.00000
     31      30.0806      0.00000
     32      30.3971      0.00000
     33      31.8433      0.00000
     34      32.1416      0.00000
     35      32.7604      0.00000
     36      33.7277      0.00000

 k-point   189 :       0.4667    0.2667    0.1333
  band No.  band energies     occupation 
      1     -19.1378      2.00000
      2     -19.1354      2.00000
      3     -19.1279      2.00000
      4     -19.1268      2.00000
      5     -19.1225      2.00000
      6      -6.0407      2.00000
      7      -2.0722      2.00000
      8       1.9249      2.00000
      9       2.9104      2.00000
     10       4.7587      2.00000
     11       7.2692      0.00000
     12       8.6588      0.00000
     13       9.8217      0.00000
     14      10.9379      0.00000
     15      14.3230      0.00000
     16      14.7903      0.00000
     17      15.7678      0.00000
     18      15.9419      0.00000
     19      18.4624      0.00000
     20      19.9401      0.00000
     21      20.5648      0.00000
     22      21.1523      0.00000
     23      22.2607      0.00000
     24      22.9966      0.00000
     25      23.9723      0.00000
     26      25.3635      0.00000
     27      25.8514      0.00000
     28      26.6137      0.00000
     29      26.9892      0.00000
     30      29.3261      0.00000
     31      29.5616      0.00000
     32      30.0138      0.00000
     33      31.0245      0.00000
     34      31.7880      0.00000
     35      32.0966      0.00000
     36      33.1725      0.00000

 k-point   190 :      -0.4667    0.2667    0.1333
  band No.  band energies     occupation 
      1     -19.1380      2.00000
      2     -19.1352      2.00000
      3     -19.1280      2.00000
      4     -19.1269      2.00000
      5     -19.1222      2.00000
      6      -5.7349      2.00000
      7      -2.4757      2.00000
      8       1.8108      2.00000
      9       2.5403      2.00000
     10       4.8806      2.00000
     11       6.9206      0.00000
     12       8.9944      0.00000
     13       9.7594      0.00000
     14      11.3840      0.00000
     15      13.7191      0.00000
     16      15.1747      0.00000
     17      16.6557      0.00000
     18      16.8426      0.00000
     19      18.7804      0.00000
     20      20.0552      0.00000
     21      20.8475      0.00000
     22      21.5382      0.00000
     23      22.4742      0.00000
     24      22.7245      0.00000
     25      24.1999      0.00000
     26      24.5054      0.00000
     27      25.4938      0.00000
     28      26.1192      0.00000
     29      27.0031      0.00000
     30      28.3649      0.00000
     31      28.8561      0.00000
     32      29.2348      0.00000
     33      30.4208      0.00000
     34      30.6251      0.00000
     35      31.8272      0.00000
     36      33.0422      0.00000

 k-point   191 :      -0.4000    0.2667    0.1333
  band No.  band energies     occupation 
      1     -19.1381      2.00000
      2     -19.1349      2.00000
      3     -19.1280      2.00000
      4     -19.1271      2.00000
      5     -19.1220      2.00000
      6      -5.5012      2.00000
      7      -2.7745      2.00000
      8       1.8732      2.00000
      9       2.2583      2.00000
     10       4.9268      2.00000
     11       6.6934      0.00000
     12       9.2307      0.00000
     13       9.4858      0.00000
     14      12.1944      0.00000
     15      12.7521      0.00000
     16      16.1389      0.00000
     17      16.8210      0.00000
     18      17.6819      0.00000
     19      18.8008      0.00000
     20      19.7963      0.00000
     21      20.5983      0.00000
     22      21.9115      0.00000
     23      22.7420      0.00000
     24      23.2300      0.00000
     25      23.8874      0.00000
     26      24.4019      0.00000
     27      25.6270      0.00000
     28      26.5158      0.00000
     29      26.7818      0.00000
     30      27.4403      0.00000
     31      27.6942      0.00000
     32      28.5607      0.00000
     33      29.7566      0.00000
     34      30.3514      0.00000
     35      31.9043      0.00000
     36      33.0737      0.00000

 k-point   192 :      -0.3333    0.2667    0.1333
  band No.  band energies     occupation 
      1     -19.1382      2.00000
      2     -19.1347      2.00000
      3     -19.1281      2.00000
      4     -19.1272      2.00000
      5     -19.1219      2.00000
      6      -5.4502      2.00000
      7      -2.8334      2.00000
      8       2.0039      2.00000
      9       2.1762      2.00000
     10       4.8303      2.00000
     11       6.6700      0.00000
     12       9.0122      0.00000
     13       9.5276      0.00000
     14      11.8575      0.00000
     15      13.3617      0.00000
     16      15.8250      0.00000
     17      16.9653      0.00000
     18      18.4558      0.00000
     19      18.9431      0.00000
     20      19.3220      0.00000
     21      20.5645      0.00000
     22      21.8622      0.00000
     23      22.5650      0.00000
     24      23.6520      0.00000
     25      23.8976      0.00000
     26      24.6699      0.00000
     27      25.6577      0.00000
     28      26.2393      0.00000
     29      26.6087      0.00000
     30      27.1007      0.00000
     31      27.8381      0.00000
     32      28.3839      0.00000
     33      29.7669      0.00000
     34      30.5862      0.00000
     35      32.0780      0.00000
     36      33.3127      0.00000

 k-point   193 :      -0.2667    0.2667    0.1333
  band No.  band energies     occupation 
      1     -19.1382      2.00000
      2     -19.1346      2.00000
      3     -19.1283      2.00000
      4     -19.1272      2.00000
      5     -19.1220      2.00000
      6      -5.6151      2.00000
      7      -2.6104      2.00000
      8       1.9936      2.00000
      9       2.4960      2.00000
     10       4.5918      2.00000
     11       6.8574      0.00000
     12       8.6475      0.00000
     13       9.5748      0.00000
     14      11.3483      0.00000
     15      14.5107      0.00000
     16      14.8340      0.00000
     17      16.6890      0.00000
     18      17.9618      0.00000
     19      19.0595      0.00000
     20      20.0518      0.00000
     21      20.9319      0.00000
     22      21.4710      0.00000
     23      22.0300      0.00000
     24      22.8678      0.00000
     25      24.7199      0.00000
     26      25.0744      0.00000
     27      25.2214      0.00000
     28      25.5932      0.00000
     29      27.0699      0.00000
     30      27.3763      0.00000
     31      28.3805      0.00000
     32      29.7869      0.00000
     33      30.2695      0.00000
     34      31.2212      0.00000
     35      32.1530      0.00000
     36      33.2576      0.00000

 k-point   194 :      -0.2000    0.2667    0.1333
  band No.  band energies     occupation 
      1     -19.1381      2.00000
      2     -19.1345      2.00000
      3     -19.1284      2.00000
      4     -19.1272      2.00000
      5     -19.1222      2.00000
      6      -5.9019      2.00000
      7      -2.2093      2.00000
      8       2.0894      2.00000
      9       2.9566      2.00000
     10       4.2799      2.00000
     11       7.1976      0.00000
     12       8.2755      0.00000
     13       9.4891      0.00000
     14      11.0568      0.00000
     15      14.0190      0.00000
     16      15.2657      0.00000
     17      16.2184      0.00000
     18      16.8353      0.00000
     19      19.3896      0.00000
     20      20.2533      0.00000
     21      20.7969      0.00000
     22      21.1561      0.00000
     23      21.8176      0.00000
     24      22.9753      0.00000
     25      23.9581      0.00000
     26      24.8972      0.00000
     27      26.0971      0.00000
     28      26.4292      0.00000
     29      27.3673      0.00000
     30      27.7706      0.00000
     31      29.7100      0.00000
     32      30.7532      0.00000
     33      31.2363      0.00000
     34      31.8501      0.00000
     35      32.5599      0.00000
     36      32.8625      0.00000

 k-point   195 :      -0.1333    0.2667    0.1333
  band No.  band energies     occupation 
      1     -19.1378      2.00000
      2     -19.1347      2.00000
      3     -19.1284      2.00000
      4     -19.1272      2.00000
      5     -19.1224      2.00000
      6      -6.2114      2.00000
      7      -1.7556      2.00000
      8       2.3358      2.00000
      9       3.4286      2.00000
     10       4.0313      2.00000
     11       7.6098      0.00000
     12       7.9081      0.00000
     13       9.3711      0.00000
     14      10.7602      0.00000
     15      13.5181      0.00000
     16      14.7817      0.00000
     17      15.4586      0.00000
     18      16.9898      0.00000
     19      18.8381      0.00000
     20      19.4820      0.00000
     21      20.1004      0.00000
     22      21.4048      0.00000
     23      22.6946      0.00000
     24      23.2748      0.00000
     25      24.2044      0.00000
     26      24.7126      0.00000
     27      26.2704      0.00000
     28      27.7155      0.00000
     29      28.1862      0.00000
     30      28.7660      0.00000
     31      30.5672      0.00000
     32      30.9442      0.00000
     33      31.1407      0.00000
     34      32.3805      0.00000
     35      32.9265      0.00000
     36      33.8092      0.00000

 k-point   196 :       0.3333    0.3333    0.1333
  band No.  band energies     occupation 
      1     -19.1378      2.00000
      2     -19.1356      2.00000
      3     -19.1280      2.00000
      4     -19.1264      2.00000
      5     -19.1231      2.00000
      6      -6.4467      2.00000
      7      -1.4648      2.00000
      8       2.5766      2.00000
      9       3.1604      2.00000
     10       4.1515      2.00000
     11       8.1867      0.00000
     12       8.7246      0.00000
     13       9.2386      0.00000
     14      10.6527      0.00000
     15      14.1260      0.00000
     16      14.5172      0.00000
     17      15.1774      0.00000
     18      15.2620      0.00000
     19      17.8042      0.00000
     20      18.5017      0.00000
     21      18.6681      0.00000
     22      21.2474      0.00000
     23      23.3540      0.00000
     24      23.7992      0.00000
     25      23.9144      0.00000
     26      24.8582      0.00000
     27      28.1935      0.00000
     28      28.2239      0.00000
     29      28.6416      0.00000
     30      29.0832      0.00000
     31      30.0327      0.00000
     32      30.1426      0.00000
     33      31.0233      0.00000
     34      32.7723      0.00000
     35      33.3470      0.00000
     36      33.6657      0.00000

 k-point   197 :       0.4000    0.3333    0.1333
  band No.  band energies     occupation 
      1     -19.1381      2.00000
      2     -19.1353      2.00000
      3     -19.1281      2.00000
      4     -19.1264      2.00000
      5     -19.1228      2.00000
      6      -6.2369      2.00000
      7      -1.6722      2.00000
      8       2.1444      2.00000
      9       2.8941      2.00000
     10       3.9409      2.00000
     11       8.3901      0.00000
     12       9.0234      0.00000
     13       9.4028      0.00000
     14      10.8251      0.00000
     15      14.4746      0.00000
     16      14.9977      0.00000
     17      15.5277      0.00000
     18      15.9170      0.00000
     19      17.3867      0.00000
     20      18.6669      0.00000
     21      19.2056      0.00000
     22      21.5550      0.00000
     23      22.5247      0.00000
     24      23.0374      0.00000
     25      24.1640      0.00000
     26      24.7866      0.00000
     27      26.8407      0.00000
     28      27.5120      0.00000
     29      28.2882      0.00000
     30      28.7692      0.00000
     31      29.6123      0.00000
     32      29.9944      0.00000
     33      31.3143      0.00000
     34      32.3778      0.00000
     35      33.2511      0.00000
     36      33.7649      0.00000

 k-point   198 :       0.4667    0.3333    0.1333
  band No.  band energies     occupation 
      1     -19.1382      2.00000
      2     -19.1352      2.00000
      3     -19.1282      2.00000
      4     -19.1264      2.00000
      5     -19.1224      2.00000
      6      -5.9787      2.00000
      7      -1.9446      2.00000
      8       1.7778      2.00000
      9       2.4213      2.00000
     10       4.1160      2.00000
     11       8.1110      0.00000
     12       9.4035      0.00000
     13       9.7277      0.00000
     14      10.9922      0.00000
     15      14.7436      0.00000
     16      15.1333      0.00000
     17      15.9415      0.00000
     18      16.3670      0.00000
     19      17.6990      0.00000
     20      19.3541      0.00000
     21      20.2934      0.00000
     22      20.6362      0.00000
     23      21.4157      0.00000
     24      23.8972      0.00000
     25      24.4845      0.00000
     26      24.7669      0.00000
     27      25.2485      0.00000
     28      26.6370      0.00000
     29      27.7508      0.00000
     30      28.0488      0.00000
     31      29.1947      0.00000
     32      30.2524      0.00000
     33      31.2823      0.00000
     34      31.9164      0.00000
     35      32.3359      0.00000
     36      33.1214      0.00000

 k-point   199 :      -0.4667    0.3333    0.1333
  band No.  band energies     occupation 
      1     -19.1383      2.00000
      2     -19.1351      2.00000
      3     -19.1282      2.00000
      4     -19.1266      2.00000
      5     -19.1222      2.00000
      6      -5.7033      2.00000
      7      -2.2578      2.00000
      8       1.5716      2.00000
      9       1.9913      2.00000
     10       4.3674      2.00000
     11       7.6959      0.00000
     12       9.7829      0.00000
     13      10.1397      0.00000
     14      10.9626      0.00000
     15      14.0567      0.00000
     16      15.5576      0.00000
     17      16.6614      0.00000
     18      17.2179      0.00000
     19      18.4608      0.00000
     20      19.4877      0.00000
     21      20.0103      0.00000
     22      20.6365      0.00000
     23      22.0064      0.00000
     24      23.6176      0.00000
     25      24.1466      0.00000
     26      24.7961      0.00000
     27      25.0808      0.00000
     28      26.1735      0.00000
     29      26.9729      0.00000
     30      27.7988      0.00000
     31      28.8166      0.00000
     32      29.8817      0.00000
     33      30.5657      0.00000
     34      31.0000      0.00000
     35      31.6610      0.00000
     36      32.1675      0.00000

 k-point   200 :      -0.4000    0.3333    0.1333
  band No.  band energies     occupation 
      1     -19.1382      2.00000
      2     -19.1350      2.00000
      3     -19.1281      2.00000
      4     -19.1268      2.00000
      5     -19.1219      2.00000
      6      -5.4664      2.00000
      7      -2.5461      2.00000
      8       1.4954      2.00000
      9       1.7381      2.00000
     10       4.5993      2.00000
     11       7.2639      0.00000
     12      10.0098      0.00000
     13      10.3516      0.00000
     14      11.2205      0.00000
     15      13.1112      0.00000
     16      16.4578      0.00000
     17      16.9664      0.00000
     18      18.0466      0.00000
     19      18.3695      0.00000
     20      19.3171      0.00000
     21      20.4899      0.00000
     22      21.1537      0.00000
     23      22.2232      0.00000
     24      23.0163      0.00000
     25      23.9703      0.00000
     26      24.8273      0.00000
     27      25.3795      0.00000
     28      25.9420      0.00000
     29      27.1355      0.00000
     30      27.7287      0.00000
     31      28.1087      0.00000
     32      28.7375      0.00000
     33      29.8173      0.00000
     34      30.1874      0.00000
     35      31.1063      0.00000
     36      32.0827      0.00000

 k-point   201 :      -0.3333    0.3333    0.1333
  band No.  band energies     occupation 
      1     -19.1382      2.00000
      2     -19.1349      2.00000
      3     -19.1281      2.00000
      4     -19.1270      2.00000
      5     -19.1218      2.00000
      6      -5.3512      2.00000
      7      -2.7072      2.00000
      8       1.4105      2.00000
      9       1.8177      2.00000
     10       4.7589      2.00000
     11       6.9041      0.00000
     12       9.7664      0.00000
     13      10.4212      0.00000
     14      11.9605      0.00000
     15      12.4812      0.00000
     16      16.0164      0.00000
     17      17.1317      0.00000
     18      18.4564      0.00000
     19      19.0658      0.00000
     20      19.6835      0.00000
     21      20.8216      0.00000
     22      20.9730      0.00000
     23      22.3251      0.00000
     24      22.8444      0.00000
     25      23.9439      0.00000
     26      25.2935      0.00000
     27      25.4641      0.00000
     28      25.7385      0.00000
     29      26.8495      0.00000
     30      27.4651      0.00000
     31      27.6286      0.00000
     32      28.7346      0.00000
     33      29.1414      0.00000
     34      30.1269      0.00000
     35      31.0210      0.00000
     36      32.4079      0.00000

 k-point   202 :      -0.2667    0.3333    0.1333
  band No.  band energies     occupation 
      1     -19.1381      2.00000
      2     -19.1348      2.00000
      3     -19.1282      2.00000
      4     -19.1272      2.00000
      5     -19.1218      2.00000
      6      -5.4186      2.00000
      7      -2.6675      2.00000
      8       1.4207      2.00000
      9       2.1236      2.00000
     10       4.7548      2.00000
     11       6.7339      0.00000
     12       9.3652      0.00000
     13      10.2841      0.00000
     14      11.8571      0.00000
     15      13.2018      0.00000
     16      15.1385      0.00000
     17      16.5979      0.00000
     18      19.0261      0.00000
     19      19.6619      0.00000
     20      19.9404      0.00000
     21      20.5056      0.00000
     22      20.9833      0.00000
     23      22.5577      0.00000
     24      23.5470      0.00000
     25      24.1111      0.00000
     26      24.2167      0.00000
     27      25.1360      0.00000
     28      25.8759      0.00000
     29      26.7640      0.00000
     30      27.2387      0.00000
     31      27.9598      0.00000
     32      28.7771      0.00000
     33      30.1452      0.00000
     34      30.5988      0.00000
     35      31.4920      0.00000
     36      32.5060      0.00000

 k-point   203 :      -0.2000    0.3333    0.1333
  band No.  band energies     occupation 
      1     -19.1379      2.00000
      2     -19.1348      2.00000
      3     -19.1283      2.00000
      4     -19.1272      2.00000
      5     -19.1220      2.00000
      6      -5.6336      2.00000
      7      -2.4614      2.00000
      8       1.6026      2.00000
      9       2.5694      2.00000
     10       4.5224      2.00000
     11       6.8456      0.00000
     12       8.9064      0.00000
     13      10.0317      0.00000
     14      11.4300      0.00000
     15      14.3339      0.00000
     16      14.5106      0.00000
     17      16.0140      0.00000
     18      18.0793      0.00000
     19      19.2212      0.00000
     20      20.3865      0.00000
     21      21.1906      0.00000
     22      21.7086      0.00000
     23      22.2581      0.00000
     24      22.6776      0.00000
     25      24.2544      0.00000
     26      24.9138      0.00000
     27      25.3799      0.00000
     28      25.6727      0.00000
     29      26.4878      0.00000
     30      27.1492      0.00000
     31      28.8296      0.00000
     32      29.9451      0.00000
     33      30.8778      0.00000
     34      31.4176      0.00000
     35      32.3037      0.00000
     36      32.4741      0.00000

 k-point   204 :      -0.1333    0.3333    0.1333
  band No.  band energies     occupation 
      1     -19.1378      2.00000
      2     -19.1348      2.00000
      3     -19.1283      2.00000
      4     -19.1272      2.00000
      5     -19.1222      2.00000
      6      -5.9092      2.00000
      7      -2.1813      2.00000
      8       1.9684      2.00000
      9       3.1034      2.00000
     10       4.1614      2.00000
     11       7.1898      0.00000
     12       8.3936      0.00000
     13       9.7406      0.00000
     14      10.9148      0.00000
     15      14.0311      0.00000
     16      15.0772      0.00000
     17      16.2386      0.00000
     18      16.7819      0.00000
     19      18.6625      0.00000
     20      19.6482      0.00000
     21      20.9964      0.00000
     22      22.0622      0.00000
     23      22.9038      0.00000
     24      23.2557      0.00000
     25      23.5693      0.00000
     26      24.8131      0.00000
     27      25.6415      0.00000
     28      26.6606      0.00000
     29      27.2376      0.00000
     30      27.6877      0.00000
     31      29.7896      0.00000
     32      30.4217      0.00000
     33      31.1521      0.00000
     34      31.8587      0.00000
     35      32.2792      0.00000
     36      33.0090      0.00000

 k-point   205 :       0.4000    0.4000    0.1333
  band No.  band energies     occupation 
      1     -19.1385      2.00000
      2     -19.1350      2.00000
      3     -19.1283      2.00000
      4     -19.1262      2.00000
      5     -19.1225      2.00000
      6      -6.0744      2.00000
      7      -1.7469      2.00000
      8       1.7801      2.00000
      9       2.8517      2.00000
     10       3.3618      2.00000
     11       8.5314      0.00000
     12       9.6494      0.00000
     13       9.7436      0.00000
     14      10.8035      0.00000
     15      15.1640      0.00000
     16      15.4802      0.00000
     17      15.6845      0.00000
     18      16.2845      0.00000
     19      17.6025      0.00000
     20      17.7433      0.00000
     21      19.4604      0.00000
     22      21.0813      0.00000
     23      22.4674      0.00000
     24      22.6009      0.00000
     25      23.9821      0.00000
     26      24.8178      0.00000
     27      26.4861      0.00000
     28      26.6080      0.00000
     29      28.2331      0.00000
     30      29.1073      0.00000
     31      29.2530      0.00000
     32      29.9998      0.00000
     33      30.6827      0.00000
     34      31.3795      0.00000
     35      33.1420      0.00000
     36      34.4555      0.00000

 k-point   206 :       0.4667    0.4000    0.1333
  band No.  band energies     occupation 
      1     -19.1387      2.00000
      2     -19.1348      2.00000
      3     -19.1284      2.00000
      4     -19.1261      2.00000
      5     -19.1223      2.00000
      6      -5.8669      2.00000
      7      -1.8896      2.00000
      8       1.3976      2.00000
      9       2.4323      2.00000
     10       3.4434      2.00000
     11       8.4974      0.00000
     12       9.5531      0.00000
     13      10.4565      0.00000
     14      11.0735      0.00000
     15      15.1562      0.00000
     16      15.5641      0.00000
     17      16.3987      0.00000
     18      16.9029      0.00000
     19      17.3221      0.00000
     20      18.1972      0.00000
     21      20.1091      0.00000
     22      20.5641      0.00000
     23      21.0946      0.00000
     24      22.9139      0.00000
     25      24.4737      0.00000
     26      24.8057      0.00000
     27      25.4366      0.00000
     28      26.3013      0.00000
     29      27.7748      0.00000
     30      28.7482      0.00000
     31      28.8315      0.00000
     32      29.9729      0.00000
     33      30.3724      0.00000
     34      31.5220      0.00000
     35      33.2161      0.00000
     36      33.7007      0.00000

 k-point   207 :      -0.4667    0.4000    0.1333
  band No.  band energies     occupation 
      1     -19.1388      2.00000
      2     -19.1347      2.00000
      3     -19.1285      2.00000
      4     -19.1262      2.00000
      5     -19.1220      2.00000
      6      -5.6397      2.00000
      7      -2.0912      2.00000
      8       1.1324      2.00000
      9       1.9508      2.00000
     10       3.7675      2.00000
     11       8.3911      0.00000
     12       9.4641      0.00000
     13      10.9604      0.00000
     14      11.2625      0.00000
     15      14.5429      0.00000
     16      15.5930      0.00000
     17      17.2173      0.00000
     18      17.7173      0.00000
     19      17.9776      0.00000
     20      18.7958      0.00000
     21      19.3997      0.00000
     22      19.9440      0.00000
     23      21.9067      0.00000
     24      23.0774      0.00000
     25      23.3881      0.00000
     26      24.8012      0.00000
     27      25.8020      0.00000
     28      26.0517      0.00000
     29      27.2936      0.00000
     30      27.8861      0.00000
     31      28.5527      0.00000
     32      29.6430      0.00000
     33      30.5331      0.00000
     34      31.6773      0.00000
     35      32.2330      0.00000
     36      32.3175      0.00000

 k-point   208 :      -0.4000    0.4000    0.1333
  band No.  band energies     occupation 
      1     -19.1386      2.00000
      2     -19.1348      2.00000
      3     -19.1284      2.00000
      4     -19.1265      2.00000
      5     -19.1218      2.00000
      6      -5.4320      2.00000
      7      -2.3241      2.00000
      8       0.9902      2.00000
      9       1.6644      2.00000
     10       4.0979      2.00000
     11       7.9860      0.00000
     12       9.8227      0.00000
     13      11.0964      0.00000
     14      11.2998      0.00000
     15      13.6493      0.00000
     16      16.2921      0.00000
     17      17.4054      0.00000
     18      18.1438      0.00000
     19      18.4426      0.00000
     20      19.0772      0.00000
     21      19.7493      0.00000
     22      20.1430      0.00000
     23      21.5415      0.00000
     24      23.3412      0.00000
     25      23.8824      0.00000
     26      24.5694      0.00000
     27      25.4874      0.00000
     28      25.7642      0.00000
     29      26.7127      0.00000
     30      28.2273      0.00000
     31      28.3589      0.00000
     32      29.4864      0.00000
     33      29.9047      0.00000
     34      30.3093      0.00000
     35      31.2679      0.00000
     36      32.1338      0.00000

 k-point   209 :      -0.3333    0.4000    0.1333
  band No.  band energies     occupation 
      1     -19.1383      2.00000
      2     -19.1349      2.00000
      3     -19.1283      2.00000
      4     -19.1268      2.00000
      5     -19.1217      2.00000
      6      -5.2973      2.00000
      7      -2.5325      2.00000
      8       0.9467      2.00000
      9       1.6469      2.00000
     10       4.3926      2.00000
     11       7.4506      0.00000
     12      10.2320      0.00000
     13      11.1182      0.00000
     14      11.2756      0.00000
     15      12.9480      0.00000
     16      16.3846      0.00000
     17      17.1291      0.00000
     18      17.9963      0.00000
     19      19.1683      0.00000
     20      19.8630      0.00000
     21      20.2305      0.00000
     22      20.9446      0.00000
     23      21.2757      0.00000
     24      23.2677      0.00000
     25      23.8162      0.00000
     26      24.9721      0.00000
     27      25.3418      0.00000
     28      25.9709      0.00000
     29      26.2924      0.00000
     30      27.5722      0.00000
     31      28.5857      0.00000
     32      28.7875      0.00000
     33      29.4173      0.00000
     34      30.0760      0.00000
     35      30.5699      0.00000
     36      32.1663      0.00000

 k-point   210 :      -0.2667    0.4000    0.1333
  band No.  band energies     occupation 
      1     -19.1380      2.00000
      2     -19.1350      2.00000
      3     -19.1282      2.00000
      4     -19.1271      2.00000
      5     -19.1217      2.00000
      6      -5.2863      2.00000
      7      -2.6535      2.00000
      8       1.0315      2.00000
      9       1.8756      2.00000
     10       4.6010      2.00000
     11       6.9590      0.00000
     12      10.0026      0.00000
     13      10.9506      0.00000
     14      11.9447      0.00000
     15      12.3765      0.00000
     16      15.6809      0.00000
     17      16.8035      0.00000
     18      18.6423      0.00000
     19      18.9619      0.00000
     20      20.2497      0.00000
     21      21.0812      0.00000
     22      21.2976      0.00000
     23      22.4366      0.00000
     24      22.9124      0.00000
     25      23.7057      0.00000
     26      24.4059      0.00000
     27      25.4311      0.00000
     28      25.8245      0.00000
     29      26.5623      0.00000
     30      27.5329      0.00000
     31      27.8723      0.00000
     32      28.5971      0.00000
     33      29.0888      0.00000
     34      30.3331      0.00000
     35      31.3680      0.00000
     36      31.9600      0.00000

 k-point   211 :      -0.2000    0.4000    0.1333
  band No.  band energies     occupation 
      1     -19.1378      2.00000
      2     -19.1351      2.00000
      3     -19.1281      2.00000
      4     -19.1273      2.00000
      5     -19.1218      2.00000
      6      -5.4070      2.00000
      7      -2.6608      2.00000
      8       1.2905      2.00000
      9       2.2881      2.00000
     10       4.6010      2.00000
     11       6.7018      0.00000
     12       9.4924      0.00000
     13      10.5419      0.00000
     14      11.7311      0.00000
     15      13.1506      0.00000
     16      15.0945      0.00000
     17      16.5225      0.00000
     18      18.1033      0.00000
     19      19.0547      0.00000
     20      20.5551      0.00000
     21      21.3542      0.00000
     22      22.0841      0.00000
     23      22.4296      0.00000
     24      23.6307      0.00000
     25      23.9720      0.00000
     26      24.2758      0.00000
     27      24.8243      0.00000
     28      25.7452      0.00000
     29      26.6961      0.00000
     30      27.0964      0.00000
     31      27.7455      0.00000
     32      28.9136      0.00000
     33      29.9651      0.00000
     34      30.6449      0.00000
     35      31.9051      0.00000
     36      32.4115      0.00000

 k-point   212 :      -0.1333    0.4000    0.1333
  band No.  band energies     occupation 
      1     -19.1377      2.00000
      2     -19.1351      2.00000
      3     -19.1282      2.00000
      4     -19.1273      2.00000
      5     -19.1219      2.00000
      6      -5.6142      2.00000
      7      -2.5765      2.00000
      8       1.7294      2.00000
      9       2.8311      2.00000
     10       4.3174      2.00000
     11       6.8188      0.00000
     12       8.8646      0.00000
     13       9.9251      0.00000
     14      11.3120      0.00000
     15      14.3701      0.00000
     16      14.6594      0.00000
     17      16.5476      0.00000
     18      17.5365      0.00000
     19      17.9966      0.00000
     20      20.7607      0.00000
     21      21.2590      0.00000
     22      22.1843      0.00000
     23      22.9880      0.00000
     24      23.2353      0.00000
     25      23.9988      0.00000
     26      25.0872      0.00000
     27      25.4883      0.00000
     28      25.9505      0.00000
     29      26.6262      0.00000
     30      26.9103      0.00000
     31      28.3254      0.00000
     32      29.5051      0.00000
     33      30.2817      0.00000
     34      31.1095      0.00000
     35      32.2939      0.00000
     36      32.7017      0.00000

 k-point   213 :       0.4667    0.4667    0.1333
  band No.  band energies     occupation 
      1     -19.1391      2.00000
      2     -19.1345      2.00000
      3     -19.1286      2.00000
      4     -19.1260      2.00000
      5     -19.1221      2.00000
      6      -5.7190      2.00000
      7      -1.9113      2.00000
      8       1.0061      2.00000
      9       2.6244      2.00000
     10       2.8952      2.00000
     11       8.3959      0.00000
     12       9.9970      0.00000
     13      10.8867      0.00000
     14      11.3046      0.00000
     15      15.6811      0.00000
     16      15.7674      0.00000
     17      16.6524      0.00000
     18      16.8888      0.00000
     19      17.5327      0.00000
     20      18.2125      0.00000
     21      19.4397      0.00000
     22      20.9619      0.00000
     23      21.2947      0.00000
     24      21.5605      0.00000
     25      24.1583      0.00000
     26      24.5449      0.00000
     27      25.0091      0.00000
     28      26.5397      0.00000
     29      28.2349      0.00000
     30      28.3418      0.00000
     31      29.0894      0.00000
     32      29.7154      0.00000
     33      30.2010      0.00000
     34      30.9384      0.00000
     35      33.0376      0.00000
     36      34.4351      0.00000

 k-point   214 :      -0.4667    0.4667    0.1333
  band No.  band energies     occupation 
      1     -19.1392      2.00000
      2     -19.1344      2.00000
      3     -19.1287      2.00000
      4     -19.1260      2.00000
      5     -19.1219      2.00000
      6      -5.5561      2.00000
      7      -2.0058      2.00000
      8       0.7521      2.00000
      9       2.1868      2.00000
     10       3.1590      2.00000
     11       8.4140      0.00000
     12       9.7885      0.00000
     13      11.2372      0.00000
     14      11.7508      0.00000
     15      15.1569      0.00000
     16      15.8137      0.00000
     17      17.0536      0.00000
     18      17.4932      0.00000
     19      18.1923      0.00000
     20      18.7028      0.00000
     21      19.1663      0.00000
     22      19.9313      0.00000
     23      21.6108      0.00000
     24      22.3267      0.00000
     25      22.7909      0.00000
     26      24.1820      0.00000
     27      24.9772      0.00000
     28      27.2707      0.00000
     29      27.7119      0.00000
     30      28.0197      0.00000
     31      28.7346      0.00000
     32      29.4316      0.00000
     33      30.3981      0.00000
     34      31.5282      0.00000
     35      32.6834      0.00000
     36      33.2609      0.00000

 k-point   215 :      -0.4000    0.4667    0.1333
  band No.  band energies     occupation 
      1     -19.1391      2.00000
      2     -19.1344      2.00000
      3     -19.1286      2.00000
      4     -19.1262      2.00000
      5     -19.1217      2.00000
      6      -5.4057      2.00000
      7      -2.1624      2.00000
      8       0.6573      2.00000
      9       1.7960      2.00000
     10       3.5592      2.00000
     11       8.4576      0.00000
     12       9.4722      0.00000
     13      11.4176      0.00000
     14      11.9423      0.00000
     15      14.2792      0.00000
     16      16.0919      0.00000
     17      17.5142      0.00000
     18      18.0484      0.00000
     19      18.4888      0.00000
     20      18.9272      0.00000
     21      19.5456      0.00000
     22      19.9728      0.00000
     23      21.1423      0.00000
     24      22.1021      0.00000
     25      23.6927      0.00000
     26      24.2377      0.00000
     27      24.8550      0.00000
     28      26.6021      0.00000
     29      27.1386      0.00000
     30      27.6338      0.00000
     31      28.8473      0.00000
     32      29.6573      0.00000
     33      30.6438      0.00000
     34      31.3013      0.00000
     35      32.0201      0.00000
     36      32.3317      0.00000

 k-point   216 :      -0.3333    0.4667    0.1333
  band No.  band energies     occupation 
      1     -19.1387      2.00000
      2     -19.1346      2.00000
      3     -19.1285      2.00000
      4     -19.1265      2.00000
      5     -19.1217      2.00000
      6      -5.2986      2.00000
      7      -2.3596      2.00000
      8       0.7022      2.00000
      9       1.6408      2.00000
     10       3.9432      2.00000
     11       8.0312      0.00000
     12       9.7695      0.00000
     13      11.3021      0.00000
     14      11.8007      0.00000
     15      13.5117      0.00000
     16      16.6154      0.00000
     17      17.0863      0.00000
     18      17.7005      0.00000
     19      19.1679      0.00000
     20      19.4938      0.00000
     21      20.0690      0.00000
     22      20.6782      0.00000
     23      20.9876      0.00000
     24      22.3707      0.00000
     25      24.1858      0.00000
     26      24.4691      0.00000
     27      25.4604      0.00000
     28      25.6962      0.00000
     29      26.6118      0.00000
     30      27.0435      0.00000
     31      28.9634      0.00000
     32      29.5923      0.00000
     33      30.0754      0.00000
     34      30.8396      0.00000
     35      31.1562      0.00000
     36      31.8974      0.00000

 k-point   217 :      -0.2667    0.4667    0.1333
  band No.  band energies     occupation 
      1     -19.1382      2.00000
      2     -19.1349      2.00000
      3     -19.1283      2.00000
      4     -19.1269      2.00000
      5     -19.1217      2.00000
      6      -5.2602      2.00000
      7      -2.5636      2.00000
      8       0.8689      2.00000
      9       1.7639      2.00000
     10       4.2770      2.00000
     11       7.3733      0.00000
     12      10.2555      0.00000
     13      11.2067      0.00000
     14      11.3847      0.00000
     15      12.8634      0.00000
     16      16.3141      0.00000
     17      17.2146      0.00000
     18      17.7328      0.00000
     19      18.2658      0.00000
     20      20.4766      0.00000
     21      20.9267      0.00000
     22      21.6763      0.00000
     23      22.0407      0.00000
     24      22.5856      0.00000
     25      23.4772      0.00000
     26      24.8255      0.00000
     27      25.1829      0.00000
     28      25.7733      0.00000
     29      26.4161      0.00000
     30      27.4573      0.00000
     31      28.0321      0.00000
     32      28.8700      0.00000
     33      29.6569      0.00000
     34      30.3586      0.00000
     35      30.9806      0.00000
     36      31.9943      0.00000

 k-point   218 :      -0.2000    0.4667    0.1333
  band No.  band energies     occupation 
      1     -19.1377      2.00000
      2     -19.1352      2.00000
      3     -19.1281      2.00000
      4     -19.1272      2.00000
      5     -19.1217      2.00000
      6      -5.3019      2.00000
      7      -2.7330      2.00000
      8       1.1697      2.00000
      9       2.1337      2.00000
     10       4.4878      2.00000
     11       6.8105      0.00000
     12       9.9640      0.00000
     13      10.6457      0.00000
     14      11.9929      0.00000
     15      12.4360      0.00000
     16      15.7105      0.00000
     17      17.0877      0.00000
     18      17.5724      0.00000
     19      18.4452      0.00000
     20      20.8549      0.00000
     21      21.6750      0.00000
     22      21.8681      0.00000
     23      22.7818      0.00000
     24      23.1754      0.00000
     25      23.8704      0.00000
     26      24.5404      0.00000
     27      25.3485      0.00000
     28      25.6179      0.00000
     29      26.1959      0.00000
     30      27.2383      0.00000
     31      27.7698      0.00000
     32      28.4610      0.00000
     33      29.6196      0.00000
     34      29.7016      0.00000
     35      31.7670      0.00000
     36      32.5053      0.00000

 k-point   219 :      -0.1333    0.4667    0.1333
  band No.  band energies     occupation 
      1     -19.1375      2.00000
      2     -19.1353      2.00000
      3     -19.1280      2.00000
      4     -19.1274      2.00000
      5     -19.1218      2.00000
      6      -5.4145      2.00000
      7      -2.8326      2.00000
      8       1.6144      2.00000
      9       2.6844      2.00000
     10       4.4181      2.00000
     11       6.6029      0.00000
     12       9.2370      0.00000
     13       9.8029      0.00000
     14      12.1311      0.00000
     15      13.2757      0.00000
     16      15.2603      0.00000
     17      16.2910      0.00000
     18      17.9182      0.00000
     19      18.7719      0.00000
     20      20.2403      0.00000
     21      21.0249      0.00000
     22      22.4227      0.00000
     23      23.5658      0.00000
     24      24.0071      0.00000
     25      24.3062      0.00000
     26      24.9892      0.00000
     27      25.1789      0.00000
     28      25.6755      0.00000
     29      26.6610      0.00000
     30      26.8863      0.00000
     31      27.5026      0.00000
     32      28.1911      0.00000
     33      28.9447      0.00000
     34      31.0224      0.00000
     35      32.3721      0.00000
     36      32.7705      0.00000

 k-point   220 :      -0.4667   -0.4667    0.1333
  band No.  band energies     occupation 
      1     -19.1395      2.00000
      2     -19.1341      2.00000
      3     -19.1288      2.00000
      4     -19.1260      2.00000
      5     -19.1217      2.00000
      6      -5.4694      2.00000
      7      -2.0090      2.00000
      8       0.5514      2.00000
      9       2.4975      2.00000
     10       2.6529      2.00000
     11       8.2749      0.00000
     12      10.1750      0.00000
     13      11.1060      0.00000
     14      12.1890      0.00000
     15      15.6317      0.00000
     16      16.1010      0.00000
     17      16.4587      0.00000
     18      17.2703      0.00000
     19      18.5031      0.00000
     20      19.0129      0.00000
     21      19.7313      0.00000
     22      20.2533      0.00000
     23      20.4327      0.00000
     24      22.4720      0.00000
     25      22.6777      0.00000
     26      23.0212      0.00000
     27      24.8002      0.00000
     28      26.6105      0.00000
     29      28.2808      0.00000
     30      28.5188      0.00000
     31      29.1645      0.00000
     32      29.9042      0.00000
     33      30.3831      0.00000
     34      31.0250      0.00000
     35      31.8542      0.00000
     36      34.3015      0.00000

 k-point   221 :      -0.4000   -0.4667    0.1333
  band No.  band energies     occupation 
      1     -19.1394      2.00000
      2     -19.1340      2.00000
      3     -19.1288      2.00000
      4     -19.1261      2.00000
      5     -19.1217      2.00000
      6      -5.3982      2.00000
      7      -2.0883      2.00000
      8       0.5416      2.00000
      9       2.0977      2.00000
     10       3.0248      2.00000
     11       8.3351      0.00000
     12       9.8278      0.00000
     13      11.3110      0.00000
     14      12.2323      0.00000
     15      15.0261      0.00000
     16      16.0907      0.00000
     17      17.1087      0.00000
     18      17.7015      0.00000
     19      18.4753      0.00000
     20      18.9540      0.00000
     21      20.0574      0.00000
     22      20.4479      0.00000
     23      20.8306      0.00000
     24      21.2844      0.00000
     25      22.6862      0.00000
     26      24.0117      0.00000
     27      24.6103      0.00000
     28      25.9000      0.00000
     29      27.7918      0.00000
     30      28.8065      0.00000
     31      29.1940      0.00000
     32      30.1248      0.00000
     33      30.5162      0.00000
     34      31.2150      0.00000
     35      31.8396      0.00000
     36      33.2186      0.00000

 k-point   222 :      -0.3333   -0.4667    0.1333
  band No.  band energies     occupation 
      1     -19.1391      2.00000
      2     -19.1342      2.00000
      3     -19.1287      2.00000
      4     -19.1263      2.00000
      5     -19.1216      2.00000
      6      -5.3564      2.00000
      7      -2.2266      2.00000
      8       0.6921      2.00000
      9       1.8103      2.00000
     10       3.4774      2.00000
     11       8.3889      0.00000
     12       9.3994      0.00000
     13      11.4410      0.00000
     14      11.8826      0.00000
     15      14.3189      0.00000
     16      16.1326      0.00000
     17      17.5474      0.00000
     18      17.8251      0.00000
     19      18.5762      0.00000
     20      19.3372      0.00000
     21      19.5584      0.00000
     22      20.7548      0.00000
     23      21.3073      0.00000
     24      21.9063      0.00000
     25      23.1195      0.00000
     26      24.2902      0.00000
     27      24.8404      0.00000
     28      26.0807      0.00000
     29      26.7993      0.00000
     30      27.7248      0.00000
     31      29.5148      0.00000
     32      29.8367      0.00000
     33      30.6693      0.00000
     34      31.4658      0.00000
     35      31.8229      0.00000
     36      32.3828      0.00000

 k-point   223 :      -0.2667   -0.4667    0.1333
  band No.  band energies     occupation 
      1     -19.1386      2.00000
      2     -19.1346      2.00000
      3     -19.1285      2.00000
      4     -19.1267      2.00000
      5     -19.1217      2.00000
      6      -5.3482      2.00000
      7      -2.4124      2.00000
      8       0.9405      2.00000
      9       1.8002      2.00000
     10       3.9018      2.00000
     11       7.8364      0.00000
     12       9.7403      0.00000
     13      11.2013      0.00000
     14      11.3081      0.00000
     15      13.7749      0.00000
     16      16.3890      0.00000
     17      16.8124      0.00000
     18      17.7797      0.00000
     19      18.4958      0.00000
     20      19.7586      0.00000
     21      20.3198      0.00000
     22      21.1052      0.00000
     23      22.3822      0.00000
     24      22.8813      0.00000
     25      23.7177      0.00000
     26      24.1071      0.00000
     27      24.9139      0.00000
     28      25.4204      0.00000
     29      26.7525      0.00000
     30      27.6100      0.00000
     31      28.6896      0.00000
     32      29.4058      0.00000
     33      30.2978      0.00000
     34      31.0017      0.00000
     35      31.2842      0.00000
     36      32.2981      0.00000

 k-point   224 :      -0.2000   -0.4667    0.1333
  band No.  band energies     occupation 
      1     -19.1379      2.00000
      2     -19.1350      2.00000
      3     -19.1283      2.00000
      4     -19.1271      2.00000
      5     -19.1218      2.00000
      6      -5.3699      2.00000
      7      -2.6268      2.00000
      8       1.2370      2.00000
      9       2.1178      2.00000
     10       4.2534      2.00000
     11       7.1103      0.00000
     12      10.1283      0.00000
     13      10.3575      0.00000
     14      11.2661      0.00000
     15      13.4294      0.00000
     16      15.9277      0.00000
     17      16.8933      0.00000
     18      17.2087      0.00000
     19      18.6012      0.00000
     20      20.2444      0.00000
     21      21.2368      0.00000
     22      21.8536      0.00000
     23      23.0376      0.00000
     24      23.6503      0.00000
     25      23.9632      0.00000
     26      24.3106      0.00000
     27      24.8842      0.00000
     28      25.4327      0.00000
     29      26.0911      0.00000
     30      27.4857      0.00000
     31      28.1662      0.00000
     32      29.0404      0.00000
     33      29.7582      0.00000
     34      30.1516      0.00000
     35      31.8659      0.00000
     36      32.4825      0.00000

 k-point   225 :      -0.4000   -0.4000    0.1333
  band No.  band energies     occupation 
      1     -19.1395      2.00000
      2     -19.1339      2.00000
      3     -19.1289      2.00000
      4     -19.1261      2.00000
      5     -19.1216      2.00000
      6      -5.4172      2.00000
      7      -2.0877      2.00000
      8       0.6307      2.00000
      9       2.4798      2.00000
     10       2.5795      2.00000
     11       8.2183      0.00000
     12      10.1182      0.00000
     13      11.0109      0.00000
     14      12.0444      0.00000
     15      15.6321      0.00000
     16      16.0874      0.00000
     17      16.8809      0.00000
     18      17.4706      0.00000
     19      18.6465      0.00000
     20      19.3187      0.00000
     21      19.3763      0.00000
     22      20.9016      0.00000
     23      21.0102      0.00000
     24      21.4802      0.00000
     25      22.0433      0.00000
     26      23.9944      0.00000
     27      24.4512      0.00000
     28      25.4807      0.00000
     29      28.3790      0.00000
     30      29.1230      0.00000
     31      29.5967      0.00000
     32      30.0721      0.00000
     33      30.4444      0.00000
     34      30.8106      0.00000
     35      31.8476      0.00000
     36      34.1997      0.00000

 k-point   226 :      -0.3333   -0.4000    0.1333
  band No.  band energies     occupation 
      1     -19.1393      2.00000
      2     -19.1339      2.00000
      3     -19.1289      2.00000
      4     -19.1262      2.00000
      5     -19.1217      2.00000
      6      -5.4614      2.00000
      7      -2.1357      2.00000
      8       0.8815      2.00000
      9       2.1474      2.00000
     10       3.0227      2.00000
     11       8.3020      0.00000
     12       9.6517      0.00000
     13      11.1521      0.00000
     14      11.5125      0.00000
     15      15.3197      0.00000
     16      15.9027      0.00000
     17      17.3213      0.00000
     18      17.7091      0.00000
     19      18.4098      0.00000
     20      19.2674      0.00000
     21      19.4700      0.00000
     22      20.2780      0.00000
     23      21.6236      0.00000
     24      22.2687      0.00000
     25      22.9197      0.00000
     26      23.4618      0.00000
     27      24.3044      0.00000
     28      26.3321      0.00000
     29      27.7342      0.00000
     30      28.3178      0.00000
     31      29.3018      0.00000
     32      30.1143      0.00000
     33      30.6048      0.00000
     34      31.6499      0.00000
     35      32.6422      0.00000
     36      33.2630      0.00000

 k-point   227 :      -0.2667   -0.4000    0.1333
  band No.  band energies     occupation 
      1     -19.1389      2.00000
      2     -19.1342      2.00000
      3     -19.1287      2.00000
      4     -19.1265      2.00000
      5     -19.1218      2.00000
      6      -5.5193      2.00000
      7      -2.2301      2.00000
      8       1.2144      2.00000
      9       1.9948      2.00000
     10       3.5173      2.00000
     11       8.2111      0.00000
     12       9.3113      0.00000
     13      10.7508      0.00000
     14      11.2759      0.00000
     15      14.8557      0.00000
     16      15.7012      0.00000
     17      16.6804      0.00000
     18      18.1643      0.00000
     19      18.5122      0.00000
     20      19.0672      0.00000
     21      20.0442      0.00000
     22      20.6351      0.00000
     23      22.5163      0.00000
     24      22.9047      0.00000
     25      23.4058      0.00000
     26      24.0406      0.00000
     27      24.1711      0.00000
     28      26.2235      0.00000
     29      27.4917      0.00000
     30      27.8297      0.00000
     31      28.2467      0.00000
     32      30.4331      0.00000
     33      30.9856      0.00000
     34      31.8454      0.00000
     35      32.2517      0.00000
     36      32.6945      0.00000

 k-point   228 :      -0.2000   -0.4000    0.1333
  band No.  band energies     occupation 
      1     -19.1382      2.00000
      2     -19.1347      2.00000
      3     -19.1285      2.00000
      4     -19.1269      2.00000
      5     -19.1219      2.00000
      6      -5.5749      2.00000
      7      -2.3803      2.00000
      8       1.4794      2.00000
      9       2.2455      2.00000
     10       3.9713      2.00000
     11       7.5152      0.00000
     12       9.7363      0.00000
     13       9.8847      0.00000
     14      11.1045      0.00000
     15      14.5597      0.00000
     16      15.3621      0.00000
     17      16.2490      0.00000
     18      17.8712      0.00000
     19      18.1497      0.00000
     20      19.9691      0.00000
     21      20.8284      0.00000
     22      21.5127      0.00000
     23      22.5621      0.00000
     24      23.7365      0.00000
     25      24.0779      0.00000
     26      24.5478      0.00000
     27      24.7574      0.00000
     28      25.1764      0.00000
     29      26.8390      0.00000
     30      27.1472      0.00000
     31      29.0004      0.00000
     32      29.8873      0.00000
     33      30.7802      0.00000
     34      31.4448      0.00000
     35      32.0981      0.00000
     36      32.4644      0.00000

 k-point   229 :      -0.3333   -0.3333    0.1333
  band No.  band energies     occupation 
      1     -19.1393      2.00000
      2     -19.1338      2.00000
      3     -19.1289      2.00000
      4     -19.1263      2.00000
      5     -19.1218      2.00000
      6      -5.5934      2.00000
      7      -2.0742      2.00000
      8       1.2170      2.00000
      9       2.5719      2.00000
     10       2.6581      2.00000
     11       8.2300      0.00000
     12       9.8650      0.00000
     13      10.7110      0.00000
     14      10.9207      0.00000
     15      15.8037      0.00000
     16      15.9222      0.00000
     17      16.7797      0.00000
     18      17.5457      0.00000
     19      18.3141      0.00000
     20      18.8644      0.00000
     21      19.9007      0.00000
     22      20.7460      0.00000
     23      21.1264      0.00000
     24      22.4203      0.00000
     25      23.2030      0.00000
     26      23.9277      0.00000
     27      24.0493      0.00000
     28      26.9693      0.00000
     29      27.1923      0.00000
     30      28.5106      0.00000
     31      29.8916      0.00000
     32      30.3772      0.00000
     33      30.5863      0.00000
     34      31.2548      0.00000
     35      33.1140      0.00000
     36      34.0400      0.00000

 k-point   230 :      -0.2667   -0.3333    0.1333
  band No.  band energies     occupation 
      1     -19.1390      2.00000
      2     -19.1340      2.00000
      3     -19.1288      2.00000
      4     -19.1265      2.00000
      5     -19.1219      2.00000
      6      -5.7266      2.00000
      7      -2.0469      2.00000
      8       1.6298      2.00000
      9       2.3479      2.00000
     10       3.1477      2.00000
     11       8.2895      0.00000
     12       9.3885      0.00000
     13      10.1195      0.00000
     14      10.8992      0.00000
     15      15.2138      0.00000
     16      15.9596      0.00000
     17      16.2466      0.00000
     18      17.4390      0.00000
     19      18.4083      0.00000
     20      19.3707      0.00000
     21      19.7213      0.00000
     22      21.2132      0.00000
     23      21.7352      0.00000
     24      22.0807      0.00000
     25      23.7121      0.00000
     26      24.3546      0.00000
     27      24.9698      0.00000
     28      25.9249      0.00000
     29      27.8870      0.00000
     30      28.3441      0.00000
     31      29.1938      0.00000
     32      30.5382      0.00000
     33      31.3087      0.00000
     34      31.9112      0.00000
     35      33.3272      0.00000
     36      33.4982      0.00000

 k-point   231 :      -0.2000   -0.3333    0.1333
  band No.  band energies     occupation 
      1     -19.1384      2.00000
      2     -19.1344      2.00000
      3     -19.1286      2.00000
      4     -19.1269      2.00000
      5     -19.1220      2.00000
      6      -5.8377      2.00000
      7      -2.0770      2.00000
      8       1.8742      2.00000
      9       2.5135      2.00000
     10       3.6793      2.00000
     11       7.9339      0.00000
     12       9.2763      0.00000
     13       9.3335      0.00000
     14      10.9971      0.00000
     15      14.6604      0.00000
     16      15.3322      0.00000
     17      16.1540      0.00000
     18      17.0506      0.00000
     19      18.8773      0.00000
     20      19.1776      0.00000
     21      20.7806      0.00000
     22      21.1705      0.00000
     23      22.1185      0.00000
     24      23.2775      0.00000
     25      23.6564      0.00000
     26      24.6781      0.00000
     27      25.4856      0.00000
     28      26.0005      0.00000
     29      26.9366      0.00000
     30      28.2222      0.00000
     31      29.5564      0.00000
     32      30.6931      0.00000
     33      31.6875      0.00000
     34      32.2218      0.00000
     35      32.6321      0.00000
     36      32.9437      0.00000

 k-point   232 :      -0.2667   -0.2667    0.1333
  band No.  band energies     occupation 
      1     -19.1388      2.00000
      2     -19.1340      2.00000
      3     -19.1288      2.00000
      4     -19.1267      2.00000
      5     -19.1221      2.00000
      6      -5.9289      2.00000
      7      -1.8882      2.00000
      8       2.1124      2.00000
      9       2.7667      2.00000
     10       2.9137      2.00000
     11       8.2817      0.00000
     12       9.4037      0.00000
     13       9.5167      0.00000
     14      10.5024      0.00000
     15      15.1826      0.00000
     16      15.2723      0.00000
     17      16.2284      0.00000
     18      16.9366      0.00000
     19      18.6767      0.00000
     20      19.1851      0.00000
     21      20.4086      0.00000
     22      20.9942      0.00000
     23      21.2830      0.00000
     24      22.5792      0.00000
     25      23.5003      0.00000
     26      24.7781      0.00000
     27      25.5386      0.00000
     28      26.0234      0.00000
     29      28.6259      0.00000
     30      28.8623      0.00000
     31      29.8819      0.00000
     32      30.2875      0.00000
     33      31.3042      0.00000
     34      32.0452      0.00000
     35      33.5403      0.00000
     36      33.6532      0.00000

 k-point   233 :      -0.2000   -0.2667    0.1333
  band No.  band energies     occupation 
      1     -19.1384      2.00000
      2     -19.1343      2.00000
      3     -19.1286      2.00000
      4     -19.1269      2.00000
      5     -19.1223      2.00000
      6      -6.0967      2.00000
      7      -1.7818      2.00000
      8       2.3797      2.00000
      9       2.8850      2.00000
     10       3.4299      2.00000
     11       8.2109      0.00000
     12       8.6641      0.00000
     13       9.1941      0.00000
     14      10.6452      0.00000
     15      14.2500      0.00000
     16      15.1780      0.00000
     17      15.7306      0.00000
     18      16.7960      0.00000
     19      18.7590      0.00000
     20      19.8046      0.00000
     21      20.1777      0.00000
     22      20.7062      0.00000
     23      22.3699      0.00000
     24      22.9124      0.00000
     25      23.6629      0.00000
     26      24.2240      0.00000
     27      26.5330      0.00000
     28      27.0380      0.00000
     29      27.9072      0.00000
     30      29.2420      0.00000
     31      30.0046      0.00000
     32      30.5911      0.00000
     33      31.9784      0.00000
     34      32.4969      0.00000
     35      32.7972      0.00000
     36      33.7442      0.00000

 k-point   234 :      -0.2000   -0.2000    0.1333
  band No.  band energies     occupation 
      1     -19.1381      2.00000
      2     -19.1344      2.00000
      3     -19.1285      2.00000
      4     -19.1271      2.00000
      5     -19.1225      2.00000
      6      -6.3154      2.00000
      7      -1.5349      2.00000
      8       2.8842      2.00000
      9       3.0482      2.00000
     10       3.6033      2.00000
     11       7.9651      0.00000
     12       8.3516      0.00000
     13       9.1618      0.00000
     14      10.3838      0.00000
     15      13.9468      0.00000
     16      14.2754      0.00000
     17      15.9001      0.00000
     18      15.9676      0.00000
     19      18.9217      0.00000
     20      19.8341      0.00000
     21      19.9061      0.00000
     22      21.3677      0.00000
     23      22.2523      0.00000
     24      22.6150      0.00000
     25      23.6042      0.00000
     26      24.8646      0.00000
     27      27.6223      0.00000
     28      28.0300      0.00000
     29      28.7644      0.00000
     30      29.3132      0.00000
     31      30.3527      0.00000
     32      30.8159      0.00000
     33      31.7082      0.00000
     34      32.2355      0.00000
     35      32.9613      0.00000
     36      33.6550      0.00000

 k-point   235 :       0.2000    0.2000    0.2000
  band No.  band energies     occupation 
      1     -19.1366      2.00000
      2     -19.1366      2.00000
      3     -19.1272      2.00000
      4     -19.1272      2.00000
      5     -19.1239      2.00000
      6      -6.9982      2.00000
      7      -0.7633      2.00000
      8       4.1338      2.00000
      9       4.1338      2.00000
     10       4.6359      2.00000
     11       7.9189      0.00000
     12       7.9189      0.00000
     13       7.9528      0.00000
     14      11.3401      0.00000
     15      12.2394      0.00000
     16      12.2394      0.00000
     17      15.2425      0.00000
     18      15.2425      0.00000
     19      15.3537      0.00000
     20      15.7879      0.00000
     21      21.4540      0.00000
     22      21.4540      0.00000
     23      21.8944      0.00000
     24      27.4754      0.00000
     25      27.4754      0.00000
     26      28.0347      0.00000
     27      28.9159      0.00000
     28      28.9159      0.00000
     29      29.3083      0.00000
     30      29.4676      0.00000
     31      29.4676      0.00000
     32      31.0944      0.00000
     33      31.6663      0.00000
     34      32.2336      0.00000
     35      32.2336      0.00000
     36      34.8866      0.00000

 k-point   236 :       0.2667    0.2000    0.2000
  band No.  band energies     occupation 
      1     -19.1367      2.00000
      2     -19.1367      2.00000
      3     -19.1272      2.00000
      4     -19.1270      2.00000
      5     -19.1238      2.00000
      6      -6.8888      2.00000
      7      -1.0260      2.00000
      8       3.5146      2.00000
      9       4.3484      2.00000
     10       5.1061      2.00000
     11       7.3692      0.00000
     12       7.3751      0.00000
     13       8.6703      0.00000
     14      11.3950      0.00000
     15      12.1067      0.00000
     16      12.9065      0.00000
     17      14.6538      0.00000
     18      15.9775      0.00000
     19      16.2752      0.00000
     20      16.5168      0.00000
     21      19.9737      0.00000
     22      21.6649      0.00000
     23      21.9612      0.00000
     24      26.4400      0.00000
     25      26.9807      0.00000
     26      27.0474      0.00000
     27      28.4712      0.00000
     28      29.0184      0.00000
     29      29.2260      0.00000
     30      30.0673      0.00000
     31      30.0778      0.00000
     32      30.9231      0.00000
     33      31.6871      0.00000
     34      32.4310      0.00000
     35      32.8993      0.00000
     36      33.6705      0.00000

 k-point   237 :       0.3333    0.2000    0.2000
  band No.  band energies     occupation 
      1     -19.1369      2.00000
      2     -19.1365      2.00000
      3     -19.1273      2.00000
      4     -19.1270      2.00000
      5     -19.1235      2.00000
      6      -6.6993      2.00000
      7      -1.3443      2.00000
      8       2.8178      2.00000
      9       4.4172      2.00000
     10       5.5738      2.00000
     11       6.8548      0.00000
     12       7.0287      0.00000
     13       9.3043      0.00000
     14      11.5277      0.00000
     15      12.1767      0.00000
     16      13.6712      0.00000
     17      14.3612      0.00000
     18      16.8863      0.00000
     19      17.1223      0.00000
     20      17.4445      0.00000
     21      18.9850      0.00000
     22      21.9737      0.00000
     23      22.1715      0.00000
     24      25.0522      0.00000
     25      25.7399      0.00000
     26      25.8449      0.00000
     27      27.5524      0.00000
     28      29.1780      0.00000
     29      29.2912      0.00000
     30      29.9788      0.00000
     31      30.5468      0.00000
     32      31.0039      0.00000
     33      31.8580      0.00000
     34      32.1763      0.00000
     35      32.3732      0.00000
     36      33.5181      0.00000

 k-point   238 :       0.4000    0.2000    0.2000
  band No.  band energies     occupation 
      1     -19.1372      2.00000
      2     -19.1362      2.00000
      3     -19.1273      2.00000
      4     -19.1271      2.00000
      5     -19.1231      2.00000
      6      -6.4395      2.00000
      7      -1.7195      2.00000
      8       2.2570      2.00000
      9       4.2902      2.00000
     10       5.6067      2.00000
     11       6.7176      0.00000
     12       6.9358      0.00000
     13       9.7634      0.00000
     14      11.6402      0.00000
     15      12.4684      0.00000
     16      14.4426      0.00000
     17      14.6837      0.00000
     18      16.1820      0.00000
     19      18.3847      0.00000
     20      18.7185      0.00000
     21      19.4966      0.00000
     22      22.2794      0.00000
     23      22.3589      0.00000
     24      23.5349      0.00000
     25      24.5403      0.00000
     26      24.7896      0.00000
     27      26.5359      0.00000
     28      28.8356      0.00000
     29      29.3593      0.00000
     30      29.7059      0.00000
     31      29.7529      0.00000
     32      30.5002      0.00000
     33      31.4527      0.00000
     34      31.9386      0.00000
     35      32.5147      0.00000
     36      33.4986      0.00000

 k-point   239 :       0.4667    0.2000    0.2000
  band No.  band energies     occupation 
      1     -19.1376      2.00000
      2     -19.1357      2.00000
      3     -19.1273      2.00000
      4     -19.1273      2.00000
      5     -19.1227      2.00000
      6      -6.1290      2.00000
      7      -2.1418      2.00000
      8       1.8943      2.00000
      9       4.0238      2.00000
     10       5.2109      2.00000
     11       6.9578      0.00000
     12       7.0469      0.00000
     13       9.9140      0.00000
     14      11.9236      0.00000
     15      12.9853      0.00000
     16      14.5476      0.00000
     17      15.4834      0.00000
     18      15.7717      0.00000
     19      19.8606      0.00000
     20      20.0691      0.00000
     21      20.4654      0.00000
     22      21.9268      0.00000
     23      22.0522      0.00000
     24      22.8704      0.00000
     25      23.4366      0.00000
     26      24.4030      0.00000
     27      25.5526      0.00000
     28      27.5685      0.00000
     29      28.1161      0.00000
     30      29.5387      0.00000
     31      29.8258      0.00000
     32      29.9317      0.00000
     33      31.0602      0.00000
     34      32.0068      0.00000
     35      32.1706      0.00000
     36      32.8556      0.00000

 k-point   240 :      -0.4667    0.2000    0.2000
  band No.  band energies     occupation 
      1     -19.1380      2.00000
      2     -19.1352      2.00000
      3     -19.1276      2.00000
      4     -19.1272      2.00000
      5     -19.1224      2.00000
      6      -5.8089      2.00000
      7      -2.5583      2.00000
      8       1.7438      2.00000
      9       3.7174      2.00000
     10       4.7506      2.00000
     11       7.2433      0.00000
     12       7.2763      0.00000
     13       9.7192      0.00000
     14      12.6055      0.00000
     15      13.4531      0.00000
     16      13.7152      0.00000
     17      16.4361      0.00000
     18      16.7779      0.00000
     19      20.1154      0.00000
     20      20.4361      0.00000
     21      21.4711      0.00000
     22      21.7269      0.00000
     23      22.1637      0.00000
     24      22.3403      0.00000
     25      23.5654      0.00000
     26      24.4407      0.00000
     27      24.9564      0.00000
     28      26.2934      0.00000
     29      26.7554      0.00000
     30      28.5010      0.00000
     31      29.4444      0.00000
     32      30.1424      0.00000
     33      30.2897      0.00000
     34      31.0388      0.00000
     35      32.4907      0.00000
     36      33.0186      0.00000

 k-point   241 :      -0.4000    0.2000    0.2000
  band No.  band energies     occupation 
      1     -19.1383      2.00000
      2     -19.1348      2.00000
      3     -19.1279      2.00000
      4     -19.1271      2.00000
      5     -19.1221      2.00000
      6      -5.5635      2.00000
      7      -2.8551      2.00000
      8       1.7868      2.00000
      9       3.4382      2.00000
     10       4.3236      2.00000
     11       7.5131      0.00000
     12       7.5754      0.00000
     13       9.3786      0.00000
     14      12.3457      0.00000
     15      13.6112      0.00000
     16      14.6321      0.00000
     17      17.4067      0.00000
     18      17.5922      0.00000
     19      19.0520      0.00000
     20      19.7074      0.00000
     21      20.8394      0.00000
     22      22.2101      0.00000
     23      23.0311      0.00000
     24      23.3557      0.00000
     25      24.1062      0.00000
     26      24.4431      0.00000
     27      24.8785      0.00000
     28      25.7092      0.00000
     29      26.1860      0.00000
     30      26.6754      0.00000
     31      28.5136      0.00000
     32      29.6691      0.00000
     33      30.3436      0.00000
     34      31.1291      0.00000
     35      32.8036      0.00000
     36      33.0763      0.00000

 k-point   242 :      -0.3333    0.2000    0.2000
  band No.  band energies     occupation 
      1     -19.1385      2.00000
      2     -19.1344      2.00000
      3     -19.1282      2.00000
      4     -19.1271      2.00000
      5     -19.1220      2.00000
      6      -5.5145      2.00000
      7      -2.8823      2.00000
      8       1.9926      2.00000
      9       3.2199      2.00000
     10       3.9476      2.00000
     11       7.7682      0.00000
     12       7.9269      0.00000
     13       9.0189      0.00000
     14      11.4472      0.00000
     15      14.7272      0.00000
     16      15.6856      0.00000
     17      16.9613      0.00000
     18      17.7586      0.00000
     19      18.5717      0.00000
     20      19.6051      0.00000
     21      20.4646      0.00000
     22      21.3476      0.00000
     23      23.6354      0.00000
     24      23.8997      0.00000
     25      24.4492      0.00000
     26      24.6041      0.00000
     27      24.7058      0.00000
     28      25.6423      0.00000
     29      26.3259      0.00000
     30      26.7869      0.00000
     31      27.5884      0.00000
     32      29.9297      0.00000
     33      30.3334      0.00000
     34      31.1213      0.00000
     35      32.9621      0.00000
     36      33.1540      0.00000

 k-point   243 :      -0.2667    0.2000    0.2000
  band No.  band energies     occupation 
      1     -19.1386      2.00000
      2     -19.1342      2.00000
      3     -19.1284      2.00000
      4     -19.1270      2.00000
      5     -19.1220      2.00000
      6      -5.6938      2.00000
      7      -2.5936      2.00000
      8       2.3266      2.00000
      9       3.0786      2.00000
     10       3.6310      2.00000
     11       7.9945      0.00000
     12       8.3227      0.00000
     13       8.6812      0.00000
     14      10.7896      0.00000
     15      15.8010      0.00000
     16      15.9370      0.00000
     17      16.2444      0.00000
     18      17.1499      0.00000
     19      18.4057      0.00000
     20      19.2520      0.00000
     21      20.6589      0.00000
     22      21.7919      0.00000
     23      22.4248      0.00000
     24      23.2922      0.00000
     25      23.4070      0.00000
     26      25.0707      0.00000
     27      25.8562      0.00000
     28      25.8984      0.00000
     29      26.5611      0.00000
     30      27.9249      0.00000
     31      28.9764      0.00000
     32      30.1597      0.00000
     33      30.5138      0.00000
     34      30.9595      0.00000
     35      32.8900      0.00000
     36      33.4934      0.00000

 k-point   244 :      -0.2000    0.2000    0.2000
  band No.  band energies     occupation 
      1     -19.1384      2.00000
      2     -19.1342      2.00000
      3     -19.1285      2.00000
      4     -19.1270      2.00000
      5     -19.1222      2.00000
      6      -5.9954      2.00000
      7      -2.1003      2.00000
      8       2.7182      2.00000
      9       3.0210      2.00000
     10       3.4233      2.00000
     11       8.1366      0.00000
     12       8.3905      0.00000
     13       8.7476      0.00000
     14      10.4361      0.00000
     15      14.8713      0.00000
     16      15.2541      0.00000
     17      16.3765      0.00000
     18      17.0393      0.00000
     19      18.5256      0.00000
     20      19.1938      0.00000
     21      20.5375      0.00000
     22      21.6318      0.00000
     23      22.0812      0.00000
     24      22.6942      0.00000
     25      23.7065      0.00000
     26      24.1311      0.00000
     27      26.5765      0.00000
     28      27.0154      0.00000
     29      27.8146      0.00000
     30      29.2419      0.00000
     31      30.0156      0.00000
     32      30.2161      0.00000
     33      30.7113      0.00000
     34      31.8645      0.00000
     35      32.6166      0.00000
     36      33.9286      0.00000

 k-point   245 :       0.2667    0.2667    0.2000
  band No.  band energies     occupation 
      1     -19.1369      2.00000
      2     -19.1365      2.00000
      3     -19.1272      2.00000
      4     -19.1268      2.00000
      5     -19.1238      2.00000
      6      -6.8136      2.00000
      7      -1.2365      2.00000
      8       3.8441      2.00000
      9       3.8535      2.00000
     10       5.2938      2.00000
     11       6.8564      0.00000
     12       8.1234      0.00000
     13       8.2136      0.00000
     14      11.2549      0.00000
     15      12.5491      0.00000
     16      13.0832      0.00000
     17      15.3722      0.00000
     18      15.6073      0.00000
     19      16.3822      0.00000
     20      17.3106      0.00000
     21      19.9325      0.00000
     22      20.4035      0.00000
     23      21.9941      0.00000
     24      25.8688      0.00000
     25      26.7923      0.00000
     26      27.5717      0.00000
     27      27.8469      0.00000
     28      28.9981      0.00000
     29      29.1240      0.00000
     30      29.6543      0.00000
     31      30.4695      0.00000
     32      30.7471      0.00000
     33      31.6175      0.00000
     34      32.3546      0.00000
     35      32.7805      0.00000
     36      33.7290      0.00000

 k-point   246 :       0.3333    0.2667    0.2000
  band No.  band energies     occupation 
      1     -19.1371      2.00000
      2     -19.1364      2.00000
      3     -19.1273      2.00000
      4     -19.1267      2.00000
      5     -19.1235      2.00000
      6      -6.6589      2.00000
      7      -1.4819      2.00000
      8       3.0877      2.00000
      9       4.0620      2.00000
     10       5.3936      2.00000
     11       6.7802      0.00000
     12       7.6766      0.00000
     13       8.9465      0.00000
     14      11.2165      0.00000
     15      12.7854      0.00000
     16      13.8157      0.00000
     17      14.8821      0.00000
     18      16.3936      0.00000
     19      17.1390      0.00000
     20      17.8535      0.00000
     21      19.1531      0.00000
     22      20.5626      0.00000
     23      22.2212      0.00000
     24      24.8153      0.00000
     25      25.6513      0.00000
     26      26.8537      0.00000
     27      27.6940      0.00000
     28      28.0493      0.00000
     29      28.9262      0.00000
     30      30.1210      0.00000
     31      30.5380      0.00000
     32      31.2160      0.00000
     33      31.3848      0.00000
     34      32.0768      0.00000
     35      32.8149      0.00000
     36      33.2881      0.00000

 k-point   247 :       0.4000    0.2667    0.2000
  band No.  band energies     occupation 
      1     -19.1373      2.00000
      2     -19.1362      2.00000
      3     -19.1274      2.00000
      4     -19.1268      2.00000
      5     -19.1232      2.00000
      6      -6.4328      2.00000
      7      -1.7594      2.00000
      8       2.3965      2.00000
      9       3.9766      2.00000
     10       5.3553      2.00000
     11       6.8371      0.00000
     12       7.5313      0.00000
     13       9.5832      0.00000
     14      11.3757      0.00000
     15      13.0202      0.00000
     16      14.5004      0.00000
     17      14.8736      0.00000
     18      16.2284      0.00000
     19      18.0649      0.00000
     20      18.3363      0.00000
     21      19.8153      0.00000
     22      21.0162      0.00000
     23      22.4666      0.00000
     24      23.6699      0.00000
     25      24.2498      0.00000
     26      25.7976      0.00000
     27      26.7984      0.00000
     28      27.9046      0.00000
     29      28.4236      0.00000
     30      29.4962      0.00000
     31      30.4692      0.00000
     32      30.9045      0.00000
     33      31.6367      0.00000
     34      31.8282      0.00000
     35      32.3099      0.00000
     36      33.5533      0.00000

 k-point   248 :       0.4667    0.2667    0.2000
  band No.  band energies     occupation 
      1     -19.1376      2.00000
      2     -19.1359      2.00000
      3     -19.1275      2.00000
      4     -19.1269      2.00000
      5     -19.1228      2.00000
      6      -6.1510      2.00000
      7      -2.0745      2.00000
      8       1.8717      2.00000
      9       3.6432      2.00000
     10       5.3026      2.00000
     11       6.6954      0.00000
     12       7.8568      0.00000
     13      10.0593      0.00000
     14      11.5703      0.00000
     15      13.3909      0.00000
     16      14.5245      0.00000
     17      15.4420      0.00000
     18      15.7648      0.00000
     19      19.2374      0.00000
     20      19.6729      0.00000
     21      20.7264      0.00000
     22      21.4039      0.00000
     23      22.4567      0.00000
     24      22.6991      0.00000
     25      23.1736      0.00000
     26      24.8215      0.00000
     27      25.7434      0.00000
     28      27.1606      0.00000
     29      28.1563      0.00000
     30      28.6668      0.00000
     31      29.5419      0.00000
     32      30.8784      0.00000
     33      31.2530      0.00000
     34      31.8589      0.00000
     35      32.5435      0.00000
     36      32.9734      0.00000

 k-point   249 :      -0.4667    0.2667    0.2000
  band No.  band energies     occupation 
      1     -19.1379      2.00000
      2     -19.1354      2.00000
      3     -19.1276      2.00000
      4     -19.1270      2.00000
      5     -19.1225      2.00000
      6      -5.8455      2.00000
      7      -2.4111      2.00000
      8       1.5627      2.00000
      9       3.2591      2.00000
     10       5.0732      2.00000
     11       6.7468      0.00000
     12       8.2323      0.00000
     13      10.2491      0.00000
     14      11.9200      0.00000
     15      13.5116      0.00000
     16      14.0030      0.00000
     17      16.1212      0.00000
     18      16.7519      0.00000
     19      20.0416      0.00000
     20      20.7270      0.00000
     21      21.0826      0.00000
     22      21.5623      0.00000
     23      21.9938      0.00000
     24      22.4484      0.00000
     25      23.0225      0.00000
     26      24.3981      0.00000
     27      25.0838      0.00000
     28      25.7526      0.00000
     29      27.5876      0.00000
     30      28.4411      0.00000
     31      28.6691      0.00000
     32      29.9416      0.00000
     33      31.0516      0.00000
     34      31.5101      0.00000
     35      32.1244      0.00000
     36      32.9787      0.00000

 k-point   250 :      -0.4000    0.2667    0.2000
  band No.  band energies     occupation 
      1     -19.1383      2.00000
      2     -19.1350      2.00000
      3     -19.1278      2.00000
      4     -19.1270      2.00000
      5     -19.1222      2.00000
      6      -5.5791      2.00000
      7      -2.6981      2.00000
      8       1.4757      2.00000
      9       2.9214      2.00000
     10       4.7232      2.00000
     11       6.9663      0.00000
     12       8.5644      0.00000
     13      10.0851      0.00000
     14      12.3964      0.00000
     15      12.6958      0.00000
     16      14.8402      0.00000
     17      17.0672      0.00000
     18      17.8013      0.00000
     19      19.1753      0.00000
     20      20.3527      0.00000
     21      20.8320      0.00000
     22      21.8774      0.00000
     23      22.6297      0.00000
     24      23.0898      0.00000
     25      23.4540      0.00000
     26      24.0751      0.00000
     27      24.5225      0.00000
     28      25.8432      0.00000
     29      26.4924      0.00000
     30      27.4674      0.00000
     31      28.5145      0.00000
     32      29.3027      0.00000
     33      29.7512      0.00000
     34      31.4876      0.00000
     35      32.2503      0.00000
     36      33.2446      0.00000

 k-point   251 :      -0.3333    0.2667    0.2000
  band No.  band energies     occupation 
      1     -19.1386      2.00000
      2     -19.1346      2.00000
      3     -19.1281      2.00000
      4     -19.1269      2.00000
      5     -19.1220      2.00000
      6      -5.4545      2.00000
      7      -2.8070      2.00000
      8       1.5855      2.00000
      9       2.6674      2.00000
     10       4.3487      2.00000
     11       7.2631      0.00000
     12       8.8379      0.00000
     13       9.7692      0.00000
     14      11.5335      0.00000
     15      13.6782      0.00000
     16      15.8197      0.00000
     17      17.0894      0.00000
     18      18.6083      0.00000
     19      18.7221      0.00000
     20      19.6714      0.00000
     21      20.0813      0.00000
     22      21.7920      0.00000
     23      22.6401      0.00000
     24      23.4043      0.00000
     25      24.0312      0.00000
     26      24.3669      0.00000
     27      25.1517      0.00000
     28      25.5297      0.00000
     29      26.0475      0.00000
     30      27.2732      0.00000
     31      28.0038      0.00000
     32      28.9879      0.00000
     33      29.4193      0.00000
     34      31.5362      0.00000
     35      32.3417      0.00000
     36      33.3727      0.00000

 k-point   252 :      -0.2667    0.2667    0.2000
  band No.  band energies     occupation 
      1     -19.1387      2.00000
      2     -19.1343      2.00000
      3     -19.1284      2.00000
      4     -19.1269      2.00000
      5     -19.1219      2.00000
      6      -5.5444      2.00000
      7      -2.6438      2.00000
      8       1.8509      2.00000
      9       2.5205      2.00000
     10       3.9880      2.00000
     11       7.5988      0.00000
     12       9.0173      0.00000
     13       9.4195      0.00000
     14      10.9370      0.00000
     15      14.8090      0.00000
     16      16.0676      0.00000
     17      16.7390      0.00000
     18      17.8058      0.00000
     19      18.4554      0.00000
     20      19.7850      0.00000
     21      20.6681      0.00000
     22      21.3245      0.00000
     23      21.9514      0.00000
     24      23.3987      0.00000
     25      23.9655      0.00000
     26      24.2851      0.00000
     27      25.2699      0.00000
     28      25.9153      0.00000
     29      26.5588      0.00000
     30      27.4722      0.00000
     31      28.7431      0.00000
     32      29.1298      0.00000
     33      29.8836      0.00000
     34      31.7754      0.00000
     35      32.2744      0.00000
     36      33.3686      0.00000

 k-point   253 :      -0.2000    0.2667    0.2000
  band No.  band energies     occupation 
      1     -19.1386      2.00000
      2     -19.1342      2.00000
      3     -19.1286      2.00000
      4     -19.1269      2.00000
      5     -19.1220      2.00000
      6      -5.7933      2.00000
      7      -2.2603      2.00000
      8       2.1838      2.00000
      9       2.5434      2.00000
     10       3.6620      2.00000
     11       7.9377      0.00000
     12       9.0242      0.00000
     13       9.1214      0.00000
     14      10.6870      0.00000
     15      15.0664      0.00000
     16      15.7963      0.00000
     17      16.2575      0.00000
     18      17.2157      0.00000
     19      18.4655      0.00000
     20      19.5083      0.00000
     21      20.8970      0.00000
     22      21.5008      0.00000
     23      21.9086      0.00000
     24      22.4666      0.00000
     25      23.3779      0.00000
     26      24.8624      0.00000
     27      25.5155      0.00000
     28      26.1518      0.00000
     29      27.2764      0.00000
     30      28.5680      0.00000
     31      29.0835      0.00000
     32      30.3356      0.00000
     33      31.1117      0.00000
     34      31.6120      0.00000
     35      32.6969      0.00000
     36      33.2216      0.00000

 k-point   254 :       0.3333    0.3333    0.2000
  band No.  band energies     occupation 
      1     -19.1374      2.00000
      2     -19.1362      2.00000
      3     -19.1274      2.00000
      4     -19.1265      2.00000
      5     -19.1234      2.00000
      6      -6.5417      2.00000
      7      -1.6542      2.00000
      8       3.2091      2.00000
      9       3.5086      2.00000
     10       4.9047      2.00000
     11       7.2601      0.00000
     12       8.4507      0.00000
     13       8.5482      0.00000
     14      10.9194      0.00000
     15      13.5469      0.00000
     16      14.1888      0.00000
     17      15.6257      0.00000
     18      15.7775      0.00000
     19      17.5684      0.00000
     20      18.2496      0.00000
     21      18.5835      0.00000
     22      20.4546      0.00000
     23      22.4192      0.00000
     24      23.8893      0.00000
     25      25.4735      0.00000
     26      26.2778      0.00000
     27      27.2792      0.00000
     28      28.2623      0.00000
     29      29.1315      0.00000
     30      29.4882      0.00000
     31      29.8664      0.00000
     32      30.6909      0.00000
     33      30.8806      0.00000
     34      32.5112      0.00000
     35      33.2777      0.00000
     36      33.7442      0.00000

 k-point   255 :       0.4000    0.3333    0.2000
  band No.  band energies     occupation 
      1     -19.1377      2.00000
      2     -19.1360      2.00000
      3     -19.1276      2.00000
      4     -19.1264      2.00000
      5     -19.1231      2.00000
      6      -6.3545      2.00000
      7      -1.8457      2.00000
      8       2.5834      2.00000
      9       3.4171      2.00000
     10       4.6545      2.00000
     11       7.5978      0.00000
     12       8.3033      0.00000
     13       9.2081      0.00000
     14      10.9480      0.00000
     15      13.9660      0.00000
     16      14.8954      0.00000
     17      15.3034      0.00000
     18      16.2021      0.00000
     19      17.5911      0.00000
     20      18.3931      0.00000
     21      18.9358      0.00000
     22      21.2811      0.00000
     23      22.6272      0.00000
     24      22.9467      0.00000
     25      24.2490      0.00000
     26      26.0965      0.00000
     27      26.7861      0.00000
     28      27.6745      0.00000
     29      28.1304      0.00000
     30      29.0379      0.00000
     31      29.6741      0.00000
     32      30.3504      0.00000
     33      31.0639      0.00000
     34      32.6392      0.00000
     35      33.2300      0.00000
     36      33.8989      0.00000

 k-point   256 :       0.4667    0.3333    0.2000
  band No.  band energies     occupation 
      1     -19.1379      2.00000
      2     -19.1358      2.00000
      3     -19.1277      2.00000
      4     -19.1265      2.00000
      5     -19.1228      2.00000
      6      -6.1106      2.00000
      7      -2.0575      2.00000
      8       1.9764      2.00000
      9       3.0304      2.00000
     10       4.8214      2.00000
     11       7.2833      0.00000
     12       8.7408      0.00000
     13       9.7392      0.00000
     14      11.2408      0.00000
     15      14.2605      0.00000
     16      14.7254      0.00000
     17      15.5684      0.00000
     18      16.0958      0.00000
     19      18.3745      0.00000
     20      19.1696      0.00000
     21      19.8992      0.00000
     22      21.4239      0.00000
     23      22.3684      0.00000
     24      22.6858      0.00000
     25      23.4965      0.00000
     26      25.6876      0.00000
     27      26.2108      0.00000
     28      26.5785      0.00000
     29      27.2358      0.00000
     30      28.0864      0.00000
     31      29.6797      0.00000
     32      30.5085      0.00000
     33      30.8817      0.00000
     34      32.0535      0.00000
     35      32.8265      0.00000
     36      33.8023      0.00000

 k-point   257 :      -0.4667    0.3333    0.2000
  band No.  band energies     occupation 
      1     -19.1380      2.00000
      2     -19.1355      2.00000
      3     -19.1278      2.00000
      4     -19.1266      2.00000
      5     -19.1225      2.00000
      6      -5.8352      2.00000
      7      -2.2921      2.00000
      8       1.5414      2.00000
      9       2.5818      2.00000
     10       5.0449      2.00000
     11       6.9238      0.00000
     12       9.2119      0.00000
     13      10.2218      0.00000
     14      11.4813      0.00000
     15      13.7376      0.00000
     16      14.6941      0.00000
     17      15.8873      0.00000
     18      17.0949      0.00000
     19      19.4116      0.00000
     20      19.7543      0.00000
     21      20.5289      0.00000
     22      21.2995      0.00000
     23      21.4185      0.00000
     24      23.2212      0.00000
     25      23.6819      0.00000
     26      24.5692      0.00000
     27      25.3624      0.00000
     28      25.9089      0.00000
     29      26.9391      0.00000
     30      27.7967      0.00000
     31      29.1086      0.00000
     32      29.6632      0.00000
     33      30.8005      0.00000
     34      31.3653      0.00000
     35      32.6627      0.00000
     36      33.3364      0.00000

 k-point   258 :      -0.4000    0.3333    0.2000
  band No.  band energies     occupation 
      1     -19.1383      2.00000
      2     -19.1352      2.00000
      3     -19.1279      2.00000
      4     -19.1268      2.00000
      5     -19.1222      2.00000
      6      -5.5745      2.00000
      7      -2.5230      2.00000
      8       1.3237      2.00000
      9       2.2074      2.00000
     10       5.0885      2.00000
     11       6.7597      0.00000
     12       9.5698      0.00000
     13      10.5482      0.00000
     14      11.7534      0.00000
     15      12.7044      0.00000
     16      15.4223      0.00000
     17      16.6686      0.00000
     18      18.1043      0.00000
     19      18.9969      0.00000
     20      19.8113      0.00000
     21      20.7435      0.00000
     22      21.2423      0.00000
     23      22.5208      0.00000
     24      23.1457      0.00000
     25      23.4594      0.00000
     26      23.7264      0.00000
     27      24.6782      0.00000
     28      26.3587      0.00000
     29      27.1294      0.00000
     30      27.4397      0.00000
     31      28.0112      0.00000
     32      28.9552      0.00000
     33      29.8107      0.00000
     34      30.8364      0.00000
     35      32.5366      0.00000
     36      32.9934      0.00000

 k-point   259 :      -0.3333    0.3333    0.2000
  band No.  band energies     occupation 
      1     -19.1384      2.00000
      2     -19.1348      2.00000
      3     -19.1280      2.00000
      4     -19.1269      2.00000
      5     -19.1220      2.00000
      6      -5.4048      2.00000
      7      -2.6695      2.00000
      8       1.3225      2.00000
      9       1.9512      2.00000
     10       4.8803      2.00000
     11       6.8601      0.00000
     12       9.7635      0.00000
     13      10.4547      0.00000
     14      11.8587      0.00000
     15      12.5126      0.00000
     16      16.3187      0.00000
     17      16.9978      0.00000
     18      18.4128      0.00000
     19      18.6826      0.00000
     20      19.6801      0.00000
     21      21.0623      0.00000
     22      21.3276      0.00000
     23      22.0578      0.00000
     24      22.7373      0.00000
     25      23.5054      0.00000
     26      24.3744      0.00000
     27      25.2012      0.00000
     28      26.2083      0.00000
     29      26.5877      0.00000
     30      27.3990      0.00000
     31      27.7346      0.00000
     32      28.7146      0.00000
     33      29.2000      0.00000
     34      30.2221      0.00000
     35      32.2409      0.00000
     36      33.4562      0.00000

 k-point   260 :      -0.2667    0.3333    0.2000
  band No.  band energies     occupation 
      1     -19.1386      2.00000
      2     -19.1345      2.00000
      3     -19.1283      2.00000
      4     -19.1269      2.00000
      5     -19.1218      2.00000
      6      -5.4052      2.00000
      7      -2.6348      2.00000
      8       1.4860      2.00000
      9       1.8582      2.00000
     10       4.5166      2.00000
     11       7.1390      0.00000
     12       9.7161      0.00000
     13      10.1365      0.00000
     14      11.4314      0.00000
     15      13.5197      0.00000
     16      16.1512      0.00000
     17      16.9434      0.00000
     18      18.2919      0.00000
     19      18.9327      0.00000
     20      20.2866      0.00000
     21      20.4834      0.00000
     22      20.7624      0.00000
     23      21.9603      0.00000
     24      22.8978      0.00000
     25      24.2377      0.00000
     26      24.5393      0.00000
     27      24.8933      0.00000
     28      25.6109      0.00000
     29      26.6267      0.00000
     30      27.3474      0.00000
     31      28.2792      0.00000
     32      28.9387      0.00000
     33      29.6803      0.00000
     34      30.2831      0.00000
     35      32.2371      0.00000
     36      33.4839      0.00000

 k-point   261 :      -0.2000    0.3333    0.2000
  band No.  band energies     occupation 
      1     -19.1385      2.00000
      2     -19.1344      2.00000
      3     -19.1285      2.00000
      4     -19.1269      2.00000
      5     -19.1219      2.00000
      6      -5.5758      2.00000
      7      -2.4085      2.00000
      8       1.6716      2.00000
      9       2.0524      2.00000
     10       4.0945      2.00000
     11       7.5127      0.00000
     12       9.4977      0.00000
     13       9.7386      0.00000
     14      11.2467      0.00000
     15      14.6254      0.00000
     16      15.3035      0.00000
     17      16.4680      0.00000
     18      18.1215      0.00000
     19      19.0652      0.00000
     20      19.6787      0.00000
     21      20.4049      0.00000
     22      21.1209      0.00000
     23      22.3307      0.00000
     24      22.8488      0.00000
     25      23.9532      0.00000
     26      24.1379      0.00000
     27      25.3536      0.00000
     28      25.7179      0.00000
     29      26.6741      0.00000
     30      27.5469      0.00000
     31      28.5356      0.00000
     32      30.1645      0.00000
     33      30.8366      0.00000
     34      31.2066      0.00000
     35      32.2491      0.00000
     36      33.0631      0.00000

 k-point   262 :       0.4000    0.4000    0.2000
  band No.  band energies     occupation 
      1     -19.1380      2.00000
      2     -19.1358      2.00000
      3     -19.1277      2.00000
      4     -19.1263      2.00000
      5     -19.1229      2.00000
      6      -6.2104      2.00000
      7      -1.9557      2.00000
      8       2.3947      2.00000
      9       3.1745      2.00000
     10       4.0380      2.00000
     11       8.3402      0.00000
     12       8.8489      0.00000
     13       9.0604      0.00000
     14      10.7233      0.00000
     15      14.8532      0.00000
     16      15.3680      0.00000
     17      15.8251      0.00000
     18      16.0756      0.00000
     19      17.4912      0.00000
     20      17.6748      0.00000
     21      19.0647      0.00000
     22      21.4950      0.00000
     23      22.5786      0.00000
     24      22.9756      0.00000
     25      24.1063      0.00000
     26      24.8653      0.00000
     27      27.0780      0.00000
     28      27.1681      0.00000
     29      28.0054      0.00000
     30      28.5952      0.00000
     31      29.5998      0.00000
     32      29.8148      0.00000
     33      30.1038      0.00000
     34      32.8332      0.00000
     35      33.5689      0.00000
     36      34.0032      0.00000

 k-point   263 :       0.4667    0.4000    0.2000
  band No.  band energies     occupation 
      1     -19.1383      2.00000
      2     -19.1355      2.00000
      3     -19.1279      2.00000
      4     -19.1262      2.00000
      5     -19.1227      2.00000
      6      -6.0121      2.00000
      7      -2.0790      2.00000
      8       1.9067      2.00000
      9       2.7726      2.00000
     10       4.0692      2.00000
     11       8.1559      0.00000
     12       9.3232      0.00000
     13       9.5681      0.00000
     14      10.9251      0.00000
     15      15.1183      0.00000
     16      15.3028      0.00000
     17      15.9424      0.00000
     18      16.5245      0.00000
     19      17.5358      0.00000
     20      18.0701      0.00000
     21      19.9928      0.00000
     22      20.6931      0.00000
     23      22.5238      0.00000
     24      23.0229      0.00000
     25      23.9754      0.00000
     26      24.8306      0.00000
     27      26.0439      0.00000
     28      26.7216      0.00000
     29      27.3234      0.00000
     30      28.1501      0.00000
     31      28.6246      0.00000
     32      29.7821      0.00000
     33      31.1470      0.00000
     34      31.9183      0.00000
     35      32.7674      0.00000
     36      34.2606      0.00000

 k-point   264 :      -0.4667    0.4000    0.2000
  band No.  band energies     occupation 
      1     -19.1384      2.00000
      2     -19.1353      2.00000
      3     -19.1280      2.00000
      4     -19.1263      2.00000
      5     -19.1224      2.00000
      6      -5.7800      2.00000
      7      -2.2175      2.00000
      8       1.4907      2.00000
      9       2.1936      2.00000
     10       4.4421      2.00000
     11       7.6946      0.00000
     12       9.7158      0.00000
     13      10.1317      0.00000
     14      11.3553      0.00000
     15      14.1308      0.00000
     16      15.3567      0.00000
     17      16.3273      0.00000
     18      17.4384      0.00000
     19      18.2713      0.00000
     20      18.8612      0.00000
     21      19.8857      0.00000
     22      21.0606      0.00000
     23      21.4483      0.00000
     24      23.2851      0.00000
     25      24.2107      0.00000
     26      24.9404      0.00000
     27      25.0940      0.00000
     28      26.0585      0.00000
     29      27.1389      0.00000
     30      27.3956      0.00000
     31      28.0798      0.00000
     32      30.2032      0.00000
     33      30.7332      0.00000
     34      31.1655      0.00000
     35      32.5987      0.00000
     36      32.8521      0.00000

 k-point   265 :      -0.4000    0.4000    0.2000
  band No.  band energies     occupation 
      1     -19.1384      2.00000
      2     -19.1351      2.00000
      3     -19.1280      2.00000
      4     -19.1265      2.00000
      5     -19.1221      2.00000
      6      -5.5481      2.00000
      7      -2.3711      2.00000
      8       1.2421      2.00000
      9       1.7125      2.00000
     10       4.7969      2.00000
     11       7.2430      0.00000
     12      10.1665      0.00000
     13      10.5417      0.00000
     14      11.6042      0.00000
     15      13.1427      0.00000
     16      15.7861      0.00000
     17      16.9093      0.00000
     18      18.2038      0.00000
     19      18.6594      0.00000
     20      19.2006      0.00000
     21      19.9039      0.00000
     22      20.5814      0.00000
     23      22.4432      0.00000
     24      22.9588      0.00000
     25      23.6759      0.00000
     26      24.5143      0.00000
     27      25.1925      0.00000
     28      25.6496      0.00000
     29      27.0576      0.00000
     30      27.4706      0.00000
     31      28.0464      0.00000
     32      29.2202      0.00000
     33      30.0078      0.00000
     34      30.6420      0.00000
     35      31.6765      0.00000
     36      32.9451      0.00000

 k-point   266 :      -0.3333    0.4000    0.2000
  band No.  band energies     occupation 
      1     -19.1384      2.00000
      2     -19.1350      2.00000
      3     -19.1281      2.00000
      4     -19.1267      2.00000
      5     -19.1219      2.00000
      6      -5.3686      2.00000
      7      -2.5116      2.00000
      8       1.1972      2.00000
      9       1.3894      2.00000
     10       4.9853      2.00000
     11       6.9205      0.00000
     12      10.5514      0.00000
     13      10.7399      0.00000
     14      11.7224      0.00000
     15      12.4541      0.00000
     16      16.5501      0.00000
     17      17.1108      0.00000
     18      18.0931      0.00000
     19      18.5378      0.00000
     20      19.7238      0.00000
     21      20.4352      0.00000
     22      21.1707      0.00000
     23      21.6001      0.00000
     24      23.0023      0.00000
     25      23.9026      0.00000
     26      24.4793      0.00000
     27      24.8608      0.00000
     28      25.7806      0.00000
     29      27.2788      0.00000
     30      27.6155      0.00000
     31      27.8740      0.00000
     32      28.3894      0.00000
     33      29.2867      0.00000
     34      30.0724      0.00000
     35      31.1581      0.00000
     36      33.0794      0.00000

 k-point   267 :      -0.2667    0.4000    0.2000
  band No.  band energies     occupation 
      1     -19.1384      2.00000
      2     -19.1348      2.00000
      3     -19.1282      2.00000
      4     -19.1269      2.00000
      5     -19.1218      2.00000
      6      -5.3034      2.00000
      7      -2.5780      2.00000
      8       1.2208      2.00000
      9       1.3823      2.00000
     10       4.8698      2.00000
     11       6.8762      0.00000
     12      10.3758      0.00000
     13      10.7186      0.00000
     14      11.9654      0.00000
     15      12.4209      0.00000
     16      16.3977      0.00000
     17      17.0247      0.00000
     18      18.2058      0.00000
     19      18.9062      0.00000
     20      19.7177      0.00000
     21      21.0414      0.00000
     22      21.3147      0.00000
     23      21.5798      0.00000
     24      22.8009      0.00000
     25      23.7894      0.00000
     26      24.4920      0.00000
     27      25.4433      0.00000
     28      25.7729      0.00000
     29      26.3941      0.00000
     30      27.1377      0.00000
     31      28.1481      0.00000
     32      28.7935      0.00000
     33      29.5007      0.00000
     34      30.2522      0.00000
     35      30.5563      0.00000
     36      33.2264      0.00000

 k-point   268 :      -0.2000    0.4000    0.2000
  band No.  band energies     occupation 
      1     -19.1383      2.00000
      2     -19.1347      2.00000
      3     -19.1283      2.00000
      4     -19.1269      2.00000
      5     -19.1218      2.00000
      6      -5.3833      2.00000
      7      -2.5274      2.00000
      8       1.2582      2.00000
      9       1.7346      2.00000
     10       4.4775      2.00000
     11       7.1139      0.00000
     12      10.0377      0.00000
     13      10.3685      0.00000
     14      11.6479      0.00000
     15      13.4045      0.00000
     16      15.7774      0.00000
     17      16.5863      0.00000
     18      18.6028      0.00000
     19      18.8499      0.00000
     20      19.7589      0.00000
     21      20.5437      0.00000
     22      21.4534      0.00000
     23      22.5998      0.00000
     24      23.0076      0.00000
     25      24.0583      0.00000
     26      24.4054      0.00000
     27      24.8833      0.00000
     28      25.3543      0.00000
     29      26.0197      0.00000
     30      27.7695      0.00000
     31      28.2802      0.00000
     32      29.1500      0.00000
     33      30.2406      0.00000
     34      30.5471      0.00000
     35      31.3878      0.00000
     36      32.8074      0.00000

 k-point   269 :       0.4667    0.4667    0.2000
  band No.  band energies     occupation 
      1     -19.1386      2.00000
      2     -19.1352      2.00000
      3     -19.1281      2.00000
      4     -19.1261      2.00000
      5     -19.1225      2.00000
      6      -5.8656      2.00000
      7      -2.1236      2.00000
      8       1.5027      2.00000
      9       2.9010      2.00000
     10       3.4606      2.00000
     11       8.6499      0.00000
     12       9.2408      0.00000
     13      10.2158      0.00000
     14      10.8259      0.00000
     15      15.4590      0.00000
     16      15.9268      0.00000
     17      16.3850      0.00000
     18      16.6167      0.00000
     19      17.4524      0.00000
     20      17.6321      0.00000
     21      19.8021      0.00000
     22      20.5998      0.00000
     23      22.8114      0.00000
     24      22.8210      0.00000
     25      23.3212      0.00000
     26      25.0947      0.00000
     27      25.9462      0.00000
     28      26.0047      0.00000
     29      26.9945      0.00000
     30      27.5320      0.00000
     31      29.3378      0.00000
     32      29.9996      0.00000
     33      30.1990      0.00000
     34      30.9425      0.00000
     35      33.5109      0.00000
     36      34.5639      0.00000

 k-point   270 :      -0.4667    0.4667    0.2000
  band No.  band energies     occupation 
      1     -19.1388      2.00000
      2     -19.1350      2.00000
      3     -19.1282      2.00000
      4     -19.1261      2.00000
      5     -19.1222      2.00000
      6      -5.6880      2.00000
      7      -2.1863      2.00000
      8       1.1328      2.00000
      9       2.4004      2.00000
     10       3.7102      2.00000
     11       8.4283      0.00000
     12       9.4099      0.00000
     13      10.8139      0.00000
     14      11.1676      0.00000
     15      14.6626      0.00000
     16      15.9981      0.00000
     17      16.8002      0.00000
     18      17.2254      0.00000
     19      17.9393      0.00000
     20      18.4080      0.00000
     21      19.1735      0.00000
     22      21.2110      0.00000
     23      21.7337      0.00000
     24      23.1298      0.00000
     25      23.3287      0.00000
     26      24.2446      0.00000
     27      25.6296      0.00000
     28      26.3116      0.00000
     29      26.8101      0.00000
     30      27.4024      0.00000
     31      28.8191      0.00000
     32      29.4581      0.00000
     33      30.1042      0.00000
     34      31.4460      0.00000
     35      32.6747      0.00000
     36      33.7574      0.00000

 k-point   271 :      -0.4000    0.4667    0.2000
  band No.  band energies     occupation 
      1     -19.1388      2.00000
      2     -19.1349      2.00000
      3     -19.1282      2.00000
      4     -19.1263      2.00000
      5     -19.1220      2.00000
      6      -5.5045      2.00000
      7      -2.2730      2.00000
      8       0.9188      2.00000
      9       1.8120      2.00000
     10       4.1858      2.00000
     11       7.9677      0.00000
     12       9.6432      0.00000
     13      11.2832      0.00000
     14      11.5555      0.00000
     15      13.7084      0.00000
     16      16.0650      0.00000
     17      17.3477      0.00000
     18      17.7975      0.00000
     19      18.1595      0.00000
     20      19.2834      0.00000
     21      19.6013      0.00000
     22      20.1428      0.00000
     23      22.1906      0.00000
     24      22.9512      0.00000
     25      23.3861      0.00000
     26      23.8935      0.00000
     27      25.4853      0.00000
     28      26.0449      0.00000
     29      26.9456      0.00000
     30      27.2033      0.00000
     31      28.4774      0.00000
     32      29.0327      0.00000
     33      30.5041      0.00000
     34      30.7642      0.00000
     35      31.9810      0.00000
     36      32.7782      0.00000

 k-point   272 :      -0.3333    0.4667    0.2000
  band No.  band energies     occupation 
      1     -19.1386      2.00000
      2     -19.1349      2.00000
      3     -19.1282      2.00000
      4     -19.1265      2.00000
      5     -19.1218      2.00000
      6      -5.3491      2.00000
      7      -2.3861      2.00000
      8       0.8899      2.00000
      9       1.3893      2.00000
     10       4.6082      2.00000
     11       7.4253      0.00000
     12      10.1163      0.00000
     13      11.3327      0.00000
     14      11.7606      0.00000
     15      12.9835      0.00000
     16      16.4166      0.00000
     17      17.2446      0.00000
     18      18.1270      0.00000
     19      18.6235      0.00000
     20      19.1894      0.00000
     21      20.4428      0.00000
     22      20.7651      0.00000
     23      21.0486      0.00000
     24      23.2711      0.00000
     25      23.6646      0.00000
     26      24.5955      0.00000
     27      25.1259      0.00000
     28      25.6564      0.00000
     29      26.3516      0.00000
     30      27.5408      0.00000
     31      28.4217      0.00000
     32      29.1796      0.00000
     33      29.4072      0.00000
     34      30.2580      0.00000
     35      31.3370      0.00000
     36      32.7853      0.00000

 k-point   273 :      -0.2667    0.4667    0.2000
  band No.  band energies     occupation 
      1     -19.1384      2.00000
      2     -19.1349      2.00000
      3     -19.1282      2.00000
      4     -19.1268      2.00000
      5     -19.1217      2.00000
      6      -5.2601      2.00000
      7      -2.5062      2.00000
      8       0.9688      2.00000
      9       1.2683      2.00000
     10       4.8457      2.00000
     11       6.9764      0.00000
     12      10.7035      0.00000
     13      11.0540      0.00000
     14      11.8025      0.00000
     15      12.4236      0.00000
     16      16.8767      0.00000
     17      16.9726      0.00000
     18      17.6208      0.00000
     19      19.1060      0.00000
     20      19.3257      0.00000
     21      20.6242      0.00000
     22      21.5654      0.00000
     23      21.9105      0.00000
     24      23.0485      0.00000
     25      23.5554      0.00000
     26      24.2475      0.00000
     27      24.9629      0.00000
     28      26.0664      0.00000
     29      26.8342      0.00000
     30      27.4292      0.00000
     31      28.0110      0.00000
     32      28.4330      0.00000
     33      28.8038      0.00000
     34      30.6978      0.00000
     35      30.9356      0.00000
     36      32.4564      0.00000

 k-point   274 :      -0.2000    0.4667    0.2000
  band No.  band energies     occupation 
      1     -19.1381      2.00000
      2     -19.1350      2.00000
      3     -19.1282      2.00000
      4     -19.1270      2.00000
      5     -19.1217      2.00000
      6      -5.2667      2.00000
      7      -2.5963      2.00000
      8       1.0285      2.00000
      9       1.5794      2.00000
     10       4.7181      2.00000
     11       6.8586      0.00000
     12      10.6398      0.00000
     13      10.8137      0.00000
     14      11.8082      0.00000
     15      12.3509      0.00000
     16      16.4593      0.00000
     17      16.9732      0.00000
     18      17.7481      0.00000
     19      18.2425      0.00000
     20      20.3706      0.00000
     21      21.2581      0.00000
     22      22.0512      0.00000
     23      22.3968      0.00000
     24      22.8419      0.00000
     25      23.5580      0.00000
     26      24.3198      0.00000
     27      24.9583      0.00000
     28      25.5955      0.00000
     29      26.6114      0.00000
     30      27.1864      0.00000
     31      28.1414      0.00000
     32      28.7711      0.00000
     33      29.3630      0.00000
     34      30.1019      0.00000
     35      30.8850      0.00000
     36      32.7405      0.00000

 k-point   275 :      -0.4667   -0.4667    0.2000
  band No.  band energies     occupation 
      1     -19.1391      2.00000
      2     -19.1347      2.00000
      3     -19.1284      2.00000
      4     -19.1260      2.00000
      5     -19.1221      2.00000
      6      -5.5730      2.00000
      7      -2.1937      2.00000
      8       0.8022      2.00000
      9       2.7163      2.00000
     10       3.1264      2.00000
     11       8.6219      0.00000
     12       9.5197      0.00000
     13      10.8125      0.00000
     14      11.5800      0.00000
     15      15.0689      0.00000
     16      15.7697      0.00000
     17      16.8136      0.00000
     18      17.3786      0.00000
     19      18.3751      0.00000
     20      18.6619      0.00000
     21      18.9993      0.00000
     22      21.4684      0.00000
     23      21.6531      0.00000
     24      22.4073      0.00000
     25      23.1385      0.00000
     26      24.0570      0.00000
     27      24.2984      0.00000
     28      26.9331      0.00000
     29      26.9646      0.00000
     30      27.8252      0.00000
     31      28.4612      0.00000
     32      29.6189      0.00000
     33      30.2370      0.00000
     34      30.6320      0.00000
     35      33.1155      0.00000
     36      33.9961      0.00000

 k-point   276 :      -0.4000   -0.4667    0.2000
  band No.  band energies     occupation 
      1     -19.1391      2.00000
      2     -19.1345      2.00000
      3     -19.1284      2.00000
      4     -19.1261      2.00000
      5     -19.1219      2.00000
      6      -5.4536      2.00000
      7      -2.2404      2.00000
      8       0.6452      2.00000
      9       2.2206      2.00000
     10       3.5061      2.00000
     11       8.4722      0.00000
     12       9.4550      0.00000
     13      11.1524      0.00000
     14      11.8725      0.00000
     15      14.3459      0.00000
     16      16.3200      0.00000
     17      16.6566      0.00000
     18      17.5918      0.00000
     19      18.8623      0.00000
     20      19.0677      0.00000
     21      19.9875      0.00000
     22      20.2345      0.00000
     23      21.8377      0.00000
     24      22.2229      0.00000
     25      23.1724      0.00000
     26      23.6711      0.00000
     27      24.2999      0.00000
     28      26.5743      0.00000
     29      27.1721      0.00000
     30      27.6708      0.00000
     31      28.4192      0.00000
     32      29.4183      0.00000
     33      30.1066      0.00000
     34      31.5785      0.00000
     35      32.3397      0.00000
     36      32.8192      0.00000

 k-point   277 :      -0.3333   -0.4667    0.2000
  band No.  band energies     occupation 
      1     -19.1389      2.00000
      2     -19.1345      2.00000
      3     -19.1284      2.00000
      4     -19.1264      2.00000
      5     -19.1218      2.00000
      6      -5.3509      2.00000
      7      -2.3285      2.00000
      8       0.6893      2.00000
      9       1.7004      2.00000
     10       4.0445      2.00000
     11       8.0042      0.00000
     12       9.5734      0.00000
     13      11.5824      0.00000
     14      11.8083      0.00000
     15      13.5433      0.00000
     16      16.4584      0.00000
     17      17.0612      0.00000
     18      17.9063      0.00000
     19      18.7058      0.00000
     20      19.7147      0.00000
     21      20.1194      0.00000
     22      20.6399      0.00000
     23      21.1752      0.00000
     24      22.2098      0.00000
     25      23.2438      0.00000
     26      24.5298      0.00000
     27      24.8760      0.00000
     28      25.8885      0.00000
     29      26.7965      0.00000
     30      27.2696      0.00000
     31      27.9916      0.00000
     32      30.0014      0.00000
     33      30.3750      0.00000
     34      30.8792      0.00000
     35      31.8390      0.00000
     36      32.3144      0.00000

 k-point   278 :      -0.2667   -0.4667    0.2000
  band No.  band energies     occupation 
      1     -19.1386      2.00000
      2     -19.1347      2.00000
      3     -19.1283      2.00000
      4     -19.1267      2.00000
      5     -19.1217      2.00000
      6      -5.2843      2.00000
      7      -2.4523      2.00000
      8       0.8896      2.00000
      9       1.4063      2.00000
     10       4.5017      2.00000
     11       7.3584      0.00000
     12      10.0591      0.00000
     13      11.4130      0.00000
     14      11.7899      0.00000
     15      12.8693      0.00000
     16      16.5053      0.00000
     17      17.3004      0.00000
     18      17.7417      0.00000
     19      18.9872      0.00000
     20      19.2005      0.00000
     21      20.7505      0.00000
     22      21.1392      0.00000
     23      21.9214      0.00000
     24      22.5622      0.00000
     25      23.3233      0.00000
     26      24.8204      0.00000
     27      25.2050      0.00000
     28      25.8535      0.00000
     29      25.9855      0.00000
     30      27.1389      0.00000
     31      28.4077      0.00000
     32      29.1158      0.00000
     33      29.7604      0.00000
     34      30.6441      0.00000
     35      31.0907      0.00000
     36      32.6631      0.00000

 k-point   279 :      -0.4000   -0.4000    0.2000
  band No.  band energies     occupation 
      1     -19.1393      2.00000
      2     -19.1343      2.00000
      3     -19.1286      2.00000
      4     -19.1261      2.00000
      5     -19.1218      2.00000
      6      -5.4079      2.00000
      7      -2.2663      2.00000
      8       0.5712      2.00000
      9       2.6350      2.00000
     10       2.9694      2.00000
     11       8.5314      0.00000
     12       9.5824      0.00000
     13      10.8426      0.00000
     14      12.0110      0.00000
     15      14.8284      0.00000
     16      15.7702      0.00000
     17      17.1022      0.00000
     18      17.4513      0.00000
     19      18.8164      0.00000
     20      19.8178      0.00000
     21      20.3480      0.00000
     22      20.5773      0.00000
     23      20.9136      0.00000
     24      22.1792      0.00000
     25      22.6346      0.00000
     26      23.4353      0.00000
     27      24.1985      0.00000
     28      26.4686      0.00000
     29      27.0341      0.00000
     30      27.6265      0.00000
     31      29.0431      0.00000
     32      30.1838      0.00000
     33      30.3797      0.00000
     34      30.5539      0.00000
     35      31.9700      0.00000
     36      33.8757      0.00000

 k-point   280 :      -0.3333   -0.4000    0.2000
  band No.  band energies     occupation 
      1     -19.1392      2.00000
      2     -19.1342      2.00000
      3     -19.1286      2.00000
      4     -19.1263      2.00000
      5     -19.1218      2.00000
      6      -5.3788      2.00000
      7      -2.3311      2.00000
      8       0.7067      2.00000
      9       2.1836      2.00000
     10       3.4344      2.00000
     11       8.3802      0.00000
     12       9.3907      0.00000
     13      11.0775      0.00000
     14      11.7171      0.00000
     15      14.3817      0.00000
     16      16.3544      0.00000
     17      16.9497      0.00000
     18      17.7812      0.00000
     19      19.0114      0.00000
     20      19.4537      0.00000
     21      20.4440      0.00000
     22      20.7436      0.00000
     23      21.2612      0.00000
     24      21.9277      0.00000
     25      22.8859      0.00000
     26      23.4015      0.00000
     27      24.8600      0.00000
     28      25.9828      0.00000
     29      26.7253      0.00000
     30      28.0816      0.00000
     31      28.7858      0.00000
     32      29.6775      0.00000
     33      29.9907      0.00000
     34      31.6720      0.00000
     35      32.1336      0.00000
     36      32.8517      0.00000

 k-point   281 :      -0.2667   -0.4000    0.2000
  band No.  band energies     occupation 
      1     -19.1389      2.00000
      2     -19.1344      2.00000
      3     -19.1285      2.00000
      4     -19.1266      2.00000
      5     -19.1217      2.00000
      6      -5.3714      2.00000
      7      -2.4185      2.00000
      8       1.0117      2.00000
      9       1.7551      2.00000
     10       4.0156      2.00000
     11       7.8186      0.00000
     12       9.5183      0.00000
     13      11.1155      0.00000
     14      11.4770      0.00000
     15      13.8285      0.00000
     16      16.1829      0.00000
     17      17.1837      0.00000
     18      18.2127      0.00000
     19      18.7039      0.00000
     20      19.5822      0.00000
     21      20.1427      0.00000
     22      20.9180      0.00000
     23      21.8821      0.00000
     24      22.6831      0.00000
     25      23.2461      0.00000
     26      24.0843      0.00000
     27      24.7021      0.00000
     28      25.9633      0.00000
     29      26.7876      0.00000
     30      27.3170      0.00000
     31      28.7910      0.00000
     32      29.0851      0.00000
     33      30.5729      0.00000
     34      30.8395      0.00000
     35      31.8378      0.00000
     36      33.0525      0.00000

 k-point   282 :      -0.3333   -0.3333    0.2000
  band No.  band energies     occupation 
      1     -19.1393      2.00000
      2     -19.1340      2.00000
      3     -19.1287      2.00000
      4     -19.1264      2.00000
      5     -19.1218      2.00000
      6      -5.4324      2.00000
      7      -2.3575      2.00000
      8       0.9227      2.00000
      9       2.6621      2.00000
     10       2.9634      2.00000
     11       8.4394      0.00000
     12       9.4134      0.00000
     13      10.6588      0.00000
     14      11.2190      0.00000
     15      15.1655      0.00000
     16      16.1331      0.00000
     17      17.1540      0.00000
     18      17.4310      0.00000
     19      19.2082      0.00000
     20      19.2393      0.00000
     21      19.8358      0.00000
     22      21.2981      0.00000
     23      21.6333      0.00000
     24      22.1798      0.00000
     25      23.0451      0.00000
     26      23.0599      0.00000
     27      24.2286      0.00000
     28      26.3198      0.00000
     29      27.1938      0.00000
     30      28.3810      0.00000
     31      28.6764      0.00000
     32      29.5432      0.00000
     33      30.3640      0.00000
     34      30.7839      0.00000
     35      32.8729      0.00000
     36      34.1860      0.00000

 k-point   283 :      -0.2667   -0.3333    0.2000
  band No.  band energies     occupation 
      1     -19.1390      2.00000
      2     -19.1341      2.00000
      3     -19.1286      2.00000
      4     -19.1266      2.00000
      5     -19.1218      2.00000
      6      -5.5032      2.00000
      7      -2.3818      2.00000
      8       1.2982      2.00000
      9       2.2785      2.00000
     10       3.4871      2.00000
     11       8.1988      0.00000
     12       9.2455      0.00000
     13      10.5020      0.00000
     14      10.8840      0.00000
     15      15.0039      0.00000
     16      16.1257      0.00000
     17      16.9518      0.00000
     18      17.7181      0.00000
     19      18.4719      0.00000
     20      19.6743      0.00000
     21      20.1565      0.00000
     22      20.8070      0.00000
     23      22.2814      0.00000
     24      22.6626      0.00000
     25      23.2743      0.00000
     26      23.5624      0.00000
     27      24.2060      0.00000
     28      26.8058      0.00000
     29      27.2570      0.00000
     30      27.4153      0.00000
     31      29.0566      0.00000
     32      29.3488      0.00000
     33      30.1388      0.00000
     34      31.7204      0.00000
     35      32.5711      0.00000
     36      33.6827      0.00000

 k-point   284 :      -0.2667   -0.2667    0.2000
  band No.  band energies     occupation 
      1     -19.1389      2.00000
      2     -19.1340      2.00000
      3     -19.1287      2.00000
      4     -19.1267      2.00000
      5     -19.1219      2.00000
      6      -5.6530      2.00000
      7      -2.3266      2.00000
      8       1.7165      2.00000
      9       2.7946      2.00000
     10       3.1014      2.00000
     11       8.3351      0.00000
     12       9.0998      0.00000
     13       9.7891      0.00000
     14      10.4889      0.00000
     15      15.8503      0.00000
     16      16.1715      0.00000
     17      16.3228      0.00000
     18      17.3377      0.00000
     19      18.0996      0.00000
     20      19.1543      0.00000
     21      20.8687      0.00000
     22      21.7329      0.00000
     23      21.9272      0.00000
     24      22.2323      0.00000
     25      22.7096      0.00000
     26      24.3785      0.00000
     27      25.0136      0.00000
     28      26.2173      0.00000
     29      27.4342      0.00000
     30      27.9557      0.00000
     31      29.6608      0.00000
     32      30.2064      0.00000
     33      30.2268      0.00000
     34      30.7174      0.00000
     35      33.6721      0.00000
     36      34.0000      0.00000

 k-point   285 :       0.2667    0.2667    0.2667
  band No.  band energies     occupation 
      1     -19.1368      2.00000
      2     -19.1368      2.00000
      3     -19.1269      2.00000
      4     -19.1269      2.00000
      5     -19.1238      2.00000
      6      -6.7712      2.00000
      7      -1.4537      2.00000
      8       4.1818      2.00000
      9       4.1818      2.00000
     10       4.9383      2.00000
     11       7.4559      0.00000
     12       7.4559      0.00000
     13       7.6946      0.00000
     14      11.6192      0.00000
     15      12.7700      0.00000
     16      12.7700      0.00000
     17      16.3263      0.00000
     18      16.3263      0.00000
     19      16.3720      0.00000
     20      16.7568      0.00000
     21      20.0653      0.00000
     22      20.0653      0.00000
     23      20.7835      0.00000
     24      26.2489      0.00000
     25      26.2489      0.00000
     26      28.2328      0.00000
     27      28.4230      0.00000
     28      29.2369      0.00000
     29      29.2369      0.00000
     30      29.5276      0.00000
     31      29.5276      0.00000
     32      29.6772      0.00000
     33      31.0900      0.00000
     34      33.1407      0.00000
     35      33.1407      0.00000
     36      34.3728      0.00000

 k-point   286 :       0.3333    0.2667    0.2667
  band No.  band energies     occupation 
      1     -19.1369      2.00000
      2     -19.1369      2.00000
      3     -19.1270      2.00000
      4     -19.1267      2.00000
      5     -19.1237      2.00000
      6      -6.6498      2.00000
      7      -1.6788      2.00000
      8       3.5070      2.00000
      9       4.4016      2.00000
     10       5.3729      2.00000
     11       6.9822      0.00000
     12       6.9921      0.00000
     13       8.4345      0.00000
     14      11.6888      0.00000
     15      12.6136      0.00000
     16      13.6366      0.00000
     17      15.6100      0.00000
     18      16.9623      0.00000
     19      17.2740      0.00000
     20      17.4233      0.00000
     21      18.9853      0.00000
     22      20.3084      0.00000
     23      20.8944      0.00000
     24      25.1217      0.00000
     25      26.0528      0.00000
     26      27.1822      0.00000
     27      27.9982      0.00000
     28      28.2626      0.00000
     29      29.2008      0.00000
     30      29.2051      0.00000
     31      30.1552      0.00000
     32      30.6331      0.00000
     33      31.8778      0.00000
     34      32.3450      0.00000
     35      32.7044      0.00000
     36      33.7322      0.00000

 k-point   287 :       0.4000    0.2667    0.2667
  band No.  band energies     occupation 
      1     -19.1371      2.00000
      2     -19.1367      2.00000
      3     -19.1270      2.00000
      4     -19.1268      2.00000
      5     -19.1234      2.00000
      6      -6.4557      2.00000
      7      -1.9028      2.00000
      8       2.6945      2.00000
      9       4.3814      2.00000
     10       5.6375      2.00000
     11       6.7244      0.00000
     12       6.8384      0.00000
     13       9.2783      0.00000
     14      11.8445      0.00000
     15      12.6419      0.00000
     16      14.6120      0.00000
     17      15.1087      0.00000
     18      16.3389      0.00000
     19      18.1464      0.00000
     20      18.6255      0.00000
     21      19.2138      0.00000
     22      20.6613      0.00000
     23      21.2515      0.00000
     24      23.9650      0.00000
     25      25.3041      0.00000
     26      25.6264      0.00000
     27      26.7594      0.00000
     28      27.8212      0.00000
     29      29.2726      0.00000
     30      29.3819      0.00000
     31      30.3494      0.00000
     32      30.4543      0.00000
     33      31.1210      0.00000
     34      32.3055      0.00000
     35      32.7847      0.00000
     36      33.6825      0.00000

 k-point   288 :       0.4667    0.2667    0.2667
  band No.  band energies     occupation 
      1     -19.1374      2.00000
      2     -19.1363      2.00000
      3     -19.1270      2.00000
      4     -19.1270      2.00000
      5     -19.1231      2.00000
      6      -6.2018      2.00000
      7      -2.1328      2.00000
      8       1.9994      2.00000
      9       4.1208      2.00000
     10       5.2747      2.00000
     11       7.0171      0.00000
     12       7.0667      0.00000
     13       9.9919      0.00000
     14      12.1024      0.00000
     15      12.8763      0.00000
     16      14.5133      0.00000
     17      15.3740      0.00000
     18      15.8202      0.00000
     19      19.3606      0.00000
     20      19.8984      0.00000
     21      20.1058      0.00000
     22      21.1266      0.00000
     23      21.6698      0.00000
     24      22.7977      0.00000
     25      24.1147      0.00000
     26      24.4151      0.00000
     27      25.5405      0.00000
     28      27.3906      0.00000
     29      28.6647      0.00000
     30      29.0009      0.00000
     31      29.6981      0.00000
     32      29.8065      0.00000
     33      31.1022      0.00000
     34      32.4780      0.00000
     35      33.1075      0.00000
     36      33.6661      0.00000

 k-point   289 :      -0.4667    0.2667    0.2667
  band No.  band energies     occupation 
      1     -19.1379      2.00000
      2     -19.1357      2.00000
      3     -19.1273      2.00000
      4     -19.1270      2.00000
      5     -19.1227      2.00000
      6      -5.9132      2.00000
      7      -2.3751      2.00000
      8       1.5010      2.00000
      9       3.7628      2.00000
     10       4.7583      2.00000
     11       7.3668      0.00000
     12       7.5115      0.00000
     13      10.4934      0.00000
     14      12.3852      0.00000
     15      13.3297      0.00000
     16      13.4763      0.00000
     17      15.6309      0.00000
     18      16.8717      0.00000
     19      20.5244      0.00000
     20      20.9965      0.00000
     21      21.0987      0.00000
     22      21.5263      0.00000
     23      21.8533      0.00000
     24      21.9384      0.00000
     25      22.7657      0.00000
     26      23.7174      0.00000
     27      24.8978      0.00000
     28      26.5849      0.00000
     29      27.0562      0.00000
     30      27.8842      0.00000
     31      29.8458      0.00000
     32      30.0767      0.00000
     33      30.9758      0.00000
     34      31.7778      0.00000
     35      32.6504      0.00000
     36      33.3403      0.00000

 k-point   290 :      -0.4000    0.2667    0.2667
  band No.  band energies     occupation 
      1     -19.1383      2.00000
      2     -19.1352      2.00000
      3     -19.1276      2.00000
      4     -19.1269      2.00000
      5     -19.1223      2.00000
      6      -5.6384      2.00000
      7      -2.6030      2.00000
      8       1.2393      2.00000
      9       3.4146      2.00000
     10       4.2637      2.00000
     11       7.7790      0.00000
     12       7.8789      0.00000
     13      10.6330      0.00000
     14      12.3562      0.00000
     15      12.9253      0.00000
     16      14.0011      0.00000
     17      16.5192      0.00000
     18      17.9578      0.00000
     19      20.2427      0.00000
     20      20.5008      0.00000
     21      21.3490      0.00000
     22      21.4594      0.00000
     23      22.1513      0.00000
     24      22.6107      0.00000
     25      23.0289      0.00000
     26      23.5779      0.00000
     27      24.8666      0.00000
     28      25.5676      0.00000
     29      25.7852      0.00000
     30      27.4965      0.00000
     31      28.6684      0.00000
     32      30.3204      0.00000
     33      30.6152      0.00000
     34      30.8999      0.00000
     35      32.8775      0.00000
     36      33.4058      0.00000

 k-point   291 :      -0.3333    0.2667    0.2667
  band No.  band energies     occupation 
      1     -19.1387      2.00000
      2     -19.1346      2.00000
      3     -19.1280      2.00000
      4     -19.1268      2.00000
      5     -19.1220      2.00000
      6      -5.4608      2.00000
      7      -2.7273      2.00000
      8       1.2125      2.00000
      9       3.1249      2.00000
     10       3.8180      2.00000
     11       8.1513      0.00000
     12       8.2123      0.00000
     13      10.4562      0.00000
     14      11.4254      0.00000
     15      13.8100      0.00000
     16      14.8701      0.00000
     17      17.3762      0.00000
     18      18.9466      0.00000
     19      19.0018      0.00000
     20      19.8295      0.00000
     21      20.2248      0.00000
     22      21.3835      0.00000
     23      22.7983      0.00000
     24      22.8306      0.00000
     25      23.6814      0.00000
     26      24.2694      0.00000
     27      24.5440      0.00000
     28      25.0597      0.00000
     29      26.4061      0.00000
     30      26.8006      0.00000
     31      28.0523      0.00000
     32      29.2025      0.00000
     33      30.4206      0.00000
     34      31.0518      0.00000
     35      33.2123      0.00000
     36      33.5880      0.00000

 k-point   292 :      -0.2667    0.2667    0.2667
  band No.  band energies     occupation 
      1     -19.1389      2.00000
      2     -19.1342      2.00000
      3     -19.1284      2.00000
      4     -19.1267      2.00000
      5     -19.1219      2.00000
      6      -5.4674      2.00000
      7      -2.6387      2.00000
      8       1.3875      2.00000
      9       2.9151      2.00000
     10       3.4263      2.00000
     11       8.3118      0.00000
     12       8.6554      0.00000
     13      10.1462      0.00000
     14      10.7777      0.00000
     15      14.8798      0.00000
     16      15.8721      0.00000
     17      17.2207      0.00000
     18      17.7087      0.00000
     19      19.1215      0.00000
     20      19.5427      0.00000
     21      20.1061      0.00000
     22      21.2613      0.00000
     23      22.4673      0.00000
     24      22.6845      0.00000
     25      23.6542      0.00000
     26      24.2034      0.00000
     27      24.3378      0.00000
     28      25.9621      0.00000
     29      26.8100      0.00000
     30      27.6035      0.00000
     31      28.2533      0.00000
     32      28.7936      0.00000
     33      30.3497      0.00000
     34      30.9903      0.00000
     35      33.3458      0.00000
     36      33.9029      0.00000

 k-point   293 :       0.3333    0.3333    0.2667
  band No.  band energies     occupation 
      1     -19.1372      2.00000
      2     -19.1368      2.00000
      3     -19.1270      2.00000
      4     -19.1266      2.00000
      5     -19.1236      2.00000
      6      -6.5642      2.00000
      7      -1.8778      2.00000
      8       3.8923      2.00000
      9       3.8929      2.00000
     10       5.3893      2.00000
     11       6.6444      0.00000
     12       7.6818      0.00000
     13       7.9906      0.00000
     14      11.6192      0.00000
     15      13.1850      0.00000
     16      13.7599      0.00000
     17      16.4228      0.00000
     18      16.4761      0.00000
     19      17.6287      0.00000
     20      17.9120      0.00000
     21      18.6327      0.00000
     22      19.7659      0.00000
     23      20.9161      0.00000
     24      24.4244      0.00000
     25      25.9224      0.00000
     26      27.3621      0.00000
     27      27.3832      0.00000
     28      28.0880      0.00000
     29      28.7764      0.00000
     30      29.2246      0.00000
     31      29.9521      0.00000
     32      31.0203      0.00000
     33      31.8901      0.00000
     34      32.1040      0.00000
     35      32.4146      0.00000
     36      34.0215      0.00000

 k-point   294 :       0.4000    0.3333    0.2667
  band No.  band energies     occupation 
      1     -19.1373      2.00000
      2     -19.1366      2.00000
      3     -19.1270      2.00000
      4     -19.1265      2.00000
      5     -19.1234      2.00000
      6      -6.4072      2.00000
      7      -2.0594      2.00000
      8       3.0600      2.00000
      9       4.0343      2.00000
     10       5.3316      2.00000
     11       6.7815      0.00000
     12       7.4360      0.00000
     13       8.7801      0.00000
     14      11.5687      0.00000
     15      13.3786      0.00000
     16      14.6768      0.00000
     17      15.7670      0.00000
     18      16.4769      0.00000
     19      18.0827      0.00000
     20      18.3741      0.00000
     21      18.7665      0.00000
     22      20.3119      0.00000
     23      21.2807      0.00000
     24      23.3850      0.00000
     25      25.3805      0.00000
     26      26.1326      0.00000
     27      27.0598      0.00000
     28      27.8318      0.00000
     29      28.0167      0.00000
     30      28.8634      0.00000
     31      30.2682      0.00000
     32      31.2012      0.00000
     33      31.4360      0.00000
     34      31.8173      0.00000
     35      32.6467      0.00000
     36      33.4000      0.00000

 k-point   295 :       0.4667    0.3333    0.2667
  band No.  band energies     occupation 
      1     -19.1375      2.00000
      2     -19.1364      2.00000
      3     -19.1271      2.00000
      4     -19.1266      2.00000
      5     -19.1231      2.00000
      6      -6.1894      2.00000
      7      -2.2223      2.00000
      8       2.2697      2.00000
      9       3.7685      2.00000
     10       5.3479      2.00000
     11       6.6709      0.00000
     12       7.7755      0.00000
     13       9.6207      0.00000
     14      11.7373      0.00000
     15      13.5538      0.00000
     16      14.8235      0.00000
     17      15.6519      0.00000
     18      15.9385      0.00000
     19      18.9337      0.00000
     20      19.2441      0.00000
     21      19.6303      0.00000
     22      21.0114      0.00000
     23      21.7565      0.00000
     24      22.4704      0.00000
     25      24.2335      0.00000
     26      24.9818      0.00000
     27      26.4709      0.00000
     28      26.8171      0.00000
     29      27.9504      0.00000
     30      28.5409      0.00000
     31      29.4189      0.00000
     32      30.2708      0.00000
     33      31.5529      0.00000
     34      31.9366      0.00000
     35      32.8153      0.00000
     36      33.9585      0.00000

 k-point   296 :      -0.4667    0.3333    0.2667
  band No.  band energies     occupation 
      1     -19.1378      2.00000
      2     -19.1360      2.00000
      3     -19.1273      2.00000
      4     -19.1267      2.00000
      5     -19.1228      2.00000
      6      -5.9312      2.00000
      7      -2.3749      2.00000
      8       1.6273      2.00000
      9       3.3418      2.00000
     10       5.1586      2.00000
     11       6.7724      0.00000
     12       8.3123      0.00000
     13      10.3230      0.00000
     14      12.0586      0.00000
     15      13.5668      0.00000
     16      13.9595      0.00000
     17      15.5919      0.00000
     18      17.0330      0.00000
     19      19.5816      0.00000
     20      20.3247      0.00000
     21      20.7533      0.00000
     22      21.1629      0.00000
     23      21.7804      0.00000
     24      22.4608      0.00000
     25      23.1187      0.00000
     26      24.1396      0.00000
     27      25.4106      0.00000
     28      26.2181      0.00000
     29      26.9362      0.00000
     30      28.4349      0.00000
     31      28.5608      0.00000
     32      30.1092      0.00000
     33      31.1866      0.00000
     34      31.7548      0.00000
     35      32.7870      0.00000
     36      33.6128      0.00000

 k-point   297 :      -0.4000    0.3333    0.2667
  band No.  band energies     occupation 
      1     -19.1382      2.00000
      2     -19.1354      2.00000
      3     -19.1276      2.00000
      4     -19.1267      2.00000
      5     -19.1224      2.00000
      6      -5.6691      2.00000
      7      -2.5185      2.00000
      8       1.1977      2.00000
      9       2.9352      2.00000
     10       4.7589      2.00000
     11       7.1263      0.00000
     12       8.7766      0.00000
     13      10.8375      0.00000
     14      12.3782      0.00000
     15      12.5311      0.00000
     16      14.4167      0.00000
     17      16.1302      0.00000
     18      18.1412      0.00000
     19      19.8915      0.00000
     20      20.1757      0.00000
     21      21.1244      0.00000
     22      21.5263      0.00000
     23      21.8893      0.00000
     24      22.8215      0.00000
     25      23.0575      0.00000
     26      23.3517      0.00000
     27      24.7058      0.00000
     28      25.7162      0.00000
     29      26.4919      0.00000
     30      27.1315      0.00000
     31      28.5861      0.00000
     32      29.8164      0.00000
     33      30.8184      0.00000
     34      31.3356      0.00000
     35      32.1779      0.00000
     36      33.6220      0.00000

 k-point   298 :      -0.3333    0.3333    0.2667
  band No.  band energies     occupation 
      1     -19.1386      2.00000
      2     -19.1349      2.00000
      3     -19.1279      2.00000
      4     -19.1267      2.00000
      5     -19.1221      2.00000
      6      -5.4657      2.00000
      7      -2.6162      2.00000
      8       1.0138      2.00000
      9       2.6066      2.00000
     10       4.3157      2.00000
     11       7.5337      0.00000
     12       9.1064      0.00000
     13      10.9981      0.00000
     14      11.5721      0.00000
     15      13.0216      0.00000
     16      15.1656      0.00000
     17      16.9676      0.00000
     18      18.7190      0.00000
     19      19.3341      0.00000
     20      19.9208      0.00000
     21      21.0214      0.00000
     22      21.1348      0.00000
     23      21.9338      0.00000
     24      22.5850      0.00000
     25      23.3308      0.00000
     26      24.0471      0.00000
     27      24.6107      0.00000
     28      25.2736      0.00000
     29      26.6994      0.00000
     30      27.0706      0.00000
     31      27.7365      0.00000
     32      29.0419      0.00000
     33      30.3258      0.00000
     34      31.5622      0.00000
     35      32.0423      0.00000
     36      33.4855      0.00000

 k-point   299 :      -0.2667    0.3333    0.2667
  band No.  band energies     occupation 
      1     -19.1389      2.00000
      2     -19.1344      2.00000
      3     -19.1283      2.00000
      4     -19.1266      2.00000
      5     -19.1219      2.00000
      6      -5.3993      2.00000
      7      -2.5872      2.00000
      8       1.0638      2.00000
      9       2.3803      2.00000
     10       3.8853      2.00000
     11       7.9161      0.00000
     12       9.2466      0.00000
     13      10.8188      0.00000
     14      11.0321      0.00000
     15      13.9388      0.00000
     16      16.0608      0.00000
     17      17.2040      0.00000
     18      18.0936      0.00000
     19      19.1010      0.00000
     20      19.9703      0.00000
     21      20.3446      0.00000
     22      21.1500      0.00000
     23      21.7397      0.00000
     24      22.4295      0.00000
     25      23.1948      0.00000
     26      24.0985      0.00000
     27      25.1557      0.00000
     28      25.5118      0.00000
     29      26.4121      0.00000
     30      27.7055      0.00000
     31      28.4381      0.00000
     32      28.6648      0.00000
     33      29.5148      0.00000
     34      31.8065      0.00000
     35      32.2574      0.00000
     36      33.4819      0.00000

 k-point   300 :       0.4000    0.4000    0.2667
  band No.  band energies     occupation 
      1     -19.1376      2.00000
      2     -19.1364      2.00000
      3     -19.1272      2.00000
      4     -19.1263      2.00000
      5     -19.1233      2.00000
      6      -6.2910      2.00000
      7      -2.2001      2.00000
      8       3.1326      2.00000
      9       3.5631      2.00000
     10       4.7649      2.00000
     11       7.4129      0.00000
     12       8.0249      0.00000
     13       8.5120      0.00000
     14      11.2925      0.00000
     15      14.2657      0.00000
     16      14.9612      0.00000
     17      16.1144      0.00000
     18      16.6464      0.00000
     19      17.5083      0.00000
     20      17.9560      0.00000
     21      18.9584      0.00000
     22      20.8396      0.00000
     23      21.6800      0.00000
     24      22.5603      0.00000
     25      25.4746      0.00000
     26      26.1655      0.00000
     27      26.1954      0.00000
     28      26.7532      0.00000
     29      28.1430      0.00000
     30      29.1204      0.00000
     31      30.0047      0.00000
     32      30.1660      0.00000
     33      30.4524      0.00000
     34      32.7546      0.00000
     35      33.4368      0.00000
     36      34.0940      0.00000

 k-point   301 :       0.4667    0.4000    0.2667
  band No.  band energies     occupation 
      1     -19.1378      2.00000
      2     -19.1362      2.00000
      3     -19.1273      2.00000
      4     -19.1263      2.00000
      5     -19.1231      2.00000
      6      -6.1161      2.00000
      7      -2.3120      2.00000
      8       2.4918      2.00000
      9       3.2943      2.00000
     10       4.7207      2.00000
     11       7.3606      0.00000
     12       8.4587      0.00000
     13       9.1820      0.00000
     14      11.2773      0.00000
     15      14.5413      0.00000
     16      15.3111      0.00000
     17      15.8809      0.00000
     18      16.4068      0.00000
     19      17.6925      0.00000
     20      18.5077      0.00000
     21      19.7863      0.00000
     22      21.0872      0.00000
     23      21.4201      0.00000
     24      22.9087      0.00000
     25      24.4056      0.00000
     26      25.4168      0.00000
     27      26.0494      0.00000
     28      26.5062      0.00000
     29      27.6584      0.00000
     30      28.3095      0.00000
     31      28.7864      0.00000
     32      29.8101      0.00000
     33      31.4706      0.00000
     34      32.1389      0.00000
     35      33.3257      0.00000
     36      33.9148      0.00000

 k-point   302 :      -0.4667    0.4000    0.2667
  band No.  band energies     occupation 
      1     -19.1380      2.00000
      2     -19.1359      2.00000
      3     -19.1274      2.00000
      4     -19.1264      2.00000
      5     -19.1228      2.00000
      6      -5.8989      2.00000
      7      -2.3961      2.00000
      8       1.8372      2.00000
      9       2.7820      2.00000
     10       5.0460      2.00000
     11       6.9430      0.00000
     12       9.1413      0.00000
     13       9.8832      0.00000
     14      11.5632      0.00000
     15      13.8712      0.00000
     16      15.0120      0.00000
     17      16.0169      0.00000
     18      17.1616      0.00000
     19      18.2175      0.00000
     20      19.5094      0.00000
     21      20.3420      0.00000
     22      20.8506      0.00000
     23      21.8099      0.00000
     24      22.7899      0.00000
     25      23.8143      0.00000
     26      24.8370      0.00000
     27      25.6289      0.00000
     28      26.3228      0.00000
     29      26.6258      0.00000
     30      27.2106      0.00000
     31      29.0192      0.00000
     32      29.6168      0.00000
     33      30.3561      0.00000
     34      32.2546      0.00000
     35      33.1914      0.00000
     36      33.8133      0.00000

 k-point   303 :      -0.4000    0.4000    0.2667
  band No.  band energies     occupation 
      1     -19.1382      2.00000
      2     -19.1355      2.00000
      3     -19.1276      2.00000
      4     -19.1265      2.00000
      5     -19.1224      2.00000
      6      -5.6670      2.00000
      7      -2.4617      2.00000
      8       1.3187      2.00000
      9       2.3096      2.00000
     10       5.1961      2.00000
     11       6.7725      0.00000
     12       9.6738      0.00000
     13      10.5022      0.00000
     14      11.9886      0.00000
     15      12.7932      0.00000
     16      15.2830      0.00000
     17      16.2398      0.00000
     18      18.1891      0.00000
     19      18.6743      0.00000
     20      19.5171      0.00000
     21      20.7700      0.00000
     22      21.2220      0.00000
     23      22.0322      0.00000
     24      22.7248      0.00000
     25      23.4076      0.00000
     26      24.1544      0.00000
     27      24.9304      0.00000
     28      25.9359      0.00000
     29      26.5623      0.00000
     30      27.0703      0.00000
     31      28.3848      0.00000
     32      29.4897      0.00000
     33      30.1230      0.00000
     34      30.9160      0.00000
     35      32.7743      0.00000
     36      33.6486      0.00000

 k-point   304 :      -0.3333    0.4000    0.2667
  band No.  band energies     occupation 
      1     -19.1385      2.00000
      2     -19.1351      2.00000
      3     -19.1279      2.00000
      4     -19.1266      2.00000
      5     -19.1221      2.00000
      6      -5.4646      2.00000
      7      -2.5097      2.00000
      8       1.0040      2.00000
      9       1.9574      2.00000
     10       4.9585      2.00000
     11       6.9907      0.00000
     12       9.9400      0.00000
     13      11.0541      0.00000
     14      11.9597      0.00000
     15      12.3638      0.00000
     16      15.8281      0.00000
     17      16.7961      0.00000
     18      18.0904      0.00000
     19      19.3170      0.00000
     20      19.6417      0.00000
     21      20.3750      0.00000
     22      21.6561      0.00000
     23      21.9585      0.00000
     24      22.5239      0.00000
     25      23.3864      0.00000
     26      23.9863      0.00000
     27      24.3595      0.00000
     28      26.1717      0.00000
     29      26.7997      0.00000
     30      27.1541      0.00000
     31      27.6976      0.00000
     32      28.9042      0.00000
     33      29.8409      0.00000
     34      30.6296      0.00000
     35      32.2904      0.00000
     36      32.8196      0.00000

 k-point   305 :      -0.2667    0.4000    0.2667
  band No.  band energies     occupation 
      1     -19.1387      2.00000
      2     -19.1347      2.00000
      3     -19.1282      2.00000
      4     -19.1266      2.00000
      5     -19.1219      2.00000
      6      -5.3506      2.00000
      7      -2.5105      2.00000
      8       0.9156      2.00000
      9       1.7583      2.00000
     10       4.5166      2.00000
     11       7.3887      0.00000
     12       9.8361      0.00000
     13      11.2814      0.00000
     14      11.5797      0.00000
     15      12.9167      0.00000
     16      16.5842      0.00000
     17      16.9580      0.00000
     18      17.9084      0.00000
     19      18.8172      0.00000
     20      20.3010      0.00000
     21      20.6998      0.00000
     22      21.1010      0.00000
     23      21.4702      0.00000
     24      22.0638      0.00000
     25      23.1728      0.00000
     26      24.5986      0.00000
     27      25.2838      0.00000
     28      25.5697      0.00000
     29      26.6071      0.00000
     30      27.2932      0.00000
     31      27.5503      0.00000
     32      29.1886      0.00000
     33      29.7936      0.00000
     34      30.5858      0.00000
     35      31.9422      0.00000
     36      32.8322      0.00000

 k-point   306 :       0.4667    0.4667    0.2667
  band No.  band energies     occupation 
      1     -19.1381      2.00000
      2     -19.1360      2.00000
      3     -19.1275      2.00000
      4     -19.1262      2.00000
      5     -19.1229      2.00000
      6      -5.9890      2.00000
      7      -2.3793      2.00000
      8       2.1890      2.00000
      9       3.2602      2.00000
     10       4.0954      2.00000
     11       8.2722      0.00000
     12       8.4190      0.00000
     13       9.4312      0.00000
     14      11.0442      0.00000
     15      15.1252      0.00000
     16      15.7627      0.00000
     17      15.9302      0.00000
     18      16.7859      0.00000
     19      17.3353      0.00000
     20      18.1028      0.00000
     21      20.2488      0.00000
     22      20.3633      0.00000
     23      21.5961      0.00000
     24      23.8467      0.00000
     25      24.3913      0.00000
     26      24.8880      0.00000
     27      25.6914      0.00000
     28      25.8089      0.00000
     29      27.4540      0.00000
     30      27.4743      0.00000
     31      28.6576      0.00000
     32      29.9278      0.00000
     33      30.5071      0.00000
     34      32.6730      0.00000
     35      33.4800      0.00000
     36      33.8721      0.00000

 k-point   307 :      -0.4667    0.4667    0.2667
  band No.  band energies     occupation 
      1     -19.1383      2.00000
      2     -19.1357      2.00000
      3     -19.1276      2.00000
      4     -19.1262      2.00000
      5     -19.1227      2.00000
      6      -5.8212      2.00000
      7      -2.4166      2.00000
      8       1.7058      2.00000
      9       2.7592      2.00000
     10       4.2994      2.00000
     11       7.8018      0.00000
     12       9.2536      0.00000
     13      10.0087      0.00000
     14      11.1549      0.00000
     15      14.3040      0.00000
     16      15.9758      0.00000
     17      16.3533      0.00000
     18      17.1749      0.00000
     19      17.6698      0.00000
     20      18.7514      0.00000
     21      19.5462      0.00000
     22      21.1510      0.00000
     23      21.9250      0.00000
     24      22.9799      0.00000
     25      24.5318      0.00000
     26      24.8371      0.00000
     27      25.4906      0.00000
     28      25.6449      0.00000
     29      26.1634      0.00000
     30      27.4824      0.00000
     31      28.5140      0.00000
     32      28.9309      0.00000
     33      31.4520      0.00000
     34      31.7002      0.00000
     35      32.4330      0.00000
     36      34.3976      0.00000

 k-point   308 :      -0.4000    0.4667    0.2667
  band No.  band energies     occupation 
      1     -19.1384      2.00000
      2     -19.1354      2.00000
      3     -19.1277      2.00000
      4     -19.1263      2.00000
      5     -19.1224      2.00000
      6      -5.6333      2.00000
      7      -2.4313      2.00000
      8       1.3125      2.00000
      9       2.0955      2.00000
     10       4.7874      2.00000
     11       7.2750      0.00000
     12       9.9418      0.00000
     13      10.4823      0.00000
     14      11.5887      0.00000
     15      13.2515      0.00000
     16      16.1099      0.00000
     17      16.8982      0.00000
     18      17.3486      0.00000
     19      18.0165      0.00000
     20      19.2911      0.00000
     21      20.1387      0.00000
     22      21.2504      0.00000
     23      22.0127      0.00000
     24      22.7147      0.00000
     25      23.7042      0.00000
     26      24.4526      0.00000
     27      25.1666      0.00000
     28      25.7572      0.00000
     29      26.3309      0.00000
     30      27.2946      0.00000
     31      28.0654      0.00000
     32      29.2347      0.00000
     33      30.2070      0.00000
     34      30.8114      0.00000
     35      32.6830      0.00000
     36      33.3670      0.00000

 k-point   309 :      -0.3333    0.4667    0.2667
  band No.  band energies     occupation 
      1     -19.1385      2.00000
      2     -19.1352      2.00000
      3     -19.1279      2.00000
      4     -19.1265      2.00000
      5     -19.1221      2.00000
      6      -5.4552      2.00000
      7      -2.4402      2.00000
      8       1.0692      2.00000
      9       1.5689      2.00000
     10       5.1115      2.00000
     11       6.9259      0.00000
     12      10.4981      0.00000
     13      10.7064      0.00000
     14      12.0670      0.00000
     15      12.4843      0.00000
     16      16.2907      0.00000
     17      17.3053      0.00000
     18      17.4595      0.00000
     19      18.2754      0.00000
     20      19.8238      0.00000
     21      20.3903      0.00000
     22      21.2963      0.00000
     23      21.7334      0.00000
     24      22.6597      0.00000
     25      23.6311      0.00000
     26      24.1016      0.00000
     27      25.1978      0.00000
     28      25.7239      0.00000
     29      26.0609      0.00000
     30      27.7170      0.00000
     31      28.2108      0.00000
     32      28.8792      0.00000
     33      29.7082      0.00000
     34      30.1989      0.00000
     35      31.1731      0.00000
     36      33.5796      0.00000

 k-point   310 :      -0.2667    0.4667    0.2667
  band No.  band energies     occupation 
      1     -19.1385      2.00000
      2     -19.1349      2.00000
      3     -19.1281      2.00000
      4     -19.1266      2.00000
      5     -19.1219      2.00000
      6      -5.3258      2.00000
      7      -2.4526      2.00000
      8       0.9605      2.00000
      9       1.2954      2.00000
     10       4.9866      2.00000
     11       6.9842      0.00000
     12      10.4541      0.00000
     13      11.1030      0.00000
     14      12.0851      0.00000
     15      12.4146      0.00000
     16      16.7056      0.00000
     17      16.9004      0.00000
     18      18.0243      0.00000
     19      18.6935      0.00000
     20      19.4017      0.00000
     21      20.5351      0.00000
     22      21.3100      0.00000
     23      21.9259      0.00000
     24      22.3510      0.00000
     25      23.6054      0.00000
     26      24.2047      0.00000
     27      25.3443      0.00000
     28      25.7506      0.00000
     29      26.6964      0.00000
     30      27.0984      0.00000
     31      28.1050      0.00000
     32      28.5040      0.00000
     33      29.7152      0.00000
     34      30.1177      0.00000
     35      31.2775      0.00000
     36      32.6245      0.00000

 k-point   311 :      -0.4667   -0.4667    0.2667
  band No.  band energies     occupation 
      1     -19.1386      2.00000
      2     -19.1354      2.00000
      3     -19.1278      2.00000
      4     -19.1261      2.00000
      5     -19.1225      2.00000
      6      -5.7079      2.00000
      7      -2.4233      2.00000
      8       1.3048      2.00000
      9       3.0267      2.00000
     10       3.6755      2.00000
     11       8.6325      0.00000
     12       8.7681      0.00000
     13      10.6146      0.00000
     14      11.0227      0.00000
     15      14.6373      0.00000
     16      15.2946      0.00000
     17      17.0644      0.00000
     18      17.6085      0.00000
     19      18.2774      0.00000
     20      18.3047      0.00000
     21      19.0022      0.00000
     22      21.5739      0.00000
     23      22.1940      0.00000
     24      23.0949      0.00000
     25      23.2874      0.00000
     26      25.0202      0.00000
     27      25.4768      0.00000
     28      25.6768      0.00000
     29      25.7328      0.00000
     30      26.8748      0.00000
     31      28.2677      0.00000
     32      30.1484      0.00000
     33      30.3044      0.00000
     34      31.1574      0.00000
     35      33.3350      0.00000
     36      34.0689      0.00000

 k-point   312 :      -0.4000   -0.4667    0.2667
  band No.  band energies     occupation 
      1     -19.1387      2.00000
      2     -19.1352      2.00000
      3     -19.1279      2.00000
      4     -19.1262      2.00000
      5     -19.1223      2.00000
      6      -5.5739      2.00000
      7      -2.4198      2.00000
      8       0.9956      2.00000
      9       2.4832      2.00000
     10       4.0341      2.00000
     11       8.0801      0.00000
     12       9.4054      0.00000
     13      11.0328      0.00000
     14      11.2874      0.00000
     15      13.8265      0.00000
     16      15.7552      0.00000
     17      17.0575      0.00000
     18      17.5870      0.00000
     19      18.2770      0.00000
     20      19.4387      0.00000
     21      19.5131      0.00000
     22      21.4341      0.00000
     23      21.9088      0.00000
     24      22.8734      0.00000
     25      23.4786      0.00000
     26      23.9687      0.00000
     27      25.1026      0.00000
     28      25.5490      0.00000
     29      25.9075      0.00000
     30      27.5483      0.00000
     31      28.4035      0.00000
     32      29.3113      0.00000
     33      29.7533      0.00000
     34      31.7265      0.00000
     35      32.3448      0.00000
     36      33.6434      0.00000

 k-point   313 :      -0.3333   -0.4667    0.2667
  band No.  band energies     occupation 
      1     -19.1387      2.00000
      2     -19.1350      2.00000
      3     -19.1280      2.00000
      4     -19.1264      2.00000
      5     -19.1221      2.00000
      6      -5.4386      2.00000
      7      -2.4237      2.00000
      8       0.8696      2.00000
      9       1.8190      2.00000
     10       4.6061      2.00000
     11       7.4575      0.00000
     12       9.9176      0.00000
     13      11.3167      0.00000
     14      11.6467      0.00000
     15      13.0082      0.00000
     16      16.4108      0.00000
     17      16.9571      0.00000
     18      17.4211      0.00000
     19      18.6537      0.00000
     20      19.9300      0.00000
     21      20.5723      0.00000
     22      20.7899      0.00000
     23      21.6063      0.00000
     24      22.4923      0.00000
     25      23.5643      0.00000
     26      24.2077      0.00000
     27      24.6923      0.00000
     28      25.9326      0.00000
     29      26.2903      0.00000
     30      27.0720      0.00000
     31      28.4766      0.00000
     32      29.0996      0.00000
     33      29.9492      0.00000
     34      30.2601      0.00000
     35      32.0067      0.00000
     36      33.2201      0.00000

 k-point   314 :      -0.4000   -0.4000    0.2667
  band No.  band energies     occupation 
      1     -19.1389      2.00000
      2     -19.1349      2.00000
      3     -19.1281      2.00000
      4     -19.1262      2.00000
      5     -19.1221      2.00000
      6      -5.4986      2.00000
      7      -2.4268      2.00000
      8       0.7639      2.00000
      9       2.8859      2.00000
     10       3.4425      2.00000
     11       8.6857      0.00000
     12       8.9543      0.00000
     13      10.9346      0.00000
     14      11.6014      0.00000
     15      14.2314      0.00000
     16      15.0379      0.00000
     17      16.9910      0.00000
     18      17.9847      0.00000
     19      19.2276      0.00000
     20      19.3139      0.00000
     21      19.9597      0.00000
     22      21.4627      0.00000
     23      21.7673      0.00000
     24      21.9380      0.00000
     25      23.6634      0.00000
     26      24.0529      0.00000
     27      24.2457      0.00000
     28      25.5975      0.00000
     29      25.8193      0.00000
     30      27.6669      0.00000
     31      28.3688      0.00000
     32      29.4629      0.00000
     33      30.3404      0.00000
     34      31.0264      0.00000
     35      33.0137      0.00000
     36      33.5461      0.00000

 k-point   315 :      -0.3333   -0.4000    0.2667
  band No.  band energies     occupation 
      1     -19.1389      2.00000
      2     -19.1347      2.00000
      3     -19.1282      2.00000
      4     -19.1264      2.00000
      5     -19.1220      2.00000
      6      -5.4197      2.00000
      7      -2.4574      2.00000
      8       0.7317      2.00000
      9       2.3659      2.00000
     10       3.8988      2.00000
     11       8.1118      0.00000
     12       9.3809      0.00000
     13      11.1326      0.00000
     14      11.6243      0.00000
     15      13.6048      0.00000
     16      15.6596      0.00000
     17      17.0575      0.00000
     18      17.8075      0.00000
     19      19.7115      0.00000
     20      19.8316      0.00000
     21      20.3744      0.00000
     22      21.0406      0.00000
     23      21.5099      0.00000
     24      21.9132      0.00000
     25      22.9197      0.00000
     26      24.3859      0.00000
     27      24.7347      0.00000
     28      25.3472      0.00000
     29      26.3248      0.00000
     30      27.4392      0.00000
     31      28.1951      0.00000
     32      29.0011      0.00000
     33      30.4665      0.00000
     34      31.4998      0.00000
     35      32.1195      0.00000
     36      32.9447      0.00000

 k-point   316 :      -0.3333   -0.3333    0.2667
  band No.  band energies     occupation 
      1     -19.1390      2.00000
      2     -19.1344      2.00000
      3     -19.1283      2.00000
      4     -19.1264      2.00000
      5     -19.1219      2.00000
      6      -5.4047      2.00000
      7      -2.5216      2.00000
      8       0.7974      2.00000
      9       2.8484      2.00000
     10       3.3636      2.00000
     11       8.5550      0.00000
     12       8.9029      0.00000
     13      10.8653      0.00000
     14      11.3958      0.00000
     15      14.2028      0.00000
     16      15.2471      0.00000
     17      17.3455      0.00000
     18      18.1259      0.00000
     19      19.5751      0.00000
     20      20.0733      0.00000
     21      20.3082      0.00000
     22      20.9003      0.00000
     23      21.7600      0.00000
     24      21.9785      0.00000
     25      23.1268      0.00000
     26      23.2942      0.00000
     27      25.1525      0.00000
     28      25.7208      0.00000
     29      26.5277      0.00000
     30      26.8753      0.00000
     31      28.0349      0.00000
     32      29.8556      0.00000
     33      30.4193      0.00000
     34      30.7843      0.00000
     35      32.8480      0.00000
     36      33.5531      0.00000

 k-point   317 :       0.3333    0.3333    0.3333
  band No.  band energies     occupation 
      1     -19.1371      2.00000
      2     -19.1371      2.00000
      3     -19.1266      2.00000
      4     -19.1266      2.00000
      5     -19.1237      2.00000
      6      -6.5130      2.00000
      7      -2.0884      2.00000
      8       4.2419      2.00000
      9       4.2419      2.00000
     10       5.1595      2.00000
     11       7.0516      0.00000
     12       7.0516      0.00000
     13       7.4307      0.00000
     14      12.1376      0.00000
     15      13.4419      0.00000
     16      13.4419      0.00000
     17      16.8407      0.00000
     18      17.4627      0.00000
     19      17.4627      0.00000
     20      17.9929      0.00000
     21      18.8257      0.00000
     22      18.8257      0.00000
     23      20.3711      0.00000
     24      24.7930      0.00000
     25      24.7930      0.00000
     26      26.7568      0.00000
     27      27.8160      0.00000
     28      28.4490      0.00000
     29      29.5260      0.00000
     30      29.5260      0.00000
     31      29.7966      0.00000
     32      29.7966      0.00000
     33      31.4670      0.00000
     34      33.0837      0.00000
     35      33.0837      0.00000
     36      33.9877      0.00000

 k-point   318 :       0.4000    0.3333    0.3333
  band No.  band energies     occupation 
      1     -19.1371      2.00000
      2     -19.1371      2.00000
      3     -19.1267      2.00000
      4     -19.1265      2.00000
      5     -19.1236      2.00000
      6      -6.3917      2.00000
      7      -2.2625      2.00000
      8       3.5492      2.00000
      9       4.4024      2.00000
     10       5.5144      2.00000
     11       6.7118      0.00000
     12       6.7282      0.00000
     13       8.1625      0.00000
     14      12.2054      0.00000
     15      13.2692      0.00000
     16      14.4527      0.00000
     17      16.2879      0.00000
     18      16.9014      0.00000
     19      18.4547      0.00000
     20      18.4549      0.00000
     21      18.6699      0.00000
     22      19.2416      0.00000
     23      20.7206      0.00000
     24      23.6334      0.00000
     25      24.6330      0.00000
     26      26.3104      0.00000
     27      27.4330      0.00000
     28      27.4372      0.00000
     29      28.4694      0.00000
     30      29.4625      0.00000
     31      30.3092      0.00000
     32      30.9776      0.00000
     33      31.7990      0.00000
     34      32.0519      0.00000
     35      32.3482      0.00000
     36      33.5027      0.00000

 k-point   319 :       0.4667    0.3333    0.3333
  band No.  band energies     occupation 
      1     -19.1373      2.00000
      2     -19.1368      2.00000
      3     -19.1267      2.00000
      4     -19.1266      2.00000
      5     -19.1233      2.00000
      6      -6.2089      2.00000
      7      -2.3925      2.00000
      8       2.6698      2.00000
      9       4.2404      2.00000
     10       5.4206      2.00000
     11       6.8425      0.00000
     12       6.8602      0.00000
     13       9.1353      0.00000
     14      12.3002      0.00000
     15      13.2637      0.00000
     16      15.0267      0.00000
     17      15.7223      0.00000
     18      16.2590      0.00000
     19      18.9252      0.00000
     20      19.1724      0.00000
     21      19.5684      0.00000
     22      20.1292      0.00000
     23      21.4249      0.00000
     24      22.5115      0.00000
     25      23.9932      0.00000
     26      25.8887      0.00000
     27      25.9638      0.00000
     28      26.7892      0.00000
     29      27.9775      0.00000
     30      29.4175      0.00000
     31      29.9384      0.00000
     32      30.0485      0.00000
     33      30.8776      0.00000
     34      32.6553      0.00000
     35      32.9228      0.00000
     36      33.5813      0.00000

 k-point   320 :      -0.4667    0.3333    0.3333
  band No.  band energies     occupation 
      1     -19.1377      2.00000
      2     -19.1363      2.00000
      3     -19.1269      2.00000
      4     -19.1267      2.00000
      5     -19.1230      2.00000
      6      -5.9810      2.00000
      7      -2.4822      2.00000
      8       1.8856      2.00000
      9       3.8758      2.00000
     10       4.8913      2.00000
     11       7.2614      0.00000
     12       7.4544      0.00000
     13      10.0411      0.00000
     14      12.5220      0.00000
     15      13.4464      0.00000
     16      13.7937      0.00000
     17      15.8546      0.00000
     18      16.9945      0.00000
     19      19.4507      0.00000
     20      19.7319      0.00000
     21      20.7180      0.00000
     22      21.1346      0.00000
     23      21.6503      0.00000
     24      22.0607      0.00000
     25      23.3938      0.00000
     26      24.3607      0.00000
     27      25.4980      0.00000
     28      25.7721      0.00000
     29      27.8944      0.00000
     30      28.0698      0.00000
     31      28.7445      0.00000
     32      30.0272      0.00000
     33      30.9544      0.00000
     34      32.5723      0.00000
     35      33.3373      0.00000
     36      33.4735      0.00000

 k-point   321 :      -0.4000    0.3333    0.3333
  band No.  band energies     occupation 
      1     -19.1382      2.00000
      2     -19.1357      2.00000
      3     -19.1273      2.00000
      4     -19.1266      2.00000
      5     -19.1226      2.00000
      6      -5.7364      2.00000
      7      -2.5406      2.00000
      8       1.2792      2.00000
      9       3.4777      2.00000
     10       4.3372      2.00000
     11       7.7980      0.00000
     12       8.0141      0.00000
     13      10.7945      0.00000
     14      12.3525      0.00000
     15      13.1315      0.00000
     16      13.8359      0.00000
     17      15.9733      0.00000
     18      18.1741      0.00000
     19      19.9557      0.00000
     20      20.1979      0.00000
     21      20.4110      0.00000
     22      21.3952      0.00000
     23      22.5557      0.00000
     24      22.7523      0.00000
     25      22.9343      0.00000
     26      22.9644      0.00000
     27      25.1255      0.00000
     28      25.6364      0.00000
     29      26.1963      0.00000
     30      26.6169      0.00000
     31      29.3152      0.00000
     32      30.2390      0.00000
     33      30.5039      0.00000
     34      31.6434      0.00000
     35      32.8403      0.00000
     36      33.4594      0.00000

 k-point   322 :      -0.3333    0.3333    0.3333
  band No.  band energies     occupation 
      1     -19.1386      2.00000
      2     -19.1350      2.00000
      3     -19.1278      2.00000
      4     -19.1265      2.00000
      5     -19.1222      2.00000
      6      -5.5227      2.00000
      7      -2.5656      2.00000
      8       0.9082      2.00000
      9       3.1247      2.00000
     10       3.8244      2.00000
     11       8.3583      0.00000
     12       8.4072      0.00000
     13      11.2795      0.00000
     14      11.4897      0.00000
     15      13.4808      0.00000
     16      14.4407      0.00000
     17      16.5782      0.00000
     18      19.1985      0.00000
     19      19.2375      0.00000
     20      20.3085      0.00000
     21      20.8921      0.00000
     22      20.9745      0.00000
     23      21.6182      0.00000
     24      22.1095      0.00000
     25      23.9139      0.00000
     26      24.2409      0.00000
     27      24.5298      0.00000
     28      24.6236      0.00000
     29      25.9104      0.00000
     30      26.6515      0.00000
     31      28.4361      0.00000
     32      30.2775      0.00000
     33      30.3859      0.00000
     34      31.0213      0.00000
     35      32.8243      0.00000
     36      33.5325      0.00000

 k-point   323 :       0.4000    0.4000    0.3333
  band No.  band energies     occupation 
      1     -19.1373      2.00000
      2     -19.1370      2.00000
      3     -19.1267      2.00000
      4     -19.1264      2.00000
      5     -19.1235      2.00000
      6      -6.3099      2.00000
      7      -2.4248      2.00000
      8       3.8959      2.00000
      9       3.9749      2.00000
     10       5.3761      2.00000
     11       6.5908      0.00000
     12       7.2800      0.00000
     13       7.7920      0.00000
     14      12.1963      0.00000
     15      13.9268      0.00000
     16      14.5457      0.00000
     17      16.3493      0.00000
     18      17.0971      0.00000
     19      18.0398      0.00000
     20      18.1725      0.00000
     21      19.0571      0.00000
     22      19.5300      0.00000
     23      21.0454      0.00000
     24      22.9402      0.00000
     25      24.4922      0.00000
     26      25.6481      0.00000
     27      26.7940      0.00000
     28      27.5685      0.00000
     29      28.5602      0.00000
     30      29.4586      0.00000
     31      30.2911      0.00000
     32      31.2497      0.00000
     33      31.5259      0.00000
     34      31.6359      0.00000
     35      32.6282      0.00000
     36      33.5297      0.00000

 k-point   324 :       0.4667    0.4000    0.3333
  band No.  band energies     occupation 
      1     -19.1375      2.00000
      2     -19.1368      2.00000
      3     -19.1268      2.00000
      4     -19.1264      2.00000
      5     -19.1234      2.00000
      6      -6.1688      2.00000
      7      -2.5314      2.00000
      8       3.0823      2.00000
      9       3.9331      2.00000
     10       5.3161      2.00000
     11       6.6539      0.00000
     12       7.4344      0.00000
     13       8.5767      0.00000
     14      12.1248      0.00000
     15      14.0566      0.00000
     16      15.3067      0.00000
     17      15.6403      0.00000
     18      16.8118      0.00000
     19      17.9250      0.00000
     20      18.8423      0.00000
     21      19.7244      0.00000
     22      20.2214      0.00000
     23      21.5215      0.00000
     24      22.2643      0.00000
     25      24.0633      0.00000
     26      25.2546      0.00000
     27      26.2168      0.00000
     28      26.8443      0.00000
     29      28.1980      0.00000
     30      28.5836      0.00000
     31      29.7332      0.00000
     32      31.0848      0.00000
     33      31.3948      0.00000
     34      31.8815      0.00000
     35      32.2778      0.00000
     36      33.8277      0.00000

 k-point   325 :      -0.4667    0.4000    0.3333
  band No.  band energies     occupation 
      1     -19.1377      2.00000
      2     -19.1365      2.00000
      3     -19.1269      2.00000
      4     -19.1265      2.00000
      5     -19.1231      2.00000
      6      -5.9813      2.00000
      7      -2.5794      2.00000
      8       2.2484      2.00000
      9       3.5286      2.00000
     10       5.2695      2.00000
     11       6.6304      0.00000
     12       8.0771      0.00000
     13       9.5300      0.00000
     14      12.2159      0.00000
     15      13.7795      0.00000
     16      14.4669      0.00000
     17      16.3469      0.00000
     18      17.0057      0.00000
     19      18.2258      0.00000
     20      19.5141      0.00000
     21      20.5396      0.00000
     22      20.8209      0.00000
     23      21.2555      0.00000
     24      22.7027      0.00000
     25      23.5452      0.00000
     26      24.8505      0.00000
     27      24.9802      0.00000
     28      26.6123      0.00000
     29      27.4325      0.00000
     30      27.8244      0.00000
     31      28.9244      0.00000
     32      29.6922      0.00000
     33      31.3081      0.00000
     34      32.0798      0.00000
     35      33.2749      0.00000
     36      33.9309      0.00000

 k-point   326 :      -0.4000    0.4000    0.3333
  band No.  band energies     occupation 
      1     -19.1381      2.00000
      2     -19.1359      2.00000
      3     -19.1272      2.00000
      4     -19.1265      2.00000
      5     -19.1227      2.00000
      6      -5.7690      2.00000
      7      -2.5758      2.00000
      8       1.5341      2.00000
      9       3.0669      2.00000
     10       4.8853      2.00000
     11       7.0501      0.00000
     12       8.7256      0.00000
     13      10.4054      0.00000
     14      12.3113      0.00000
     15      12.9308      0.00000
     16      14.6028      0.00000
     17      16.2842      0.00000
     18      18.0384      0.00000
     19      18.7704      0.00000
     20      19.7926      0.00000
     21      20.1155      0.00000
     22      21.5290      0.00000
     23      22.3316      0.00000
     24      22.5350      0.00000
     25      23.1548      0.00000
     26      24.2520      0.00000
     27      24.7620      0.00000
     28      25.7043      0.00000
     29      26.1793      0.00000
     30      27.8498      0.00000
     31      28.1427      0.00000
     32      29.3684      0.00000
     33      31.2015      0.00000
     34      31.6263      0.00000
     35      32.7043      0.00000
     36      34.2277      0.00000

 k-point   327 :      -0.3333    0.4000    0.3333
  band No.  band energies     occupation 
      1     -19.1385      2.00000
      2     -19.1353      2.00000
      3     -19.1277      2.00000
      4     -19.1264      2.00000
      5     -19.1223      2.00000
      6      -5.5660      2.00000
      7      -2.5333      2.00000
      8       1.0108      2.00000
      9       2.6673      2.00000
     10       4.3920      2.00000
     11       7.6067      0.00000
     12       9.2059      0.00000
     13      11.1317      0.00000
     14      11.6409      0.00000
     15      13.1010      0.00000
     16      15.0189      0.00000
     17      16.5200      0.00000
     18      18.5579      0.00000
     19      18.9920      0.00000
     20      19.8493      0.00000
     21      20.5483      0.00000
     22      21.2041      0.00000
     23      21.6644      0.00000
     24      23.0276      0.00000
     25      23.7088      0.00000
     26      23.9038      0.00000
     27      24.3040      0.00000
     28      25.1230      0.00000
     29      26.0660      0.00000
     30      26.9663      0.00000
     31      28.4668      0.00000
     32      29.6793      0.00000
     33      29.9901      0.00000
     34      31.5150      0.00000
     35      32.3220      0.00000
     36      33.6256      0.00000

 k-point   328 :       0.4667    0.4667    0.3333
  band No.  band energies     occupation 
      1     -19.1377      2.00000
      2     -19.1366      2.00000
      3     -19.1269      2.00000
      4     -19.1263      2.00000
      5     -19.1233      2.00000
      6      -6.0739      2.00000
      7      -2.6163      2.00000
      8       2.9989      2.00000
      9       3.6775      2.00000
     10       4.7733      2.00000
     11       7.4098      0.00000
     12       7.6234      0.00000
     13       8.5619      0.00000
     14      11.8883      0.00000
     15      14.7973      0.00000
     16      15.5642      0.00000
     17      15.7226      0.00000
     18      16.3823      0.00000
     19      18.2145      0.00000
     20      18.4466      0.00000
     21      20.0283      0.00000
     22      20.6327      0.00000
     23      20.7881      0.00000
     24      23.0350      0.00000
     25      24.2618      0.00000
     26      24.6652      0.00000
     27      25.9367      0.00000
     28      26.1633      0.00000
     29      27.4560      0.00000
     30      28.9685      0.00000
     31      29.6155      0.00000
     32      30.0382      0.00000
     33      30.6782      0.00000
     34      32.8679      0.00000
     35      33.1021      0.00000
     36      33.9292      0.00000

 k-point   329 :      -0.4667    0.4667    0.3333
  band No.  band energies     occupation 
      1     -19.1379      2.00000
      2     -19.1364      2.00000
      3     -19.1271      2.00000
      4     -19.1263      2.00000
      5     -19.1230      2.00000
      6      -5.9340      2.00000
      7      -2.6383      2.00000
      8       2.3996      2.00000
      9       3.2514      2.00000
     10       4.8885      2.00000
     11       7.0472      0.00000
     12       8.5050      0.00000
     13       9.2120      0.00000
     14      11.8373      0.00000
     15      14.1231      0.00000
     16      15.6182      0.00000
     17      15.9774      0.00000
     18      17.2318      0.00000
     19      17.8317      0.00000
     20      19.1524      0.00000
     21      19.8732      0.00000
     22      20.5784      0.00000
     23      21.4422      0.00000
     24      23.5404      0.00000
     25      24.0796      0.00000
     26      24.4400      0.00000
     27      24.9788      0.00000
     28      26.0823      0.00000
     29      27.2228      0.00000
     30      27.7033      0.00000
     31      28.7645      0.00000
     32      29.4111      0.00000
     33      31.4492      0.00000
     34      32.0146      0.00000
     35      33.4095      0.00000
     36      33.9037      0.00000

 k-point   330 :      -0.4000    0.4667    0.3333
  band No.  band energies     occupation 
      1     -19.1381      2.00000
      2     -19.1360      2.00000
      3     -19.1273      2.00000
      4     -19.1264      2.00000
      5     -19.1227      2.00000
      6      -5.7648      2.00000
      7      -2.6007      2.00000
      8       1.7834      2.00000
      9       2.6351      2.00000
     10       5.2120      2.00000
     11       6.7205      0.00000
     12       9.4048      0.00000
     13       9.9142      0.00000
     14      12.0052      0.00000
     15      13.0305      0.00000
     16      15.7647      0.00000
     17      16.4945      0.00000
     18      17.4954      0.00000
     19      18.1955      0.00000
     20      19.1814      0.00000
     21      20.0308      0.00000
     22      21.3136      0.00000
     23      22.3988      0.00000
     24      22.7119      0.00000
     25      23.4167      0.00000
     26      24.3255      0.00000
     27      25.1466      0.00000
     28      25.8592      0.00000
     29      26.5915      0.00000
     30      27.1044      0.00000
     31      28.3517      0.00000
     32      29.2559      0.00000
     33      29.9462      0.00000
     34      32.2201      0.00000
     35      33.4772      0.00000
     36      33.9444      0.00000

 k-point   331 :      -0.3333    0.4667    0.3333
  band No.  band energies     occupation 
      1     -19.1384      2.00000
      2     -19.1355      2.00000
      3     -19.1276      2.00000
      4     -19.1264      2.00000
      5     -19.1224      2.00000
      6      -5.5892      2.00000
      7      -2.5204      2.00000
      8       1.2491      2.00000
      9       2.1388      2.00000
     10       5.0796      2.00000
     11       6.9250      0.00000
     12       9.9457      0.00000
     13      10.6271      0.00000
     14      11.9798      0.00000
     15      12.5816      0.00000
     16      16.0201      0.00000
     17      16.8714      0.00000
     18      17.7171      0.00000
     19      17.8679      0.00000
     20      19.9715      0.00000
     21      20.5079      0.00000
     22      21.2574      0.00000
     23      21.8208      0.00000
     24      23.1869      0.00000
     25      23.3722      0.00000
     26      24.0298      0.00000
     27      24.7654      0.00000
     28      25.1807      0.00000
     29      26.8675      0.00000
     30      27.2320      0.00000
     31      28.0009      0.00000
     32      29.1003      0.00000
     33      29.8046      0.00000
     34      30.7581      0.00000
     35      32.6599      0.00000
     36      33.7809      0.00000

 k-point   332 :      -0.4667   -0.4667    0.3333
  band No.  band energies     occupation 
      1     -19.1381      2.00000
      2     -19.1361      2.00000
      3     -19.1272      2.00000
      4     -19.1262      2.00000
      5     -19.1229      2.00000
      6      -5.8455      2.00000
      7      -2.6442      2.00000
      8       2.0082      2.00000
      9       3.4140      2.00000
     10       4.2779      2.00000
     11       7.9944      0.00000
     12       8.0759      0.00000
     13       9.7260      0.00000
     14      11.6386      0.00000
     15      14.3591      0.00000
     16      15.0114      0.00000
     17      16.6017      0.00000
     18      17.5670      0.00000
     19      18.5112      0.00000
     20      18.5814      0.00000
     21      19.2927      0.00000
     22      20.6947      0.00000
     23      22.0022      0.00000
     24      23.9264      0.00000
     25      24.0902      0.00000
     26      24.6202      0.00000
     27      24.7416      0.00000
     28      25.1884      0.00000
     29      27.0175      0.00000
     30      27.2044      0.00000
     31      27.9304      0.00000
     32      30.0833      0.00000
     33      30.8260      0.00000
     34      32.6357      0.00000
     35      33.2204      0.00000
     36      33.5223      0.00000

 k-point   333 :      -0.4000   -0.4667    0.3333
  band No.  band energies     occupation 
      1     -19.1382      2.00000
      2     -19.1358      2.00000
      3     -19.1274      2.00000
      4     -19.1263      2.00000
      5     -19.1227      2.00000
      6      -5.7258      2.00000
      7      -2.5988      2.00000
      8       1.5701      2.00000
      9       2.8636      2.00000
     10       4.5818      2.00000
     11       7.4150      0.00000
     12       9.0521      0.00000
     13      10.2972      0.00000
     14      11.6799      0.00000
     15      13.4595      0.00000
     16      15.3771      0.00000
     17      16.8256      0.00000
     18      17.8972      0.00000
     19      18.2102      0.00000
     20      18.9876      0.00000
     21      19.7364      0.00000
     22      21.0812      0.00000
     23      22.5934      0.00000
     24      23.0886      0.00000
     25      23.8076      0.00000
     26      24.1348      0.00000
     27      24.7638      0.00000
     28      25.4869      0.00000
     29      26.3095      0.00000
     30      27.4283      0.00000
     31      27.8007      0.00000
     32      29.0830      0.00000
     33      31.3421      0.00000
     34      31.5838      0.00000
     35      32.5540      0.00000
     36      34.3707      0.00000

 k-point   334 :      -0.4000   -0.4000    0.3333
  band No.  band energies     occupation 
      1     -19.1384      2.00000
      2     -19.1356      2.00000
      3     -19.1275      2.00000
      4     -19.1263      2.00000
      5     -19.1225      2.00000
      6      -5.6569      2.00000
      7      -2.5707      2.00000
      8       1.2209      2.00000
      9       3.2232      2.00000
     10       3.9728      2.00000
     11       8.2773      0.00000
     12       8.4059      0.00000
     13      10.8421      0.00000
     14      11.5420      0.00000
     15      13.8205      0.00000
     16      14.5004      0.00000
     17      16.6928      0.00000
     18      18.6568      0.00000
     19      18.8841      0.00000
     20      19.3020      0.00000
     21      19.4496      0.00000
     22      21.0652      0.00000
     23      22.7601      0.00000
     24      23.1137      0.00000
     25      23.5468      0.00000
     26      24.1703      0.00000
     27      24.3137      0.00000
     28      25.5000      0.00000
     29      25.6521      0.00000
     30      26.7215      0.00000
     31      28.3494      0.00000
     32      30.2581      0.00000
     33      30.3281      0.00000
     34      31.4738      0.00000
     35      33.0657      0.00000
     36      33.6627      0.00000

 k-point   335 :       0.4000    0.4000    0.4000
  band No.  band energies     occupation 
      1     -19.1372      2.00000
      2     -19.1372      2.00000
      3     -19.1265      2.00000
      4     -19.1265      2.00000
      5     -19.1236      2.00000
      6      -6.2671      2.00000
      7      -2.5970      2.00000
      8       4.3020      2.00000
      9       4.3020      2.00000
     10       5.3073      2.00000
     11       6.7486      0.00000
     12       6.7486      0.00000
     13       7.2131      0.00000
     14      12.7993      0.00000
     15      14.2352      0.00000
     16      14.2352      0.00000
     17      16.4169      0.00000
     18      17.3662      0.00000
     19      17.3662      0.00000
     20      19.0079      0.00000
     21      19.0079      0.00000
     22      19.4997      0.00000
     23      20.9497      0.00000
     24      23.2931      0.00000
     25      23.2931      0.00000
     26      24.9384      0.00000
     27      26.0955      0.00000
     28      28.6432      0.00000
     29      29.7941      0.00000
     30      29.7941      0.00000
     31      30.1032      0.00000
     32      30.1032      0.00000
     33      31.8584      0.00000
     34      32.6715      0.00000
     35      32.6715      0.00000
     36      33.5318      0.00000

 k-point   336 :       0.4667    0.4000    0.4000
  band No.  band energies     occupation 
      1     -19.1373      2.00000
      2     -19.1372      2.00000
      3     -19.1265      2.00000
      4     -19.1264      2.00000
      5     -19.1235      2.00000
      6      -6.1672      2.00000
      7      -2.6995      2.00000
      8       3.6332      2.00000
      9       4.3381      2.00000
     10       5.5179      2.00000
     11       6.5831      0.00000
     12       6.6447      0.00000
     13       7.9109      0.00000
     14      12.8410      0.00000
     15      14.0561      0.00000
     16      15.2636      0.00000
     17      15.5798      0.00000
     18      17.0235      0.00000
     19      17.6852      0.00000
     20      18.6911      0.00000
     21      20.1365      0.00000
     22      20.1663      0.00000
     23      21.4900      0.00000
     24      22.1446      0.00000
     25      23.2161      0.00000
     26      24.4642      0.00000
     27      25.8803      0.00000
     28      27.6648      0.00000
     29      28.7081      0.00000
     30      29.6897      0.00000
     31      30.4875      0.00000
     32      31.0454      0.00000
     33      31.5179      0.00000
     34      31.5713      0.00000
     35      32.6212      0.00000
     36      33.2776      0.00000

 k-point   337 :      -0.4667    0.4000    0.4000
  band No.  band energies     occupation 
      1     -19.1375      2.00000
      2     -19.1368      2.00000
      3     -19.1266      2.00000
      4     -19.1265      2.00000
      5     -19.1233      2.00000
      6      -6.0201      2.00000
      7      -2.7256      2.00000
      8       2.7281      2.00000
      9       4.0431      2.00000
     10       5.1437      2.00000
     11       7.0034      0.00000
     12       7.0713      0.00000
     13       8.9279      0.00000
     14      12.7736      0.00000
     15      14.0273      0.00000
     16      14.2819      0.00000
     17      16.4211      0.00000
     18      17.1855      0.00000
     19      18.0996      0.00000
     20      18.5908      0.00000
     21      20.8989      0.00000
     22      21.0346      0.00000
     23      21.5226      0.00000
     24      21.8216      0.00000
     25      23.2078      0.00000
     26      24.1443      0.00000
     27      26.1383      0.00000
     28      26.1385      0.00000
     29      27.4209      0.00000
     30      29.0825      0.00000
     31      29.5015      0.00000
     32      30.0618      0.00000
     33      30.9320      0.00000
     34      32.7924      0.00000
     35      32.8180      0.00000
     36      33.5456      0.00000

 k-point   338 :      -0.4000    0.4000    0.4000
  band No.  band energies     occupation 
      1     -19.1379      2.00000
      2     -19.1363      2.00000
      3     -19.1270      2.00000
      4     -19.1264      2.00000
      5     -19.1229      2.00000
      6      -5.8420      2.00000
      7      -2.6781      2.00000
      8       1.8966      2.00000
      9       3.6262      2.00000
     10       4.5503      2.00000
     11       7.6005      0.00000
     12       7.7960      0.00000
     13       9.9381      0.00000
     14      12.3590      0.00000
     15      13.6558      0.00000
     16      14.1687      0.00000
     17      16.6632      0.00000
     18      17.9238      0.00000
     19      18.6107      0.00000
     20      18.9578      0.00000
     21      19.9445      0.00000
     22      21.3009      0.00000
     23      22.1631      0.00000
     24      22.7571      0.00000
     25      23.7357      0.00000
     26      24.0110      0.00000
     27      24.6122      0.00000
     28      25.7051      0.00000
     29      27.3331      0.00000
     30      27.3576      0.00000
     31      27.9191      0.00000
     32      30.1365      0.00000
     33      30.9510      0.00000
     34      32.6263      0.00000
     35      33.2050      0.00000
     36      33.3119      0.00000

 k-point   339 :       0.4667    0.4667    0.4000
  band No.  band energies     occupation 
      1     -19.1374      2.00000
      2     -19.1371      2.00000
      3     -19.1265      2.00000
      4     -19.1263      2.00000
      5     -19.1235      2.00000
      6      -6.1135      2.00000
      7      -2.7949      2.00000
      8       3.8405      2.00000
      9       4.0914      2.00000
     10       5.3754      2.00000
     11       6.5903      0.00000
     12       6.9522      0.00000
     13       7.6908      0.00000
     14      12.8682      0.00000
     15      14.6564      0.00000
     16      15.3263      0.00000
     17      15.7087      0.00000
     18      16.2452      0.00000
     19      17.6085      0.00000
     20      19.2249      0.00000
     21      20.1037      0.00000
     22      20.7729      0.00000
     23      21.2536      0.00000
     24      22.2651      0.00000
     25      23.0174      0.00000
     26      23.8401      0.00000
     27      25.3194      0.00000
     28      27.7492      0.00000
     29      28.7865      0.00000
     30      29.6779      0.00000
     31      30.5125      0.00000
     32      31.0498      0.00000
     33      31.3371      0.00000
     34      31.5047      0.00000
     35      32.7829      0.00000
     36      33.2524      0.00000

 k-point   340 :      -0.4667    0.4667    0.4000
  band No.  band energies     occupation 
      1     -19.1376      2.00000
      2     -19.1369      2.00000
      3     -19.1266      2.00000
      4     -19.1263      2.00000
      5     -19.1233      2.00000
      6      -6.0141      2.00000
      7      -2.8073      2.00000
      8       3.1185      2.00000
      9       3.8374      2.00000
     10       5.3404      2.00000
     11       6.5188      0.00000
     12       7.5185      0.00000
     13       8.4237      0.00000
     14      12.7359      0.00000
     15      14.2318      0.00000
     16      15.1739      0.00000
     17      15.8897      0.00000
     18      16.9339      0.00000
     19      17.8259      0.00000
     20      19.0388      0.00000
     21      20.2603      0.00000
     22      20.9586      0.00000
     23      21.5427      0.00000
     24      22.3814      0.00000
     25      23.3578      0.00000
     26      23.5355      0.00000
     27      25.3715      0.00000
     28      26.5661      0.00000
     29      28.3971      0.00000
     30      28.6359      0.00000
     31      29.4371      0.00000
     32      30.7976      0.00000
     33      31.3093      0.00000
     34      32.0135      0.00000
     35      32.2146      0.00000
     36      34.0813      0.00000

 k-point   341 :      -0.4000    0.4667    0.4000
  band No.  band energies     occupation 
      1     -19.1378      2.00000
      2     -19.1365      2.00000
      3     -19.1269      2.00000
      4     -19.1264      2.00000
      5     -19.1230      2.00000
      6      -5.8798      2.00000
      7      -2.7375      2.00000
      8       2.3049      2.00000
      9       3.3384      2.00000
     10       5.0933      2.00000
     11       6.7794      0.00000
     12       8.3430      0.00000
     13       9.3621      0.00000
     14      12.4231      0.00000
     15      13.4667      0.00000
     16      15.1686      0.00000
     17      16.3760      0.00000
     18      17.8902      0.00000
     19      18.0491      0.00000
     20      18.9859      0.00000
     21      19.4738      0.00000
     22      21.4216      0.00000
     23      22.1731      0.00000
     24      22.5571      0.00000
     25      23.3850      0.00000
     26      24.3380      0.00000
     27      24.9360      0.00000
     28      25.9950      0.00000
     29      27.2212      0.00000
     30      27.4755      0.00000
     31      28.8567      0.00000
     32      29.3722      0.00000
     33      31.2458      0.00000
     34      32.1158      0.00000
     35      33.4336      0.00000
     36      33.9089      0.00000

 k-point   342 :      -0.4667   -0.4667    0.4000
  band No.  band energies     occupation 
      1     -19.1377      2.00000
      2     -19.1368      2.00000
      3     -19.1267      2.00000
      4     -19.1263      2.00000
      5     -19.1232      2.00000
      6      -5.9656      2.00000
      7      -2.8112      2.00000
      8       2.8484      2.00000
      9       3.8436      2.00000
     10       4.9125      2.00000
     11       7.2722      0.00000
     12       7.2747      0.00000
     13       8.7174      0.00000
     14      12.5694      0.00000
     15      14.3539      0.00000
     16      14.8985      0.00000
     17      16.1762      0.00000
     18      17.0446      0.00000
     19      18.0209      0.00000
     20      19.3752      0.00000
     21      19.5572      0.00000
     22      20.8001      0.00000
     23      22.0298      0.00000
     24      22.8339      0.00000
     25      23.0424      0.00000
     26      23.8308      0.00000
     27      25.2005      0.00000
     28      26.2496      0.00000
     29      27.4651      0.00000
     30      28.8803      0.00000
     31      29.3524      0.00000
     32      30.0851      0.00000
     33      30.8981      0.00000
     34      32.8438      0.00000
     35      32.8453      0.00000
     36      33.6652      0.00000

 k-point   343 :       0.4667    0.4667    0.4667
  band No.  band energies     occupation 
      1     -19.1373      2.00000
      2     -19.1373      2.00000
      3     -19.1263      2.00000
      4     -19.1263      2.00000
      5     -19.1235      2.00000
      6      -6.1064      2.00000
      7      -2.8922      2.00000
      8       4.3415      2.00000
      9       4.3415      2.00000
     10       5.3843      2.00000
     11       6.5840      0.00000
     12       6.5840      0.00000
     13       7.0886      0.00000
     14      13.3871      0.00000
     15      15.0895      0.00000
     16      15.0895      0.00000
     17      15.8014      0.00000
     18      16.3534      0.00000
     19      16.3534      0.00000
     20      20.3172      0.00000
     21      20.3172      0.00000
     22      21.1135      0.00000
     23      21.8264      0.00000
     24      21.8264      0.00000
     25      21.8368      0.00000
     26      23.1953      0.00000
     27      24.7510      0.00000
     28      28.7622      0.00000
     29      29.9739      0.00000
     30      29.9739      0.00000
     31      30.3235      0.00000
     32      30.3235      0.00000
     33      32.1348      0.00000
     34      32.3861      0.00000
     35      32.3861      0.00000
     36      33.2083      0.00000

 k-point   344 :      -0.4667    0.4667    0.4667
  band No.  band energies     occupation 
      1     -19.1374      2.00000
      2     -19.1372      2.00000
      3     -19.1264      2.00000
      4     -19.1263      2.00000
      5     -19.1235      2.00000
      6      -6.0553      2.00000
      7      -2.8977      2.00000
      8       3.7408      2.00000
      9       4.2230      2.00000
     10       5.4386      2.00000
     11       6.5746      0.00000
     12       6.7291      0.00000
     13       7.7358      0.00000
     14      13.2470      0.00000
     15      14.9126      0.00000
     16      14.9330      0.00000
     17      15.7601      0.00000
     18      16.6321      0.00000
     19      16.8178      0.00000
     20      19.8724      0.00000
     21      20.5908      0.00000
     22      21.3744      0.00000
     23      21.6037      0.00000
     24      21.7328      0.00000
     25      22.6064      0.00000
     26      22.9476      0.00000
     27      24.7714      0.00000
     28      27.7917      0.00000
     29      28.8634      0.00000
     30      29.7792      0.00000
     31      30.5532      0.00000
     32      30.9205      0.00000
     33      31.3253      0.00000
     34      31.5584      0.00000
     35      32.6956      0.00000
     36      33.2605      0.00000


--------------------------------------------------------------------------------------------------------


 soft charge-density along one line, spin component           1
         0         1         2         3         4         5         6         7         8         9
 total charge-density along one line
 
 pseudopotential strength for first ion, spin component:           1
-21.780  -0.000   0.000  -0.001  -0.000   4.146   0.000  -0.000
 -0.000 -21.774  -0.000  -0.000  -0.001   0.000   4.144   0.000
  0.000  -0.000 -21.774  -0.000  -0.000  -0.000   0.000   4.144
 -0.001  -0.000  -0.000 -21.774  -0.000   0.001   0.000   0.000
 -0.000  -0.001  -0.000  -0.000 -21.780   0.000   0.001   0.000
  4.146   0.000  -0.000   0.001   0.000   2.042  -0.000   0.000
  0.000   4.144   0.000   0.000   0.001  -0.000   2.043   0.000
 -0.000   0.000   4.144   0.000   0.000   0.000   0.000   2.043
  0.001   0.000   0.000   4.144   0.000  -0.000   0.000  -0.000
  0.000   0.001   0.000   0.000   4.146   0.000  -0.000  -0.000
 -0.000  -0.000   0.000   0.000  -0.000   0.000   0.000  -0.001
 -0.000  -0.000   0.000  -0.000  -0.000   0.000   0.000  -0.001
 -0.000  -0.008  -0.000  -0.000  -0.000  -0.000  -0.004  -0.000
 -0.000   0.000  -0.009  -0.000  -0.000   0.000   0.000  -0.005
 -0.000  -0.000   0.000  -0.008  -0.000  -0.000   0.000   0.000
  0.000  -0.012  -0.000  -0.000  -0.000  -0.000  -0.008  -0.000
 -0.000   0.000  -0.014  -0.000  -0.000   0.000   0.000  -0.010
 -0.000  -0.000  -0.000  -0.012  -0.000  -0.000   0.000   0.000
 total augmentation occupancy for first ion, spin component:           1
  2.002  -0.000   0.000  -0.001   0.000   0.007  -0.000   0.000  -0.003   0.000   0.000  -0.000  -0.000  -0.000   0.014   0.000
 -0.000   2.002   0.000  -0.000  -0.001  -0.000   0.008   0.000   0.000  -0.003   0.000   0.000  -0.003   0.000  -0.000  -0.007
  0.000   0.000   2.001  -0.000  -0.000   0.000   0.000   0.004  -0.000  -0.000  -0.001   0.001  -0.000   0.020  -0.000   0.000
 -0.001  -0.000  -0.000   2.002  -0.000  -0.003   0.000  -0.000   0.008  -0.000  -0.000   0.000  -0.000   0.000  -0.003   0.000
  0.000  -0.001  -0.000  -0.000   2.002   0.000  -0.003  -0.000  -0.000   0.007   0.000   0.000   0.014  -0.000   0.000  -0.004
  0.007  -0.000   0.000  -0.003   0.000   0.021  -0.000   0.000  -0.015   0.000   0.000   0.000  -0.000  -0.000   0.063   0.000
 -0.000   0.008   0.000   0.000  -0.003  -0.000   0.029   0.000   0.000  -0.015  -0.000   0.000  -0.090   0.000  -0.000   0.014
  0.000   0.000   0.004  -0.000  -0.000   0.000   0.000   0.009  -0.000  -0.000  -0.008   0.006  -0.000  -0.001   0.000   0.000
 -0.003   0.000  -0.000   0.008  -0.000  -0.015   0.000  -0.000   0.029  -0.000  -0.000   0.000  -0.000   0.000  -0.090   0.000
  0.000  -0.003  -0.000  -0.000   0.007   0.000  -0.015  -0.000  -0.000   0.021   0.000   0.000   0.063  -0.000   0.000  -0.010
  0.000   0.000  -0.001  -0.000   0.000   0.000  -0.000  -0.008  -0.000   0.000   2.681  -0.666  -0.000  -0.284   0.000   0.000
 -0.000   0.000   0.001   0.000   0.000   0.000   0.000   0.006   0.000   0.000  -0.666   0.649   0.000   0.362  -0.000  -0.000
 -0.000  -0.003  -0.000  -0.000   0.014  -0.000  -0.090  -0.000  -0.000   0.063  -0.000   0.000   1.202  -0.000   0.000  -0.185
 -0.000   0.000   0.020   0.000  -0.000  -0.000   0.000  -0.001   0.000  -0.000  -0.284   0.362   0.000   1.205  -0.000   0.000
  0.014  -0.000  -0.000  -0.003   0.000   0.063  -0.000   0.000  -0.090   0.000   0.000  -0.000   0.000  -0.000   1.202   0.000
  0.000  -0.007   0.000   0.000  -0.004   0.000   0.014   0.000   0.000  -0.010   0.000  -0.000  -0.185   0.000   0.000   0.032
  0.000  -0.000  -0.015   0.000   0.000   0.000  -0.000  -0.000  -0.000   0.000   0.046  -0.050   0.000  -0.178   0.000   0.000
 -0.004   0.000   0.000  -0.007  -0.000  -0.010  -0.000  -0.000   0.014  -0.000  -0.000   0.000   0.000   0.000  -0.185   0.000


------------------------ aborting loop because EDIFF is reached ----------------------------------------


 MLWF driver (Wannier functions)
 ===============================
 Calling wannier_setup of wannier90 in library mode
 Wannier90 mode
 Computing MMN (overlap matrix elements)
 Writing MMN to wannier90.mmn
 Writing EIG to wannier90.eig
 
 LOCPROJ orbitals
 -------------------------------------------------------------------------------
 ---------------
  n  l  m   za        pos                       proj_x                    proj_z
 -------------------------------------------------------------------------------
 ---------------
  1  0  1   1.890    -0.005  -0.005  -0.005     1.000   0.000   0.000     0.000   0.000   1.000
  1  1  1   1.890    -0.005  -0.005  -0.005     1.000   0.000   0.000     0.000   0.000   1.000
  1  1  2   1.890    -0.005  -0.005  -0.005     1.000   0.000   0.000     0.000   0.000   1.000
  1  1  3   1.890    -0.005  -0.005  -0.005     1.000   0.000   0.000     0.000   0.000   1.000
  1  0  1   1.890    -0.474  -0.474  -0.474     1.000   0.000   0.000     0.000   0.000   1.000
  1  1  1   1.890    -0.474  -0.474  -0.474     1.000   0.000   0.000     0.000   0.000   1.000
  1  1  2   1.890    -0.474  -0.474  -0.474     1.000   0.000   0.000     0.000   0.000   1.000
  1  1  3   1.890    -0.474  -0.474  -0.474     1.000   0.000   0.000     0.000   0.000   1.000
 
 Computing AMN (projections onto localized orbitals)
 Writing AMN to wannier90.amn
  Writing WANPROJ file

 MMN -> overlap matrix elements
 AMM -> projections of Bloch states onto localized states
 UMN -> unitary matrix transforming from Bloch states to Wannier states

 Parameters of MLWF datastructure
 num_band =           36
 num_wann =            8

 Computiation of AMN
 proj = Wannier90

 Transformation from AMN to UMN
 trafo = One-shot SVD method

------------------------ end of MLWF driver reached ----------------------------------------------------



 total charge

# of ion       s       p       d       tot
------------------------------------------
    1        1.323   0.793  10.007  12.123
    2        1.386   1.937   0.034   3.357
--------------------------------------------------
tot          2.708   2.730  10.042  15.480
 
    CHARGE:  cpu time      0.1542: real time      0.1760
    FORLOC:  cpu time      0.0007: real time      0.0007
    FORNL :  cpu time      0.0912: real time      0.0918
    STRESS:  cpu time      3.0000: real time      3.0152
    FORCOR:  cpu time      0.0125: real time      0.0126
    FORHAR:  cpu time      0.0022: real time      0.0022
    MIXING:  cpu time      0.0004: real time      0.0004
    OFIELD:  cpu time      0.0000: real time      0.0000

  FORCE on cell =-STRESS in cart. coord.  units (eV):
  Direction    XX          YY          ZZ          XY          YZ          ZX
  --------------------------------------------------------------------------------------
  Alpha Z    38.97933    38.97933    38.97933
  Ewald    -481.31219  -481.31219  -510.02253     0.00000    -0.00000     0.00000
  Hartree   290.76787   290.76787   270.83943     0.00000     0.00000     0.00000
  E(xc)    -105.71431  -105.71431  -105.71924    -0.00000     0.00000     0.00000
  Local    -101.60170  -101.60170   -54.12219    -0.00000    -0.00000     0.00000
  n-local   139.99750   139.43441   139.87328    -0.97496    -0.95514     1.19496
  augment    97.89525    97.89525    97.88508     0.00000     0.00000    -0.00000
  Kinetic   120.25340   122.81655   122.24722    -2.96894    -3.78205     0.89072
  Fock        0.00000     0.00000     0.00000     0.00000     0.00000     0.00000
  -------------------------------------------------------------------------------------
  Total       0.26518     0.26518    -0.03961     0.00000     0.00000     0.00000
  in kB       7.59912     7.59912    -1.13507     0.00000     0.00000     0.00000
  external pressure =        4.69 kB  Pullay stress =        0.00 kB


 VOLUME and BASIS-vectors are now :
 -----------------------------------------------------------------------------
  energy-cutoff  :      550.00
  volume of cell :       55.91
      direct lattice vectors                 reciprocal lattice vectors
     2.094493397  1.209256327  3.679025785     0.238721211  0.137825755  0.090603696
    -2.094493397  1.209256327  3.679025785    -0.238721211  0.137825755  0.090603696
     0.000000000 -2.418512653  3.679025785     0.000000000 -0.275651511  0.090603696

  length of vectors
     4.402775736  4.402775736  4.402775736     0.290159930  0.290159930  0.290159930


 FORCES acting on ions
    electron-ion (+dipol)            ewald-force                    non-local-force                 convergence-correction
 -----------------------------------------------------------------------------------------------
   0.422E-12 -.455E-07 -.245E+02   -.101E-14 -.411E-14 0.359E+02   0.907E-17 -.453E-16 -.114E+02   -.164E-13 -.238E-13 -.185E-07
   0.825E-13 -.218E-07 0.334E+02   -.153E-14 0.234E-14 -.359E+02   -.446E-17 0.106E-16 0.251E+01   -.973E-15 0.117E-14 0.214E-08
 -----------------------------------------------------------------------------------------------
   0.504E-12 -.672E-07 0.888E+01   -.254E-14 -.177E-14 0.000E+00   0.462E-17 -.347E-16 -.888E+01   -.173E-13 -.227E-13 -.164E-07
 
 
 POSITION                                       TOTAL-FORCE (eV/Angst)
 -----------------------------------------------------------------------------------
     -0.00000      0.00000     10.97904         0.000000     -0.000000     -0.000657
      0.00000      0.00000      5.80835        -0.000000      0.000000      0.000657
 -----------------------------------------------------------------------------------
    total drift:                                0.000000     -0.000000      0.000044


--------------------------------------------------------------------------------------------------------



  FREE ENERGIE OF THE ION-ELECTRON SYSTEM (eV)
  ---------------------------------------------------
  free  energy   TOTEN  =        -7.83940822 eV

  energy  without entropy=       -7.83940822  energy(sigma->0) =       -7.83940822
 


--------------------------------------------------------------------------------------------------------


    POTLOK:  cpu time      0.0144: real time      0.0168


--------------------------------------------------------------------------------------------------------


 writing wavefunctions
     LOOP+:  cpu time    558.6625: real time    598.4866
    4ORBIT:  cpu time      0.0000: real time      0.0000



 total charge

# of ion       s       p       d       tot
------------------------------------------
    1        1.323   0.793  10.007  12.123
    2        1.386   1.937   0.034   3.357
--------------------------------------------------
tot          2.708   2.730  10.042  15.480
 

 total amount of memory used by VASP MPI-rank0   227017. kBytes
=======================================================================

   base      :      30000. kBytes
   nonl-proj :     164116. kBytes
   fftplans  :       1269. kBytes
   grid      :       3663. kBytes
   one-center:         31. kBytes
   wavefun   :      27938. kBytes
 
  
  
 General timing and accounting informations for this job:
 ========================================================
  
                  Total CPU time used (sec):      564.058
                            User time (sec):      398.821
                          System time (sec):      165.237
                         Elapsed time (sec):      604.592
  
                   Maximum memory used (kb):     3264552.
                   Average memory used (kb):          N/A
  
                          Minor page faults:        93647
                          Major page faults:           27
                 Voluntary context switches:      1305191
