Generated by VASPKIT code               
   1.00000000000000     
    11.2690449021263479    0.0000000000000000    0.0000000000000000
     0.0000000000000000    7.2467427229055108    0.0000000000000000
     0.0000000000000000   -0.0000000000000000   10.5005040234252931
  Cs_sv/0e16bce6  I/e40f3f59b681
               4              12
Direct
  0.8190691253392012  0.2500000000000000  0.4695835213955651
  0.1809308746607989  0.7500000000000000  0.5304164786044352
  0.6809308746607988  0.7500000000000000  0.9695835213955648
  0.3190691253392012  0.2500000000000000  0.0304164786044349
  0.1652833159837158  0.2500000000000000  0.3683530510877288
  0.8347166840162840  0.7500000000000000  0.6316469489122715
  0.3347166840162842  0.7500000000000000  0.8683530510877285
  0.6652833159837160  0.2500000000000000  0.1316469489122713
  0.3675790003862877  0.2500000000000000  0.5566957584694237
  0.6324209996137122  0.7500000000000000  0.4433042415305765
  0.1324209996137121  0.7500000000000000  0.0566957584694237
  0.8675790003862878  0.2500000000000000  0.9433042415305763
  0.5618810774017066  0.2500000000000000  0.7380125530212786
  0.4381189225982934  0.7500000000000000  0.2619874469787219
  0.9381189225982934  0.7500000000000000  0.2380125530212782
  0.0618810774017066  0.2500000000000000  0.7619874469787214
 
  0.00000000E+00  0.00000000E+00  0.00000000E+00
  0.00000000E+00  0.00000000E+00  0.00000000E+00
  0.00000000E+00  0.00000000E+00  0.00000000E+00
  0.00000000E+00  0.00000000E+00  0.00000000E+00
  0.00000000E+00  0.00000000E+00  0.00000000E+00
  0.00000000E+00  0.00000000E+00  0.00000000E+00
  0.00000000E+00  0.00000000E+00  0.00000000E+00
  0.00000000E+00  0.00000000E+00  0.00000000E+00
  0.00000000E+00  0.00000000E+00  0.00000000E+00
  0.00000000E+00  0.00000000E+00  0.00000000E+00
  0.00000000E+00  0.00000000E+00  0.00000000E+00
  0.00000000E+00  0.00000000E+00  0.00000000E+00
  0.00000000E+00  0.00000000E+00  0.00000000E+00
  0.00000000E+00  0.00000000E+00  0.00000000E+00
  0.00000000E+00  0.00000000E+00  0.00000000E+00
  0.00000000E+00  0.00000000E+00  0.00000000E+00
