    52
 Wannier centres, written by Wannier90 on 2Mar2026 at 17:50:55 
X          1.86512169       1.81168568       3.78841903
X          1.75679053       1.81168568       3.85574305
X          1.87415505       1.81168568       3.91647299
X         -1.86512169      -1.81168568      -3.78841903
X         -1.75679053      -1.81168568      -3.85574305
X         -1.87415505      -1.81168568      -3.91647299
X          3.76940076      -1.81168568      -1.46183297
X          3.87773192      -1.81168567      -1.39450895
X          3.76036740      -1.81168568      -1.33377901
X         -3.76940076       1.81168568       1.46183297
X         -3.87773192       1.81168567       1.39450895
X         -3.76036740       1.81168568       1.33377901
X          4.14059013       1.81168568      -4.66166531
X          4.13215165       1.81168568      -4.65800769
X          4.10938401       1.81168568      -4.65453674
X         -4.14059013      -1.81168568       4.66166531
X         -4.13215165      -1.81168568       4.65800769
X         -4.10938401      -1.81168568       4.65453674
X          1.49393232      -1.81168567       0.58858669
X          1.50237080      -1.81168568       0.59224431
X          1.52513844      -1.81168568       0.59571526
X         -1.49393232       1.81168567      -0.58858669
X         -1.50237080       1.81168568      -0.59224431
X         -1.52513844       1.81168568      -0.59571526
X         -4.92311740       1.81168567      -2.68989407
X         -4.86668389       1.81168568      -2.73772047
X         -4.93965914       1.81168568      -2.74478846
X          4.92311740      -1.81168567       2.68989407
X          4.86668389      -1.81168568       2.73772047
X          4.93965914      -1.81168568       2.74478846
X         -0.71140505      -1.81168568       2.56035793
X         -0.76783856      -1.81168568       2.51253153
X         -0.69486331      -1.81168568       2.50546354
X          0.71140505       1.81168568      -2.56035793
X          0.76783856       1.81168568      -2.51253153
X          0.69486331       1.81168568      -2.50546354
Cs         9.23012680       1.81168570       4.93086370
Cs         2.03891820       5.43505700       5.56964040
Cs         7.67344060       5.43505700      10.18111570
Cs         3.59560430       1.81168570       0.31938840
I          1.86258510       1.81168570       3.86789270
I          9.40645980       5.43505700       6.63261130
I          3.77193730       5.43505700       9.11814470
I          7.49710760       1.81168570       1.38235930
I          4.14226430       1.81168570       5.84558610
I          7.12678060       5.43505700       4.65491800
I          1.49225820       5.43505700       0.59533400
I          9.77678670       1.81168570       9.90517000
I          6.33186310       1.81168570       7.74950380
I          4.93718180       5.43505700       2.75100020
I         10.57170430       5.43505700       2.49925180
I          0.69734060       1.81168570       8.00125230
