  16   16    1    1
  8.5751179e+02   1.1269045e-09   7.2467427e-10   1.0500504e-09   5.0000000e-16
            1.000000e-04
  CAR
 DOS and projected DOS file by LOBSTER. Energy is shifted such that the Fermi level lies at 0 eV. 
     10.45841231      -9.59171301   401       0.43334965       1.00000000
-10.02506   0.00000  32.00005
 -9.97494   0.00000  32.00005
 -9.92481   0.00000  32.00005
 -9.87469   0.00000  32.00005
 -9.82456   0.00000  32.00005
 -9.77444   0.00000  32.00005
 -9.72431   0.00000  32.00005
 -9.67419   0.00000  32.00005
 -9.62406   0.00000  32.00005
 -9.57393   0.00000  32.00005
 -9.52381   0.00000  32.00005
 -9.47368   0.00000  32.00005
 -9.42356   0.00000  32.00005
 -9.37343   0.00000  32.00005
 -9.32331   0.00000  32.00005
 -9.27318   0.00000  32.00005
 -9.22306   0.00000  32.00005
 -9.17293   0.00000  32.00005
 -9.12281   0.00000  32.00005
 -9.07268   0.00000  32.00005
 -9.02256   0.00000  32.00005
 -8.97243   0.00000  32.00005
 -8.92231   0.00000  32.00005
 -8.87218   0.00000  32.00005
 -8.82206   0.00000  32.00005
 -8.77193   0.00000  32.00005
 -8.72180   0.00000  32.00005
 -8.67168   0.00000  32.00005
 -8.62155   0.00000  32.00005
 -8.57143   0.00000  32.00005
 -8.52130   0.00000  32.00005
 -8.47118   0.00000  32.00005
 -8.42105   0.00000  32.00005
 -8.37093   0.00000  32.00005
 -8.32080   0.00000  32.00005
 -8.27068   0.00000  32.00005
 -8.22055   0.00000  32.00005
 -8.17043   0.00000  32.00005
 -8.12030   0.00000  32.00005
 -8.07018   0.00000  32.00005
 -8.02005   0.00000  32.00005
 -7.96992   0.00000  32.00005
 -7.91980   0.00000  32.00005
 -7.86967   0.00000  32.00005
 -7.81955   0.00000  32.00005
 -7.76942   0.00000  32.00005
 -7.71930   0.00000  32.00005
 -7.66917   0.00000  32.00005
 -7.61905   0.00000  32.00005
 -7.56892   0.00000  32.00005
 -7.51880   0.00000  32.00005
 -7.46867   0.00000  32.00005
 -7.41855   0.00000  32.00005
 -7.36842   0.00000  32.00005
 -7.31830 175.55188  40.79965
 -7.26817 291.49470  55.41091
 -7.21805  11.75493  56.00013
 -7.16792   0.00000  56.00013
 -7.11779   0.00000  56.00013
 -7.06767   0.00000  56.00013
 -7.01754   0.00000  56.00013
 -6.96742   0.00000  56.00013
 -6.91729   0.00000  56.00013
 -6.86717   0.00000  56.00013
 -6.81704   0.00000  56.00013
 -6.76692   0.00000  56.00013
 -6.71679   0.00000  56.00013
 -6.66667   0.00000  56.00013
 -6.61654   0.00000  56.00013
 -6.56642   0.00000  56.00013
 -6.51629   0.00000  56.00013
 -6.46617   0.00000  56.00013
 -6.41604   0.00000  56.00013
 -6.36591   0.00000  56.00013
 -6.31579   0.00000  56.00013
 -6.26566   0.00000  56.00013
 -6.21554   0.00000  56.00013
 -6.16541   0.00000  56.00013
 -6.11529   0.00000  56.00013
 -6.06516   0.00000  56.00013
 -6.01504   0.00000  56.00013
 -5.96491   0.00000  56.00013
 -5.91479   0.00000  56.00013
 -5.86466   0.00000  56.00013
 -5.81454   0.00000  56.00013
 -5.76441   0.00000  56.00013
 -5.71429   0.00000  56.00013
 -5.66416   0.00000  56.00013
 -5.61404   0.00000  56.00013
 -5.56391   0.00000  56.00013
 -5.51378   0.00000  56.00013
 -5.46366   0.00000  56.00013
 -5.41353   0.00000  56.00013
 -5.36341   0.00000  56.00013
 -5.31328   0.00000  56.00013
 -5.26316   0.00000  56.00013
 -5.21303   0.00000  56.00013
 -5.16291   0.00000  56.00013
 -5.11278   0.00000  56.00013
 -5.06266   0.00000  56.00013
 -5.01253   0.00000  56.00013
 -4.96241   0.00000  56.00013
 -4.91228   0.00000  56.00013
 -4.86216   0.00000  56.00013
 -4.81203   0.00000  56.00013
 -4.76190   0.00000  56.00013
 -4.71178   0.00000  56.00013
 -4.66165   0.00000  56.00013
 -4.61153   0.00000  56.00013
 -4.56140   0.00000  56.00013
 -4.51128   0.00000  56.00013
 -4.46115   0.00000  56.00013
 -4.41103   0.00000  56.00013
 -4.36090   0.00000  56.00013
 -4.31078   0.00000  56.00013
 -4.26065   0.00000  56.00013
 -4.21053   0.00000  56.00013
 -4.16040   0.00000  56.00013
 -4.11028   0.00000  56.00013
 -4.06015   0.00000  56.00013
 -4.01003   0.00000  56.00013
 -3.95990   0.00000  56.00013
 -3.90977   0.00000  56.00013
 -3.85965   0.00000  56.00013
 -3.80952   0.00000  56.00013
 -3.75940   0.00000  56.00013
 -3.70927   0.39093  56.01972
 -3.65915  27.61231  57.40380
 -3.60902  42.22967  59.52058
 -3.55890  19.52907  60.49948
 -3.50877  37.94595  62.40153
 -3.45865  30.77213  63.94399
 -3.40852   1.12021  64.00014
 -3.35840   0.00000  64.00014
 -3.30827   0.00000  64.00014
 -3.25815   0.00000  64.00014
 -3.20802   0.00000  64.00014
 -3.15789   0.00000  64.00014
 -3.10777   0.00000  64.00014
 -3.05764   0.00000  64.00014
 -3.00752   0.00000  64.00014
 -2.95739   0.00000  64.00014
 -2.90727   0.00000  64.00014
 -2.85714   0.00000  64.00014
 -2.80702   0.00000  64.00014
 -2.75689   0.00000  64.00014
 -2.70677   0.00000  64.00014
 -2.65664   0.00000  64.00014
 -2.60652   0.00000  64.00014
 -2.55639   0.00000  64.00014
 -2.50627   0.00000  64.00014
 -2.45614   0.00000  64.00014
 -2.40602   0.00000  64.00014
 -2.35589   0.00000  64.00014
 -2.30576   0.00000  64.00014
 -2.25564   0.00000  64.00014
 -2.20551   0.93163  64.04684
 -2.15539  10.55898  64.57611
 -2.10526  33.24164  66.24236
 -2.05514  27.66309  67.62898
 -2.00501  38.53894  69.56076
 -1.95489  39.64617  71.54803
 -1.90476   8.56425  71.97732
 -1.85464   0.47102  72.00093
 -1.80451   3.13435  72.15804
 -1.75439  23.80325  73.35119
 -1.70426  38.62468  75.28726
 -1.65414  19.07295  76.24330
 -1.60401  40.10014  78.25333
 -1.55388  24.43769  79.47828
 -1.50376   9.82244  79.97063
 -1.45363   0.60179  80.00079
 -1.40351   2.79994  80.14114
 -1.35338  11.31450  80.70829
 -1.30326  29.37145  82.18054
 -1.25313  26.00830  83.48421
 -1.20301  16.38754  84.30564
 -1.15288  17.66680  85.19120
 -1.10276  34.29908  86.91045
 -1.05263  26.58242  88.24290
 -1.00251  22.06605  89.34897
 -0.95238  36.04889  91.15593
 -0.90226  20.34916  92.17594
 -0.85213  27.53346  93.55606
 -0.80201  32.43393  95.18182
 -0.75188  49.41858  97.65895
 -0.70175  66.05378 100.96991
 -0.65163  42.29427 103.08993
 -0.60150  14.43278 103.81337
 -0.55138   3.72329 104.00000
 -0.50125   0.52426 104.02628
 -0.45113  18.89452 104.97338
 -0.40100  28.32939 106.39340
 -0.35088  39.29138 108.36289
 -0.30075  47.01126 110.71934
 -0.25063  44.53462 112.95166
 -0.20050  51.19440 115.51779
 -0.15038  40.21031 117.53334
 -0.10025  28.77405 118.97565
 -0.05013  17.70495 119.86312
  0.00000   2.73094 120.00001
  0.05013   0.00000 120.00001
  0.10025   0.00000 120.00001
  0.15038   0.00000 120.00001
  0.20050   0.00000 120.00001
  0.25063   0.00000 120.00001
  0.30075   0.00000 120.00001
  0.35088   0.00000 120.00001
  0.40100   0.00000 120.00001
  0.45113   0.00000 120.00001
  0.50125   0.00000 120.00001
  0.55138   0.00000 120.00001
  0.60150   0.00000 120.00001
  0.65163   0.00000 120.00001
  0.70175   0.00000 120.00001
  0.75188   0.00000 120.00001
  0.80201   0.00000 120.00001
  0.85213   0.00000 120.00001
  0.90226   0.00000 120.00001
  0.95238   0.00000 120.00001
  1.00251   0.00000 120.00001
  1.05263   0.00000 120.00001
  1.10276   0.00000 120.00001
  1.15288   0.00000 120.00001
  1.20301   0.00000 120.00001
  1.25313   0.00000 120.00001
  1.30326   0.00000 120.00001
  1.35338   0.00000 120.00001
  1.40351   0.00000 120.00001
  1.45363   0.00000 120.00001
  1.50376   0.00000 120.00001
  1.55388   0.00000 120.00001
  1.60401   0.00000 120.00001
  1.65414   0.00000 120.00001
  1.70426   0.00000 120.00001
  1.75439   0.00000 120.00001
  1.80451   0.00000 120.00001
  1.85464   0.00000 120.00001
  1.90476   7.89748 120.39587
  1.95489  59.87237 123.39699
  2.00501  47.83302 125.79464
  2.05514  43.00697 127.95038
  2.10526   0.98964 127.99998
  2.15539   0.00000 127.99998
  2.20551   0.00000 127.99998
  2.25564   0.00000 127.99998
  2.30576   0.00000 127.99998
  2.35589   0.00000 127.99998
  2.40602   0.00000 127.99998
  2.45614   0.00000 127.99998
  2.50627   0.00000 127.99998
  2.55639   0.00000 127.99998
  2.60652   0.00000 127.99998
  2.65664   0.00000 127.99998
  2.70677   0.00000 127.99998
  2.75689   0.00000 127.99998
  2.80702   0.00000 127.99998
  2.85714   0.00000 127.99998
  2.90727   0.00000 127.99998
  2.95739   0.00000 127.99998
  3.00752   0.00000 127.99998
  3.05764   0.00000 127.99998
  3.10777   0.00000 127.99998
  3.15789   0.00000 127.99998
  3.20802   0.00000 127.99998
  3.25815   0.00000 127.99998
  3.30827   0.00000 127.99998
  3.35840   0.00000 127.99998
  3.40852   0.00000 127.99998
  3.45865   0.00000 127.99998
  3.50877   0.00000 127.99998
  3.55890   0.00000 127.99998
  3.60902   0.00000 127.99998
  3.65915   0.00000 127.99998
  3.70927   0.00000 127.99998
  3.75940   0.00000 127.99998
  3.80952   0.00000 127.99998
  3.85965   0.00000 127.99998
  3.90977   0.00000 127.99998
  3.95990   0.00000 127.99998
  4.01003   0.00000 127.99998
  4.06015   0.00000 127.99998
  4.11028   0.00001 127.99998
  4.16040   0.01656 128.00081
  4.21053   0.09986 128.00582
  4.26065   0.25952 128.01883
  4.31078   0.49604 128.04369
  4.36090   0.73876 128.08072
  4.41103   0.89913 128.12579
  4.46115   0.99478 128.17566
  4.51128   1.10839 128.23121
  4.56140   1.28527 128.29564
  4.61153   1.56098 128.37388
  4.66165   2.01574 128.47492
  4.71178   2.27221 128.58882
  4.76190   2.32589 128.70540
  4.81203   2.43995 128.82771
  4.86216   2.71330 128.96371
  4.91228   3.07116 129.11765
  4.96241   3.56114 129.29616
  5.01253   4.82166 129.53785
  5.06266   5.43625 129.81034
  5.11278   8.55892 130.23936
  5.16291  13.89843 130.93602
  5.21303  28.63869 132.37154
  5.26316  27.80778 133.76542
  5.31328  24.48481 134.99273
  5.36341  11.90941 135.58969
  5.41353   6.46028 135.91351
  5.46366   0.12068 135.91956
  5.51378   0.00000 135.91956
  5.56391   0.00000 135.91956
  5.61404   0.00000 135.91956
  5.66416   0.00000 135.91956
  5.71429   0.00000 135.91956
  5.76441   0.00000 135.91956
  5.81454   0.00000 135.91956
  5.86466   0.00000 135.91956
  5.91479   0.00000 135.91956
  5.96491   0.00000 135.91956
  6.01504   0.00000 135.91956
  6.06516   0.00000 135.91956
  6.11529   0.00000 135.91956
  6.16541   0.00000 135.91956
  6.21554   0.00000 135.91956
  6.26566   0.00000 135.91956
  6.31579   0.00000 135.91956
  6.36591   0.00000 135.91956
  6.41604   0.00000 135.91956
  6.46617   0.00000 135.91956
  6.51629   0.00000 135.91956
  6.56642   0.00000 135.91956
  6.61654   0.00000 135.91956
  6.66667   0.00000 135.91956
  6.71679   0.00000 135.91956
  6.76692   0.00000 135.91956
  6.81704   0.00000 135.91956
  6.86717   0.00000 135.91956
  6.91729   0.00000 135.91956
  6.96742   0.00000 135.91956
  7.01754   0.00000 135.91956
  7.06767   0.00000 135.91956
  7.11779   0.00000 135.91956
  7.16792   0.00000 135.91956
  7.21805   0.00000 135.91956
  7.26817   0.00000 135.91956
  7.31830   0.00000 135.91956
  7.36842   0.00000 135.91956
  7.41855   0.00000 135.91956
  7.46867   0.00000 135.91956
  7.51880   0.00000 135.91956
  7.56892   0.00000 135.91956
  7.61905   0.00000 135.91956
  7.66917   0.00000 135.91956
  7.71930   0.00000 135.91956
  7.76942   0.00000 135.91956
  7.81955   0.00000 135.91956
  7.86967   0.00000 135.91956
  7.91980   0.00000 135.91956
  7.96992   0.00000 135.91956
  8.02005   0.00000 135.91956
  8.07018   0.00000 135.91956
  8.12030   0.00000 135.91956
  8.17043   0.00000 135.91956
  8.22055   0.00000 135.91956
  8.27068   0.00000 135.91956
  8.32080   0.00000 135.91956
  8.37093   0.00000 135.91956
  8.42105   0.00000 135.91956
  8.47118   0.00000 135.91956
  8.52130   0.00000 135.91956
  8.57143   0.00000 135.91956
  8.62155   0.00000 135.91956
  8.67168   0.00000 135.91956
  8.72180   0.00000 135.91956
  8.77193   0.00000 135.91956
  8.82206   0.00000 135.91956
  8.87218   0.00000 135.91956
  8.92231   0.00000 135.91956
  8.97243   0.00000 135.91956
  9.02256   0.00000 135.91956
  9.07268   0.00000 135.91956
  9.12281   0.00000 135.91956
  9.17293   0.00000 135.91956
  9.22306   0.00000 135.91956
  9.27318   0.00000 135.91956
  9.32331   0.00000 135.91956
  9.37343   0.00000 135.91956
  9.42356   0.00000 135.91956
  9.47368   0.00000 135.91956
  9.52381   0.00000 135.91956
  9.57393   0.00000 135.91956
  9.62406   0.00000 135.91956
  9.67419   0.00000 135.91956
  9.72431   0.00000 135.91956
  9.77444   0.00000 135.91956
  9.82456   0.00000 135.91956
  9.87469   0.00000 135.91956
  9.92481   0.00000 135.91956
  9.97494   0.00000 135.91956
 10.02506   0.00000 135.91956
     10.02506266     -10.02506266   401       0.43334965       1.00000000; Z= 55; 5s 6s 5p_y 5p_z 5p_x 
-10.02506   0.00000   0.00000   0.00000   0.00000   0.00000
 -9.97494   0.00000   0.00000   0.00000   0.00000   0.00000
 -9.92481   0.00000   0.00000   0.00000   0.00000   0.00000
 -9.87469   0.00000   0.00000   0.00000   0.00000   0.00000
 -9.82456   0.00000   0.00000   0.00000   0.00000   0.00000
 -9.77444   0.00000   0.00000   0.00000   0.00000   0.00000
 -9.72431   0.00000   0.00000   0.00000   0.00000   0.00000
 -9.67419   0.00000   0.00000   0.00000   0.00000   0.00000
 -9.62406   0.00000   0.00000   0.00000   0.00000   0.00000
 -9.57393   0.00000   0.00000   0.00000   0.00000   0.00000
 -9.52381   0.00000   0.00000   0.00000   0.00000   0.00000
 -9.47368   0.00000   0.00000   0.00000   0.00000   0.00000
 -9.42356   0.00000   0.00000   0.00000   0.00000   0.00000
 -9.37343   0.00000   0.00000   0.00000   0.00000   0.00000
 -9.32331   0.00000   0.00000   0.00000   0.00000   0.00000
 -9.27318   0.00000   0.00000   0.00000   0.00000   0.00000
 -9.22306   0.00000   0.00000   0.00000   0.00000   0.00000
 -9.17293   0.00000   0.00000   0.00000   0.00000   0.00000
 -9.12281   0.00000   0.00000   0.00000   0.00000   0.00000
 -9.07268   0.00000   0.00000   0.00000   0.00000   0.00000
 -9.02256   0.00000   0.00000   0.00000   0.00000   0.00000
 -8.97243   0.00000   0.00000   0.00000   0.00000   0.00000
 -8.92231   0.00000   0.00000   0.00000   0.00000   0.00000
 -8.87218   0.00000   0.00000   0.00000   0.00000   0.00000
 -8.82206   0.00000   0.00000   0.00000   0.00000   0.00000
 -8.77193   0.00000   0.00000   0.00000   0.00000   0.00000
 -8.72180   0.00000   0.00000   0.00000   0.00000   0.00000
 -8.67168   0.00000   0.00000   0.00000   0.00000   0.00000
 -8.62155   0.00000   0.00000   0.00000   0.00000   0.00000
 -8.57143   0.00000   0.00000   0.00000   0.00000   0.00000
 -8.52130   0.00000   0.00000   0.00000   0.00000   0.00000
 -8.47118   0.00000   0.00000   0.00000   0.00000   0.00000
 -8.42105   0.00000   0.00000   0.00000   0.00000   0.00000
 -8.37093   0.00000   0.00000   0.00000   0.00000   0.00000
 -8.32080   0.00000   0.00000   0.00000   0.00000   0.00000
 -8.27068   0.00000   0.00000   0.00000   0.00000   0.00000
 -8.22055   0.00000   0.00000   0.00000   0.00000   0.00000
 -8.17043   0.00000   0.00000   0.00000   0.00000   0.00000
 -8.12030   0.00000   0.00000   0.00000   0.00000   0.00000
 -8.07018   0.00000   0.00000   0.00000   0.00000   0.00000
 -8.02005   0.00000   0.00000   0.00000   0.00000   0.00000
 -7.96992   0.00000   0.00000   0.00000   0.00000   0.00000
 -7.91980   0.00000   0.00000   0.00000   0.00000   0.00000
 -7.86967   0.00000   0.00000   0.00000   0.00000   0.00000
 -7.81955   0.00000   0.00000   0.00000   0.00000   0.00000
 -7.76942   0.00000   0.00000   0.00000   0.00000   0.00000
 -7.71930   0.00000   0.00000   0.00000   0.00000   0.00000
 -7.66917   0.00000   0.00000   0.00000   0.00000   0.00000
 -7.61905   0.00000   0.00000   0.00000   0.00000   0.00000
 -7.56892   0.00000   0.00000   0.00000   0.00000   0.00000
 -7.51880   0.00000   0.00000   0.00000   0.00000   0.00000
 -7.46867   0.00000   0.00000   0.00000   0.00000   0.00000
 -7.41855   0.00000   0.00000   0.00000   0.00000   0.00000
 -7.36842   0.00000   0.00000   0.00000   0.00000   0.00000
 -7.31830   0.00000   0.00171  19.16618   7.40147  16.83683
 -7.26817   0.00002   0.00278  19.89388  29.85845  22.45784
 -7.21805   0.00001  -0.00014   0.40027   2.24142   0.22340
 -7.16792   0.00000   0.00000   0.00000   0.00000   0.00000
 -7.11779   0.00000   0.00000   0.00000   0.00000   0.00000
 -7.06767   0.00000   0.00000   0.00000   0.00000   0.00000
 -7.01754   0.00000   0.00000   0.00000   0.00000   0.00000
 -6.96742   0.00000   0.00000   0.00000   0.00000   0.00000
 -6.91729   0.00000   0.00000   0.00000   0.00000   0.00000
 -6.86717   0.00000   0.00000   0.00000   0.00000   0.00000
 -6.81704   0.00000   0.00000   0.00000   0.00000   0.00000
 -6.76692   0.00000   0.00000   0.00000   0.00000   0.00000
 -6.71679   0.00000   0.00000   0.00000   0.00000   0.00000
 -6.66667   0.00000   0.00000   0.00000   0.00000   0.00000
 -6.61654   0.00000   0.00000   0.00000   0.00000   0.00000
 -6.56642   0.00000   0.00000   0.00000   0.00000   0.00000
 -6.51629   0.00000   0.00000   0.00000   0.00000   0.00000
 -6.46617   0.00000   0.00000   0.00000   0.00000   0.00000
 -6.41604   0.00000   0.00000   0.00000   0.00000   0.00000
 -6.36591   0.00000   0.00000   0.00000   0.00000   0.00000
 -6.31579   0.00000   0.00000   0.00000   0.00000   0.00000
 -6.26566   0.00000   0.00000   0.00000   0.00000   0.00000
 -6.21554   0.00000   0.00000   0.00000   0.00000   0.00000
 -6.16541   0.00000   0.00000   0.00000   0.00000   0.00000
 -6.11529   0.00000   0.00000   0.00000   0.00000   0.00000
 -6.06516   0.00000   0.00000   0.00000   0.00000   0.00000
 -6.01504   0.00000   0.00000   0.00000   0.00000   0.00000
 -5.96491   0.00000   0.00000   0.00000   0.00000   0.00000
 -5.91479   0.00000   0.00000   0.00000   0.00000   0.00000
 -5.86466   0.00000   0.00000   0.00000   0.00000   0.00000
 -5.81454   0.00000   0.00000   0.00000   0.00000   0.00000
 -5.76441   0.00000   0.00000   0.00000   0.00000   0.00000
 -5.71429   0.00000   0.00000   0.00000   0.00000   0.00000
 -5.66416   0.00000   0.00000   0.00000   0.00000   0.00000
 -5.61404   0.00000   0.00000   0.00000   0.00000   0.00000
 -5.56391   0.00000   0.00000   0.00000   0.00000   0.00000
 -5.51378   0.00000   0.00000   0.00000   0.00000   0.00000
 -5.46366   0.00000   0.00000   0.00000   0.00000   0.00000
 -5.41353   0.00000   0.00000   0.00000   0.00000   0.00000
 -5.36341   0.00000   0.00000   0.00000   0.00000   0.00000
 -5.31328   0.00000   0.00000   0.00000   0.00000   0.00000
 -5.26316   0.00000   0.00000   0.00000   0.00000   0.00000
 -5.21303   0.00000   0.00000   0.00000   0.00000   0.00000
 -5.16291   0.00000   0.00000   0.00000   0.00000   0.00000
 -5.11278   0.00000   0.00000   0.00000   0.00000   0.00000
 -5.06266   0.00000   0.00000   0.00000   0.00000   0.00000
 -5.01253   0.00000   0.00000   0.00000   0.00000   0.00000
 -4.96241   0.00000   0.00000   0.00000   0.00000   0.00000
 -4.91228   0.00000   0.00000   0.00000   0.00000   0.00000
 -4.86216   0.00000   0.00000   0.00000   0.00000   0.00000
 -4.81203   0.00000   0.00000   0.00000   0.00000   0.00000
 -4.76190   0.00000   0.00000   0.00000   0.00000   0.00000
 -4.71178   0.00000   0.00000   0.00000   0.00000   0.00000
 -4.66165   0.00000   0.00000   0.00000   0.00000   0.00000
 -4.61153   0.00000   0.00000   0.00000   0.00000   0.00000
 -4.56140   0.00000   0.00000   0.00000   0.00000   0.00000
 -4.51128   0.00000   0.00000   0.00000   0.00000   0.00000
 -4.46115   0.00000   0.00000   0.00000   0.00000   0.00000
 -4.41103   0.00000   0.00000   0.00000   0.00000   0.00000
 -4.36090   0.00000   0.00000   0.00000   0.00000   0.00000
 -4.31078   0.00000   0.00000   0.00000   0.00000   0.00000
 -4.26065   0.00000   0.00000   0.00000   0.00000   0.00000
 -4.21053   0.00000   0.00000   0.00000   0.00000   0.00000
 -4.16040   0.00000   0.00000   0.00000   0.00000   0.00000
 -4.11028   0.00000   0.00000   0.00000   0.00000   0.00000
 -4.06015   0.00000   0.00000   0.00000   0.00000   0.00000
 -4.01003   0.00000   0.00000   0.00000   0.00000   0.00000
 -3.95990   0.00000   0.00000   0.00000   0.00000   0.00000
 -3.90977   0.00000   0.00000   0.00000   0.00000   0.00000
 -3.85965   0.00000   0.00000   0.00000   0.00000   0.00000
 -3.80952   0.00000   0.00000   0.00000   0.00000   0.00000
 -3.75940   0.00000   0.00000   0.00000   0.00000   0.00000
 -3.70927  -0.00000   0.00004   0.00004   0.00003   0.00002
 -3.65915  -0.00004   0.00590   0.01271   0.00225   0.00267
 -3.60902  -0.00012   0.02003   0.01870   0.00453   0.00541
 -3.55890  -0.00006   0.01821   0.00703   0.00143   0.00374
 -3.50877  -0.00007   0.03014   0.00625   0.00382   0.00950
 -3.45865  -0.00003   0.01888   0.00272   0.00590   0.01178
 -3.40852  -0.00000   0.00052   0.00002   0.00027   0.00091
 -3.35840   0.00000   0.00000   0.00000   0.00000   0.00000
 -3.30827   0.00000   0.00000   0.00000   0.00000   0.00000
 -3.25815   0.00000   0.00000   0.00000   0.00000   0.00000
 -3.20802   0.00000   0.00000   0.00000   0.00000   0.00000
 -3.15789   0.00000   0.00000   0.00000   0.00000   0.00000
 -3.10777   0.00000   0.00000   0.00000   0.00000   0.00000
 -3.05764   0.00000   0.00000   0.00000   0.00000   0.00000
 -3.00752   0.00000   0.00000   0.00000   0.00000   0.00000
 -2.95739   0.00000   0.00000   0.00000   0.00000   0.00000
 -2.90727   0.00000   0.00000   0.00000   0.00000   0.00000
 -2.85714   0.00000   0.00000   0.00000   0.00000   0.00000
 -2.80702   0.00000   0.00000   0.00000   0.00000   0.00000
 -2.75689   0.00000   0.00000   0.00000   0.00000   0.00000
 -2.70677   0.00000   0.00000   0.00000   0.00000   0.00000
 -2.65664   0.00000   0.00000   0.00000   0.00000   0.00000
 -2.60652   0.00000   0.00000   0.00000   0.00000   0.00000
 -2.55639   0.00000   0.00000   0.00000   0.00000   0.00000
 -2.50627   0.00000   0.00000   0.00000   0.00000   0.00000
 -2.45614   0.00000   0.00000   0.00000   0.00000   0.00000
 -2.40602   0.00000   0.00000   0.00000   0.00000   0.00000
 -2.35589   0.00000   0.00000   0.00000   0.00000   0.00000
 -2.30576   0.00000   0.00000   0.00000   0.00000   0.00000
 -2.25564   0.00000   0.00000   0.00000   0.00000   0.00000
 -2.20551  -0.00007   0.00747   0.00020   0.00022   0.00023
 -2.15539  -0.00074   0.07489   0.00358   0.00260   0.00278
 -2.10526  -0.00169   0.16527   0.02451   0.00801   0.00747
 -2.05514  -0.00103   0.09655   0.02172   0.00768   0.00526
 -2.00501  -0.00099   0.09935   0.02018   0.01481   0.00989
 -1.95489  -0.00057   0.05769   0.01590   0.01565   0.01749
 -1.90476  -0.00007   0.00663   0.00377   0.00154   0.00500
 -1.85464  -0.00000   0.00030   0.00032   0.00005   0.00010
 -1.80451  -0.00011   0.00976   0.00092   0.00103   0.00073
 -1.75439  -0.00082   0.07691   0.01221   0.00407   0.00585
 -1.70426  -0.00115   0.10549   0.01710   0.00654   0.00686
 -1.65414  -0.00044   0.04089   0.00781   0.00448   0.00291
 -1.60401  -0.00077   0.06339   0.03061   0.00528   0.00309
 -1.55388  -0.00034   0.02625   0.01999   0.00209   0.00166
 -1.50376  -0.00009   0.00732   0.01095   0.00026   0.00048
 -1.45363  -0.00000   0.00035   0.00055   0.00001   0.00001
 -1.40351  -0.00015   0.02045   0.00082   0.00101   0.00048
 -1.35338  -0.00052   0.06246   0.00247   0.00646   0.00407
 -1.30326  -0.00124   0.12579   0.00441   0.02037   0.01644
 -1.25313  -0.00081   0.08063   0.00335   0.01980   0.02050
 -1.20301  -0.00025   0.02365   0.00542   0.01133   0.01293
 -1.15288  -0.00019   0.01801   0.00585   0.00591   0.00909
 -1.10276  -0.00041   0.04441   0.00875   0.01205   0.01258
 -1.05263  -0.00026   0.02719   0.01104   0.00653   0.00730
 -1.00251  -0.00013   0.01436   0.01211   0.00215   0.00396
 -0.95238  -0.00023   0.02719   0.01380   0.00664   0.01090
 -0.90226  -0.00014   0.01390   0.00502   0.00570   0.00567
 -0.85213  -0.00011   0.01182   0.00687   0.00573   0.00574
 -0.80201  -0.00019   0.02150   0.00837   0.00862   0.00541
 -0.75188  -0.00040   0.04068   0.00519   0.01645   0.00956
 -0.70175  -0.00053   0.06361   0.00859   0.01564   0.01100
 -0.65163  -0.00037   0.03783   0.00774   0.00801   0.00577
 -0.60150  -0.00005   0.00673   0.00506   0.00189   0.00194
 -0.55138  -0.00001   0.00228   0.00266   0.00018   0.00017
 -0.50125  -0.00000   0.00096   0.00002   0.00003   0.00031
 -0.45113  -0.00012   0.02332   0.00046   0.00164   0.00945
 -0.40100  -0.00014   0.02964   0.00076   0.00392   0.00985
 -0.35088  -0.00016   0.02923   0.00176   0.00511   0.00577
 -0.30075  -0.00008   0.02350   0.00193   0.00875   0.00333
 -0.25063   0.00005   0.02696   0.00137   0.00574   0.00328
 -0.20050  -0.00007   0.03003   0.00121   0.00471   0.00317
 -0.15038  -0.00024   0.01866   0.00071   0.00740   0.00211
 -0.10025  -0.00027   0.01844   0.00022   0.00823   0.00283
 -0.05013  -0.00011   0.00981   0.00007   0.00576   0.00191
  0.00000  -0.00001   0.00074   0.00001   0.00116   0.00023
  0.05013   0.00000   0.00000   0.00000   0.00000   0.00000
  0.10025   0.00000   0.00000   0.00000   0.00000   0.00000
  0.15038   0.00000   0.00000   0.00000   0.00000   0.00000
  0.20050   0.00000   0.00000   0.00000   0.00000   0.00000
  0.25063   0.00000   0.00000   0.00000   0.00000   0.00000
  0.30075   0.00000   0.00000   0.00000   0.00000   0.00000
  0.35088   0.00000   0.00000   0.00000   0.00000   0.00000
  0.40100   0.00000   0.00000   0.00000   0.00000   0.00000
  0.45113   0.00000   0.00000   0.00000   0.00000   0.00000
  0.50125   0.00000   0.00000   0.00000   0.00000   0.00000
  0.55138   0.00000   0.00000   0.00000   0.00000   0.00000
  0.60150   0.00000   0.00000   0.00000   0.00000   0.00000
  0.65163   0.00000   0.00000   0.00000   0.00000   0.00000
  0.70175   0.00000   0.00000   0.00000   0.00000   0.00000
  0.75188   0.00000   0.00000   0.00000   0.00000   0.00000
  0.80201   0.00000   0.00000   0.00000   0.00000   0.00000
  0.85213   0.00000   0.00000   0.00000   0.00000   0.00000
  0.90226   0.00000   0.00000   0.00000   0.00000   0.00000
  0.95238   0.00000   0.00000   0.00000   0.00000   0.00000
  1.00251   0.00000   0.00000   0.00000   0.00000   0.00000
  1.05263   0.00000   0.00000   0.00000   0.00000   0.00000
  1.10276   0.00000   0.00000   0.00000   0.00000   0.00000
  1.15288   0.00000   0.00000   0.00000   0.00000   0.00000
  1.20301   0.00000   0.00000   0.00000   0.00000   0.00000
  1.25313   0.00000   0.00000   0.00000   0.00000   0.00000
  1.30326   0.00000   0.00000   0.00000   0.00000   0.00000
  1.35338   0.00000   0.00000   0.00000   0.00000   0.00000
  1.40351   0.00000   0.00000   0.00000   0.00000   0.00000
  1.45363   0.00000   0.00000   0.00000   0.00000   0.00000
  1.50376   0.00000   0.00000   0.00000   0.00000   0.00000
  1.55388   0.00000   0.00000   0.00000   0.00000   0.00000
  1.60401   0.00000   0.00000   0.00000   0.00000   0.00000
  1.65414   0.00000   0.00000   0.00000   0.00000   0.00000
  1.70426   0.00000   0.00000   0.00000   0.00000   0.00000
  1.75439   0.00000   0.00000   0.00000   0.00000   0.00000
  1.80451   0.00000   0.00000   0.00000   0.00000   0.00000
  1.85464   0.00000   0.00000   0.00000   0.00000   0.00000
  1.90476  -0.00004   0.05160   0.00002   0.00039   0.00020
  1.95489  -0.00006   0.21008   0.00036   0.00139   0.00196
  2.00501   0.00009   0.12022   0.00024   0.00055   0.00158
  2.05514  -0.00003   0.10661   0.00021   0.00053   0.00122
  2.10526   0.00001   0.00359   0.00000   0.00002   0.00003
  2.15539   0.00000   0.00000   0.00000   0.00000   0.00000
  2.20551   0.00000   0.00000   0.00000   0.00000   0.00000
  2.25564   0.00000   0.00000   0.00000   0.00000   0.00000
  2.30576   0.00000   0.00000   0.00000   0.00000   0.00000
  2.35589   0.00000   0.00000   0.00000   0.00000   0.00000
  2.40602   0.00000   0.00000   0.00000   0.00000   0.00000
  2.45614   0.00000   0.00000   0.00000   0.00000   0.00000
  2.50627   0.00000   0.00000   0.00000   0.00000   0.00000
  2.55639   0.00000   0.00000   0.00000   0.00000   0.00000
  2.60652   0.00000   0.00000   0.00000   0.00000   0.00000
  2.65664   0.00000   0.00000   0.00000   0.00000   0.00000
  2.70677   0.00000   0.00000   0.00000   0.00000   0.00000
  2.75689   0.00000   0.00000   0.00000   0.00000   0.00000
  2.80702   0.00000   0.00000   0.00000   0.00000   0.00000
  2.85714   0.00000   0.00000   0.00000   0.00000   0.00000
  2.90727   0.00000   0.00000   0.00000   0.00000   0.00000
  2.95739   0.00000   0.00000   0.00000   0.00000   0.00000
  3.00752   0.00000   0.00000   0.00000   0.00000   0.00000
  3.05764   0.00000   0.00000   0.00000   0.00000   0.00000
  3.10777   0.00000   0.00000   0.00000   0.00000   0.00000
  3.15789   0.00000   0.00000   0.00000   0.00000   0.00000
  3.20802   0.00000   0.00000   0.00000   0.00000   0.00000
  3.25815   0.00000   0.00000   0.00000   0.00000   0.00000
  3.30827   0.00000   0.00000   0.00000   0.00000   0.00000
  3.35840   0.00000   0.00000   0.00000   0.00000   0.00000
  3.40852   0.00000   0.00000   0.00000   0.00000   0.00000
  3.45865   0.00000   0.00000   0.00000   0.00000   0.00000
  3.50877   0.00000   0.00000   0.00000   0.00000   0.00000
  3.55890   0.00000   0.00000   0.00000   0.00000   0.00000
  3.60902   0.00000   0.00000   0.00000   0.00000   0.00000
  3.65915   0.00000   0.00000   0.00000   0.00000   0.00000
  3.70927   0.00000   0.00000   0.00000   0.00000   0.00000
  3.75940   0.00000   0.00000   0.00000   0.00000   0.00000
  3.80952   0.00000   0.00000   0.00000   0.00000   0.00000
  3.85965   0.00000   0.00000   0.00000   0.00000   0.00000
  3.90977   0.00000   0.00000   0.00000   0.00000   0.00000
  3.95990   0.00000   0.00000   0.00000   0.00000   0.00000
  4.01003   0.00000   0.00000   0.00000   0.00000   0.00000
  4.06015   0.00000   0.00000   0.00000   0.00000   0.00000
  4.11028  -0.00000   0.00000   0.00000   0.00000   0.00000
  4.16040  -0.00001   0.00384   0.00000   0.00000   0.00000
  4.21053  -0.00008   0.02315   0.00000   0.00000   0.00000
  4.26065  -0.00021   0.06016   0.00001   0.00000   0.00000
  4.31078  -0.00040   0.11527   0.00001   0.00001   0.00001
  4.36090  -0.00057   0.17269   0.00002   0.00002   0.00002
  4.41103  -0.00066   0.21230   0.00003   0.00002   0.00002
  4.46115  -0.00070   0.23784   0.00004   0.00003   0.00002
  4.51128  -0.00074   0.26866   0.00005   0.00003   0.00003
  4.56140  -0.00081   0.31566   0.00006   0.00004   0.00003
  4.61153  -0.00092   0.38726   0.00008   0.00006   0.00004
  4.66165  -0.00110   0.50168   0.00010   0.00009   0.00005
  4.71178  -0.00115   0.56868   0.00012   0.00010   0.00005
  4.76190  -0.00085   0.57985   0.00014   0.00009   0.00007
  4.81203  -0.00018   0.59257   0.00016   0.00009   0.00009
  4.86216   0.00082   0.64428   0.00018   0.00009   0.00013
  4.91228   0.00232   0.71989   0.00020   0.00010   0.00017
  4.96241   0.00422   0.82514   0.00021   0.00012   0.00020
  5.01253   0.00739   1.11233   0.00024   0.00024   0.00022
  5.06266   0.01103   1.25050   0.00026   0.00026   0.00022
  5.11278   0.03470   1.94046   0.00030   0.00023   0.00030
  5.16291   0.05940   3.21254   0.00045   0.00028   0.00034
  5.21303   0.12529   6.89170   0.00075   0.00039   0.00070
  5.26316   0.10000   6.06861   0.00094   0.00039   0.00071
  5.31328   0.08091   5.41045   0.00102   0.00040   0.00093
  5.36341   0.03741   2.67325   0.00060   0.00017   0.00036
  5.41353   0.01697   1.49151   0.00041   0.00013   0.00012
  5.46366   0.00036   0.02801   0.00001   0.00000   0.00000
  5.51378   0.00000   0.00000   0.00000   0.00000   0.00000
  5.56391   0.00000   0.00000   0.00000   0.00000   0.00000
  5.61404   0.00000   0.00000   0.00000   0.00000   0.00000
  5.66416   0.00000   0.00000   0.00000   0.00000   0.00000
  5.71429   0.00000   0.00000   0.00000   0.00000   0.00000
  5.76441   0.00000   0.00000   0.00000   0.00000   0.00000
  5.81454   0.00000   0.00000   0.00000   0.00000   0.00000
  5.86466   0.00000   0.00000   0.00000   0.00000   0.00000
  5.91479   0.00000   0.00000   0.00000   0.00000   0.00000
  5.96491   0.00000   0.00000   0.00000   0.00000   0.00000
  6.01504   0.00000   0.00000   0.00000   0.00000   0.00000
  6.06516   0.00000   0.00000   0.00000   0.00000   0.00000
  6.11529   0.00000   0.00000   0.00000   0.00000   0.00000
  6.16541   0.00000   0.00000   0.00000   0.00000   0.00000
  6.21554   0.00000   0.00000   0.00000   0.00000   0.00000
  6.26566   0.00000   0.00000   0.00000   0.00000   0.00000
  6.31579   0.00000   0.00000   0.00000   0.00000   0.00000
  6.36591   0.00000   0.00000   0.00000   0.00000   0.00000
  6.41604   0.00000   0.00000   0.00000   0.00000   0.00000
  6.46617   0.00000   0.00000   0.00000   0.00000   0.00000
  6.51629   0.00000   0.00000   0.00000   0.00000   0.00000
  6.56642   0.00000   0.00000   0.00000   0.00000   0.00000
  6.61654   0.00000   0.00000   0.00000   0.00000   0.00000
  6.66667   0.00000   0.00000   0.00000   0.00000   0.00000
  6.71679   0.00000   0.00000   0.00000   0.00000   0.00000
  6.76692   0.00000   0.00000   0.00000   0.00000   0.00000
  6.81704   0.00000   0.00000   0.00000   0.00000   0.00000
  6.86717   0.00000   0.00000   0.00000   0.00000   0.00000
  6.91729   0.00000   0.00000   0.00000   0.00000   0.00000
  6.96742   0.00000   0.00000   0.00000   0.00000   0.00000
  7.01754   0.00000   0.00000   0.00000   0.00000   0.00000
  7.06767   0.00000   0.00000   0.00000   0.00000   0.00000
  7.11779   0.00000   0.00000   0.00000   0.00000   0.00000
  7.16792   0.00000   0.00000   0.00000   0.00000   0.00000
  7.21805   0.00000   0.00000   0.00000   0.00000   0.00000
  7.26817   0.00000   0.00000   0.00000   0.00000   0.00000
  7.31830   0.00000   0.00000   0.00000   0.00000   0.00000
  7.36842   0.00000   0.00000   0.00000   0.00000   0.00000
  7.41855   0.00000   0.00000   0.00000   0.00000   0.00000
  7.46867   0.00000   0.00000   0.00000   0.00000   0.00000
  7.51880   0.00000   0.00000   0.00000   0.00000   0.00000
  7.56892   0.00000   0.00000   0.00000   0.00000   0.00000
  7.61905   0.00000   0.00000   0.00000   0.00000   0.00000
  7.66917   0.00000   0.00000   0.00000   0.00000   0.00000
  7.71930   0.00000   0.00000   0.00000   0.00000   0.00000
  7.76942   0.00000   0.00000   0.00000   0.00000   0.00000
  7.81955   0.00000   0.00000   0.00000   0.00000   0.00000
  7.86967   0.00000   0.00000   0.00000   0.00000   0.00000
  7.91980   0.00000   0.00000   0.00000   0.00000   0.00000
  7.96992   0.00000   0.00000   0.00000   0.00000   0.00000
  8.02005   0.00000   0.00000   0.00000   0.00000   0.00000
  8.07018   0.00000   0.00000   0.00000   0.00000   0.00000
  8.12030   0.00000   0.00000   0.00000   0.00000   0.00000
  8.17043   0.00000   0.00000   0.00000   0.00000   0.00000
  8.22055   0.00000   0.00000   0.00000   0.00000   0.00000
  8.27068   0.00000   0.00000   0.00000   0.00000   0.00000
  8.32080   0.00000   0.00000   0.00000   0.00000   0.00000
  8.37093   0.00000   0.00000   0.00000   0.00000   0.00000
  8.42105   0.00000   0.00000   0.00000   0.00000   0.00000
  8.47118   0.00000   0.00000   0.00000   0.00000   0.00000
  8.52130   0.00000   0.00000   0.00000   0.00000   0.00000
  8.57143   0.00000   0.00000   0.00000   0.00000   0.00000
  8.62155   0.00000   0.00000   0.00000   0.00000   0.00000
  8.67168   0.00000   0.00000   0.00000   0.00000   0.00000
  8.72180   0.00000   0.00000   0.00000   0.00000   0.00000
  8.77193   0.00000   0.00000   0.00000   0.00000   0.00000
  8.82206   0.00000   0.00000   0.00000   0.00000   0.00000
  8.87218   0.00000   0.00000   0.00000   0.00000   0.00000
  8.92231   0.00000   0.00000   0.00000   0.00000   0.00000
  8.97243   0.00000   0.00000   0.00000   0.00000   0.00000
  9.02256   0.00000   0.00000   0.00000   0.00000   0.00000
  9.07268   0.00000   0.00000   0.00000   0.00000   0.00000
  9.12281   0.00000   0.00000   0.00000   0.00000   0.00000
  9.17293   0.00000   0.00000   0.00000   0.00000   0.00000
  9.22306   0.00000   0.00000   0.00000   0.00000   0.00000
  9.27318   0.00000   0.00000   0.00000   0.00000   0.00000
  9.32331   0.00000   0.00000   0.00000   0.00000   0.00000
  9.37343   0.00000   0.00000   0.00000   0.00000   0.00000
  9.42356   0.00000   0.00000   0.00000   0.00000   0.00000
  9.47368   0.00000   0.00000   0.00000   0.00000   0.00000
  9.52381   0.00000   0.00000   0.00000   0.00000   0.00000
  9.57393   0.00000   0.00000   0.00000   0.00000   0.00000
  9.62406   0.00000   0.00000   0.00000   0.00000   0.00000
  9.67419   0.00000   0.00000   0.00000   0.00000   0.00000
  9.72431   0.00000   0.00000   0.00000   0.00000   0.00000
  9.77444   0.00000   0.00000   0.00000   0.00000   0.00000
  9.82456   0.00000   0.00000   0.00000   0.00000   0.00000
  9.87469   0.00000   0.00000   0.00000   0.00000   0.00000
  9.92481   0.00000   0.00000   0.00000   0.00000   0.00000
  9.97494   0.00000   0.00000   0.00000   0.00000   0.00000
 10.02506   0.00000   0.00000   0.00000   0.00000   0.00000
     10.02506266     -10.02506266   401       0.43334965       1.00000000; Z= 55; 5s 6s 5p_y 5p_z 5p_x 
-10.02506   0.00000   0.00000   0.00000   0.00000   0.00000
 -9.97494   0.00000   0.00000   0.00000   0.00000   0.00000
 -9.92481   0.00000   0.00000   0.00000   0.00000   0.00000
 -9.87469   0.00000   0.00000   0.00000   0.00000   0.00000
 -9.82456   0.00000   0.00000   0.00000   0.00000   0.00000
 -9.77444   0.00000   0.00000   0.00000   0.00000   0.00000
 -9.72431   0.00000   0.00000   0.00000   0.00000   0.00000
 -9.67419   0.00000   0.00000   0.00000   0.00000   0.00000
 -9.62406   0.00000   0.00000   0.00000   0.00000   0.00000
 -9.57393   0.00000   0.00000   0.00000   0.00000   0.00000
 -9.52381   0.00000   0.00000   0.00000   0.00000   0.00000
 -9.47368   0.00000   0.00000   0.00000   0.00000   0.00000
 -9.42356   0.00000   0.00000   0.00000   0.00000   0.00000
 -9.37343   0.00000   0.00000   0.00000   0.00000   0.00000
 -9.32331   0.00000   0.00000   0.00000   0.00000   0.00000
 -9.27318   0.00000   0.00000   0.00000   0.00000   0.00000
 -9.22306   0.00000   0.00000   0.00000   0.00000   0.00000
 -9.17293   0.00000   0.00000   0.00000   0.00000   0.00000
 -9.12281   0.00000   0.00000   0.00000   0.00000   0.00000
 -9.07268   0.00000   0.00000   0.00000   0.00000   0.00000
 -9.02256   0.00000   0.00000   0.00000   0.00000   0.00000
 -8.97243   0.00000   0.00000   0.00000   0.00000   0.00000
 -8.92231   0.00000   0.00000   0.00000   0.00000   0.00000
 -8.87218   0.00000   0.00000   0.00000   0.00000   0.00000
 -8.82206   0.00000   0.00000   0.00000   0.00000   0.00000
 -8.77193   0.00000   0.00000   0.00000   0.00000   0.00000
 -8.72180   0.00000   0.00000   0.00000   0.00000   0.00000
 -8.67168   0.00000   0.00000   0.00000   0.00000   0.00000
 -8.62155   0.00000   0.00000   0.00000   0.00000   0.00000
 -8.57143   0.00000   0.00000   0.00000   0.00000   0.00000
 -8.52130   0.00000   0.00000   0.00000   0.00000   0.00000
 -8.47118   0.00000   0.00000   0.00000   0.00000   0.00000
 -8.42105   0.00000   0.00000   0.00000   0.00000   0.00000
 -8.37093   0.00000   0.00000   0.00000   0.00000   0.00000
 -8.32080   0.00000   0.00000   0.00000   0.00000   0.00000
 -8.27068   0.00000   0.00000   0.00000   0.00000   0.00000
 -8.22055   0.00000   0.00000   0.00000   0.00000   0.00000
 -8.17043   0.00000   0.00000   0.00000   0.00000   0.00000
 -8.12030   0.00000   0.00000   0.00000   0.00000   0.00000
 -8.07018   0.00000   0.00000   0.00000   0.00000   0.00000
 -8.02005   0.00000   0.00000   0.00000   0.00000   0.00000
 -7.96992   0.00000   0.00000   0.00000   0.00000   0.00000
 -7.91980   0.00000   0.00000   0.00000   0.00000   0.00000
 -7.86967   0.00000   0.00000   0.00000   0.00000   0.00000
 -7.81955   0.00000   0.00000   0.00000   0.00000   0.00000
 -7.76942   0.00000   0.00000   0.00000   0.00000   0.00000
 -7.71930   0.00000   0.00000   0.00000   0.00000   0.00000
 -7.66917   0.00000   0.00000   0.00000   0.00000   0.00000
 -7.61905   0.00000   0.00000   0.00000   0.00000   0.00000
 -7.56892   0.00000   0.00000   0.00000   0.00000   0.00000
 -7.51880   0.00000   0.00000   0.00000   0.00000   0.00000
 -7.46867   0.00000   0.00000   0.00000   0.00000   0.00000
 -7.41855   0.00000   0.00000   0.00000   0.00000   0.00000
 -7.36842   0.00000   0.00000   0.00000   0.00000   0.00000
 -7.31830   0.00000   0.00171  19.13928   7.39706  16.84136
 -7.26817   0.00002   0.00277  19.90653  29.75483  22.45715
 -7.21805   0.00001  -0.00014   0.41453   2.34944   0.21956
 -7.16792   0.00000   0.00000   0.00000   0.00000   0.00000
 -7.11779   0.00000   0.00000   0.00000   0.00000   0.00000
 -7.06767   0.00000   0.00000   0.00000   0.00000   0.00000
 -7.01754   0.00000   0.00000   0.00000   0.00000   0.00000
 -6.96742   0.00000   0.00000   0.00000   0.00000   0.00000
 -6.91729   0.00000   0.00000   0.00000   0.00000   0.00000
 -6.86717   0.00000   0.00000   0.00000   0.00000   0.00000
 -6.81704   0.00000   0.00000   0.00000   0.00000   0.00000
 -6.76692   0.00000   0.00000   0.00000   0.00000   0.00000
 -6.71679   0.00000   0.00000   0.00000   0.00000   0.00000
 -6.66667   0.00000   0.00000   0.00000   0.00000   0.00000
 -6.61654   0.00000   0.00000   0.00000   0.00000   0.00000
 -6.56642   0.00000   0.00000   0.00000   0.00000   0.00000
 -6.51629   0.00000   0.00000   0.00000   0.00000   0.00000
 -6.46617   0.00000   0.00000   0.00000   0.00000   0.00000
 -6.41604   0.00000   0.00000   0.00000   0.00000   0.00000
 -6.36591   0.00000   0.00000   0.00000   0.00000   0.00000
 -6.31579   0.00000   0.00000   0.00000   0.00000   0.00000
 -6.26566   0.00000   0.00000   0.00000   0.00000   0.00000
 -6.21554   0.00000   0.00000   0.00000   0.00000   0.00000
 -6.16541   0.00000   0.00000   0.00000   0.00000   0.00000
 -6.11529   0.00000   0.00000   0.00000   0.00000   0.00000
 -6.06516   0.00000   0.00000   0.00000   0.00000   0.00000
 -6.01504   0.00000   0.00000   0.00000   0.00000   0.00000
 -5.96491   0.00000   0.00000   0.00000   0.00000   0.00000
 -5.91479   0.00000   0.00000   0.00000   0.00000   0.00000
 -5.86466   0.00000   0.00000   0.00000   0.00000   0.00000
 -5.81454   0.00000   0.00000   0.00000   0.00000   0.00000
 -5.76441   0.00000   0.00000   0.00000   0.00000   0.00000
 -5.71429   0.00000   0.00000   0.00000   0.00000   0.00000
 -5.66416   0.00000   0.00000   0.00000   0.00000   0.00000
 -5.61404   0.00000   0.00000   0.00000   0.00000   0.00000
 -5.56391   0.00000   0.00000   0.00000   0.00000   0.00000
 -5.51378   0.00000   0.00000   0.00000   0.00000   0.00000
 -5.46366   0.00000   0.00000   0.00000   0.00000   0.00000
 -5.41353   0.00000   0.00000   0.00000   0.00000   0.00000
 -5.36341   0.00000   0.00000   0.00000   0.00000   0.00000
 -5.31328   0.00000   0.00000   0.00000   0.00000   0.00000
 -5.26316   0.00000   0.00000   0.00000   0.00000   0.00000
 -5.21303   0.00000   0.00000   0.00000   0.00000   0.00000
 -5.16291   0.00000   0.00000   0.00000   0.00000   0.00000
 -5.11278   0.00000   0.00000   0.00000   0.00000   0.00000
 -5.06266   0.00000   0.00000   0.00000   0.00000   0.00000
 -5.01253   0.00000   0.00000   0.00000   0.00000   0.00000
 -4.96241   0.00000   0.00000   0.00000   0.00000   0.00000
 -4.91228   0.00000   0.00000   0.00000   0.00000   0.00000
 -4.86216   0.00000   0.00000   0.00000   0.00000   0.00000
 -4.81203   0.00000   0.00000   0.00000   0.00000   0.00000
 -4.76190   0.00000   0.00000   0.00000   0.00000   0.00000
 -4.71178   0.00000   0.00000   0.00000   0.00000   0.00000
 -4.66165   0.00000   0.00000   0.00000   0.00000   0.00000
 -4.61153   0.00000   0.00000   0.00000   0.00000   0.00000
 -4.56140   0.00000   0.00000   0.00000   0.00000   0.00000
 -4.51128   0.00000   0.00000   0.00000   0.00000   0.00000
 -4.46115   0.00000   0.00000   0.00000   0.00000   0.00000
 -4.41103   0.00000   0.00000   0.00000   0.00000   0.00000
 -4.36090   0.00000   0.00000   0.00000   0.00000   0.00000
 -4.31078   0.00000   0.00000   0.00000   0.00000   0.00000
 -4.26065   0.00000   0.00000   0.00000   0.00000   0.00000
 -4.21053   0.00000   0.00000   0.00000   0.00000   0.00000
 -4.16040   0.00000   0.00000   0.00000   0.00000   0.00000
 -4.11028   0.00000   0.00000   0.00000   0.00000   0.00000
 -4.06015   0.00000   0.00000   0.00000   0.00000   0.00000
 -4.01003   0.00000   0.00000   0.00000   0.00000   0.00000
 -3.95990   0.00000   0.00000   0.00000   0.00000   0.00000
 -3.90977   0.00000   0.00000   0.00000   0.00000   0.00000
 -3.85965   0.00000   0.00000   0.00000   0.00000   0.00000
 -3.80952   0.00000   0.00000   0.00000   0.00000   0.00000
 -3.75940   0.00000   0.00000   0.00000   0.00000   0.00000
 -3.70927  -0.00000   0.00004   0.00004   0.00003   0.00002
 -3.65915  -0.00004   0.00593   0.01282   0.00221   0.00261
 -3.60902  -0.00012   0.01960   0.01894   0.00455   0.00540
 -3.55890  -0.00005   0.01737   0.00700   0.00149   0.00395
 -3.50877  -0.00007   0.03037   0.00610   0.00380   0.00953
 -3.45865  -0.00004   0.01985   0.00255   0.00588   0.01162
 -3.40852  -0.00000   0.00052   0.00002   0.00027   0.00091
 -3.35840   0.00000   0.00000   0.00000   0.00000   0.00000
 -3.30827   0.00000   0.00000   0.00000   0.00000   0.00000
 -3.25815   0.00000   0.00000   0.00000   0.00000   0.00000
 -3.20802   0.00000   0.00000   0.00000   0.00000   0.00000
 -3.15789   0.00000   0.00000   0.00000   0.00000   0.00000
 -3.10777   0.00000   0.00000   0.00000   0.00000   0.00000
 -3.05764   0.00000   0.00000   0.00000   0.00000   0.00000
 -3.00752   0.00000   0.00000   0.00000   0.00000   0.00000
 -2.95739   0.00000   0.00000   0.00000   0.00000   0.00000
 -2.90727   0.00000   0.00000   0.00000   0.00000   0.00000
 -2.85714   0.00000   0.00000   0.00000   0.00000   0.00000
 -2.80702   0.00000   0.00000   0.00000   0.00000   0.00000
 -2.75689   0.00000   0.00000   0.00000   0.00000   0.00000
 -2.70677   0.00000   0.00000   0.00000   0.00000   0.00000
 -2.65664   0.00000   0.00000   0.00000   0.00000   0.00000
 -2.60652   0.00000   0.00000   0.00000   0.00000   0.00000
 -2.55639   0.00000   0.00000   0.00000   0.00000   0.00000
 -2.50627   0.00000   0.00000   0.00000   0.00000   0.00000
 -2.45614   0.00000   0.00000   0.00000   0.00000   0.00000
 -2.40602   0.00000   0.00000   0.00000   0.00000   0.00000
 -2.35589   0.00000   0.00000   0.00000   0.00000   0.00000
 -2.30576   0.00000   0.00000   0.00000   0.00000   0.00000
 -2.25564   0.00000   0.00000   0.00000   0.00000   0.00000
 -2.20551  -0.00007   0.00747   0.00020   0.00022   0.00023
 -2.15539  -0.00070   0.07036   0.00353   0.00290   0.00259
 -2.10526  -0.00168   0.16371   0.02386   0.00795   0.00742
 -2.05514  -0.00104   0.09872   0.02301   0.00797   0.00517
 -2.00501  -0.00103   0.10314   0.01993   0.01537   0.00991
 -1.95489  -0.00057   0.05827   0.01555   0.01466   0.01779
 -1.90476  -0.00007   0.00672   0.00378   0.00144   0.00502
 -1.85464  -0.00000   0.00029   0.00032   0.00005   0.00010
 -1.80451  -0.00010   0.00891   0.00066   0.00102   0.00077
 -1.75439  -0.00081   0.07733   0.01100   0.00429   0.00598
 -1.70426  -0.00117   0.10498   0.01760   0.00680   0.00674
 -1.65414  -0.00045   0.04217   0.00877   0.00400   0.00289
 -1.60401  -0.00078   0.06434   0.03126   0.00526   0.00314
 -1.55388  -0.00033   0.02602   0.02016   0.00209   0.00165
 -1.50376  -0.00009   0.00684   0.01016   0.00029   0.00043
 -1.45363  -0.00000   0.00035   0.00053   0.00001   0.00001
 -1.40351  -0.00015   0.02045   0.00082   0.00101   0.00048
 -1.35338  -0.00053   0.06433   0.00242   0.00642   0.00396
 -1.30326  -0.00127   0.13065   0.00425   0.02043   0.01596
 -1.25313  -0.00078   0.07501   0.00353   0.01994   0.02090
 -1.20301  -0.00026   0.02444   0.00591   0.01120   0.01297
 -1.15288  -0.00023   0.02125   0.00628   0.00617   0.00890
 -1.10276  -0.00038   0.04167   0.00834   0.01256   0.01277
 -1.05263  -0.00024   0.02408   0.01096   0.00597   0.00737
 -1.00251  -0.00014   0.01488   0.01208   0.00235   0.00376
 -0.95238  -0.00023   0.02806   0.01355   0.00652   0.01095
 -0.90226  -0.00013   0.01403   0.00497   0.00560   0.00591
 -0.85213  -0.00010   0.01137   0.00732   0.00632   0.00591
 -0.80201  -0.00019   0.02030   0.00800   0.00781   0.00539
 -0.75188  -0.00043   0.04290   0.00512   0.01637   0.00945
 -0.70175  -0.00054   0.06434   0.00890   0.01569   0.01086
 -0.65163  -0.00035   0.03497   0.00858   0.00819   0.00601
 -0.60150  -0.00005   0.00704   0.00402   0.00173   0.00181
 -0.55138  -0.00001   0.00239   0.00249   0.00017   0.00015
 -0.50125  -0.00000   0.00096   0.00001   0.00003   0.00031
 -0.45113  -0.00012   0.02330   0.00045   0.00149   0.00946
 -0.40100  -0.00014   0.02915   0.00074   0.00352   0.00992
 -0.35088  -0.00016   0.02822   0.00177   0.00633   0.00585
 -0.30075  -0.00008   0.02438   0.00193   0.00831   0.00323
 -0.25063   0.00004   0.02681   0.00134   0.00508   0.00322
 -0.20050  -0.00007   0.03109   0.00126   0.00509   0.00317
 -0.15038  -0.00023   0.01906   0.00071   0.00833   0.00209
 -0.10025  -0.00027   0.01810   0.00022   0.00757   0.00283
 -0.05013  -0.00011   0.00977   0.00007   0.00553   0.00191
  0.00000  -0.00001   0.00074   0.00001   0.00116   0.00023
  0.05013   0.00000   0.00000   0.00000   0.00000   0.00000
  0.10025   0.00000   0.00000   0.00000   0.00000   0.00000
  0.15038   0.00000   0.00000   0.00000   0.00000   0.00000
  0.20050   0.00000   0.00000   0.00000   0.00000   0.00000
  0.25063   0.00000   0.00000   0.00000   0.00000   0.00000
  0.30075   0.00000   0.00000   0.00000   0.00000   0.00000
  0.35088   0.00000   0.00000   0.00000   0.00000   0.00000
  0.40100   0.00000   0.00000   0.00000   0.00000   0.00000
  0.45113   0.00000   0.00000   0.00000   0.00000   0.00000
  0.50125   0.00000   0.00000   0.00000   0.00000   0.00000
  0.55138   0.00000   0.00000   0.00000   0.00000   0.00000
  0.60150   0.00000   0.00000   0.00000   0.00000   0.00000
  0.65163   0.00000   0.00000   0.00000   0.00000   0.00000
  0.70175   0.00000   0.00000   0.00000   0.00000   0.00000
  0.75188   0.00000   0.00000   0.00000   0.00000   0.00000
  0.80201   0.00000   0.00000   0.00000   0.00000   0.00000
  0.85213   0.00000   0.00000   0.00000   0.00000   0.00000
  0.90226   0.00000   0.00000   0.00000   0.00000   0.00000
  0.95238   0.00000   0.00000   0.00000   0.00000   0.00000
  1.00251   0.00000   0.00000   0.00000   0.00000   0.00000
  1.05263   0.00000   0.00000   0.00000   0.00000   0.00000
  1.10276   0.00000   0.00000   0.00000   0.00000   0.00000
  1.15288   0.00000   0.00000   0.00000   0.00000   0.00000
  1.20301   0.00000   0.00000   0.00000   0.00000   0.00000
  1.25313   0.00000   0.00000   0.00000   0.00000   0.00000
  1.30326   0.00000   0.00000   0.00000   0.00000   0.00000
  1.35338   0.00000   0.00000   0.00000   0.00000   0.00000
  1.40351   0.00000   0.00000   0.00000   0.00000   0.00000
  1.45363   0.00000   0.00000   0.00000   0.00000   0.00000
  1.50376   0.00000   0.00000   0.00000   0.00000   0.00000
  1.55388   0.00000   0.00000   0.00000   0.00000   0.00000
  1.60401   0.00000   0.00000   0.00000   0.00000   0.00000
  1.65414   0.00000   0.00000   0.00000   0.00000   0.00000
  1.70426   0.00000   0.00000   0.00000   0.00000   0.00000
  1.75439   0.00000   0.00000   0.00000   0.00000   0.00000
  1.80451   0.00000   0.00000   0.00000   0.00000   0.00000
  1.85464   0.00000   0.00000   0.00000   0.00000   0.00000
  1.90476  -0.00000   0.03983   0.00002   0.00037   0.00016
  1.95489  -0.00009   0.22120   0.00036   0.00141   0.00197
  2.00501   0.00006   0.13628   0.00025   0.00062   0.00154
  2.05514   0.00001   0.09044   0.00020   0.00047   0.00130
  2.10526   0.00001   0.00357   0.00000   0.00002   0.00003
  2.15539   0.00000   0.00000   0.00000   0.00000   0.00000
  2.20551   0.00000   0.00000   0.00000   0.00000   0.00000
  2.25564   0.00000   0.00000   0.00000   0.00000   0.00000
  2.30576   0.00000   0.00000   0.00000   0.00000   0.00000
  2.35589   0.00000   0.00000   0.00000   0.00000   0.00000
  2.40602   0.00000   0.00000   0.00000   0.00000   0.00000
  2.45614   0.00000   0.00000   0.00000   0.00000   0.00000
  2.50627   0.00000   0.00000   0.00000   0.00000   0.00000
  2.55639   0.00000   0.00000   0.00000   0.00000   0.00000
  2.60652   0.00000   0.00000   0.00000   0.00000   0.00000
  2.65664   0.00000   0.00000   0.00000   0.00000   0.00000
  2.70677   0.00000   0.00000   0.00000   0.00000   0.00000
  2.75689   0.00000   0.00000   0.00000   0.00000   0.00000
  2.80702   0.00000   0.00000   0.00000   0.00000   0.00000
  2.85714   0.00000   0.00000   0.00000   0.00000   0.00000
  2.90727   0.00000   0.00000   0.00000   0.00000   0.00000
  2.95739   0.00000   0.00000   0.00000   0.00000   0.00000
  3.00752   0.00000   0.00000   0.00000   0.00000   0.00000
  3.05764   0.00000   0.00000   0.00000   0.00000   0.00000
  3.10777   0.00000   0.00000   0.00000   0.00000   0.00000
  3.15789   0.00000   0.00000   0.00000   0.00000   0.00000
  3.20802   0.00000   0.00000   0.00000   0.00000   0.00000
  3.25815   0.00000   0.00000   0.00000   0.00000   0.00000
  3.30827   0.00000   0.00000   0.00000   0.00000   0.00000
  3.35840   0.00000   0.00000   0.00000   0.00000   0.00000
  3.40852   0.00000   0.00000   0.00000   0.00000   0.00000
  3.45865   0.00000   0.00000   0.00000   0.00000   0.00000
  3.50877   0.00000   0.00000   0.00000   0.00000   0.00000
  3.55890   0.00000   0.00000   0.00000   0.00000   0.00000
  3.60902   0.00000   0.00000   0.00000   0.00000   0.00000
  3.65915   0.00000   0.00000   0.00000   0.00000   0.00000
  3.70927   0.00000   0.00000   0.00000   0.00000   0.00000
  3.75940   0.00000   0.00000   0.00000   0.00000   0.00000
  3.80952   0.00000   0.00000   0.00000   0.00000   0.00000
  3.85965   0.00000   0.00000   0.00000   0.00000   0.00000
  3.90977   0.00000   0.00000   0.00000   0.00000   0.00000
  3.95990   0.00000   0.00000   0.00000   0.00000   0.00000
  4.01003   0.00000   0.00000   0.00000   0.00000   0.00000
  4.06015   0.00000   0.00000   0.00000   0.00000   0.00000
  4.11028  -0.00000   0.00000   0.00000   0.00000   0.00000
  4.16040  -0.00001   0.00384   0.00000   0.00000   0.00000
  4.21053  -0.00008   0.02315   0.00000   0.00000   0.00000
  4.26065  -0.00021   0.06016   0.00001   0.00000   0.00000
  4.31078  -0.00040   0.11526   0.00001   0.00001   0.00001
  4.36090  -0.00057   0.17197   0.00002   0.00002   0.00002
  4.41103  -0.00066   0.20913   0.00003   0.00002   0.00002
  4.46115  -0.00069   0.23065   0.00004   0.00003   0.00003
  4.51128  -0.00073   0.25643   0.00005   0.00003   0.00003
  4.56140  -0.00080   0.29776   0.00006   0.00004   0.00004
  4.61153  -0.00091   0.36292   0.00008   0.00006   0.00005
  4.66165  -0.00109   0.47002   0.00010   0.00009   0.00006
  4.71178  -0.00114   0.52681   0.00012   0.00010   0.00007
  4.76190  -0.00086   0.53613   0.00014   0.00009   0.00008
  4.81203  -0.00023   0.56244   0.00015   0.00008   0.00010
  4.86216   0.00070   0.63252   0.00018   0.00009   0.00013
  4.91228   0.00216   0.73467   0.00020   0.00010   0.00016
  4.96241   0.00405   0.86708   0.00022   0.00013   0.00018
  5.01253   0.00718   1.15554   0.00025   0.00024   0.00020
  5.06266   0.01077   1.28282   0.00027   0.00026   0.00021
  5.11278   0.03456   1.96592   0.00031   0.00024   0.00029
  5.16291   0.05885   3.17029   0.00045   0.00027   0.00034
  5.21303   0.11861   6.63033   0.00075   0.00037   0.00066
  5.26316   0.10444   6.28032   0.00092   0.00041   0.00073
  5.31328   0.08380   5.52539   0.00100   0.00041   0.00095
  5.36341   0.03858   2.71735   0.00059   0.00017   0.00036
  5.41353   0.01702   1.48978   0.00041   0.00013   0.00012
  5.46366   0.00036   0.02801   0.00001   0.00000   0.00000
  5.51378   0.00000   0.00000   0.00000   0.00000   0.00000
  5.56391   0.00000   0.00000   0.00000   0.00000   0.00000
  5.61404   0.00000   0.00000   0.00000   0.00000   0.00000
  5.66416   0.00000   0.00000   0.00000   0.00000   0.00000
  5.71429   0.00000   0.00000   0.00000   0.00000   0.00000
  5.76441   0.00000   0.00000   0.00000   0.00000   0.00000
  5.81454   0.00000   0.00000   0.00000   0.00000   0.00000
  5.86466   0.00000   0.00000   0.00000   0.00000   0.00000
  5.91479   0.00000   0.00000   0.00000   0.00000   0.00000
  5.96491   0.00000   0.00000   0.00000   0.00000   0.00000
  6.01504   0.00000   0.00000   0.00000   0.00000   0.00000
  6.06516   0.00000   0.00000   0.00000   0.00000   0.00000
  6.11529   0.00000   0.00000   0.00000   0.00000   0.00000
  6.16541   0.00000   0.00000   0.00000   0.00000   0.00000
  6.21554   0.00000   0.00000   0.00000   0.00000   0.00000
  6.26566   0.00000   0.00000   0.00000   0.00000   0.00000
  6.31579   0.00000   0.00000   0.00000   0.00000   0.00000
  6.36591   0.00000   0.00000   0.00000   0.00000   0.00000
  6.41604   0.00000   0.00000   0.00000   0.00000   0.00000
  6.46617   0.00000   0.00000   0.00000   0.00000   0.00000
  6.51629   0.00000   0.00000   0.00000   0.00000   0.00000
  6.56642   0.00000   0.00000   0.00000   0.00000   0.00000
  6.61654   0.00000   0.00000   0.00000   0.00000   0.00000
  6.66667   0.00000   0.00000   0.00000   0.00000   0.00000
  6.71679   0.00000   0.00000   0.00000   0.00000   0.00000
  6.76692   0.00000   0.00000   0.00000   0.00000   0.00000
  6.81704   0.00000   0.00000   0.00000   0.00000   0.00000
  6.86717   0.00000   0.00000   0.00000   0.00000   0.00000
  6.91729   0.00000   0.00000   0.00000   0.00000   0.00000
  6.96742   0.00000   0.00000   0.00000   0.00000   0.00000
  7.01754   0.00000   0.00000   0.00000   0.00000   0.00000
  7.06767   0.00000   0.00000   0.00000   0.00000   0.00000
  7.11779   0.00000   0.00000   0.00000   0.00000   0.00000
  7.16792   0.00000   0.00000   0.00000   0.00000   0.00000
  7.21805   0.00000   0.00000   0.00000   0.00000   0.00000
  7.26817   0.00000   0.00000   0.00000   0.00000   0.00000
  7.31830   0.00000   0.00000   0.00000   0.00000   0.00000
  7.36842   0.00000   0.00000   0.00000   0.00000   0.00000
  7.41855   0.00000   0.00000   0.00000   0.00000   0.00000
  7.46867   0.00000   0.00000   0.00000   0.00000   0.00000
  7.51880   0.00000   0.00000   0.00000   0.00000   0.00000
  7.56892   0.00000   0.00000   0.00000   0.00000   0.00000
  7.61905   0.00000   0.00000   0.00000   0.00000   0.00000
  7.66917   0.00000   0.00000   0.00000   0.00000   0.00000
  7.71930   0.00000   0.00000   0.00000   0.00000   0.00000
  7.76942   0.00000   0.00000   0.00000   0.00000   0.00000
  7.81955   0.00000   0.00000   0.00000   0.00000   0.00000
  7.86967   0.00000   0.00000   0.00000   0.00000   0.00000
  7.91980   0.00000   0.00000   0.00000   0.00000   0.00000
  7.96992   0.00000   0.00000   0.00000   0.00000   0.00000
  8.02005   0.00000   0.00000   0.00000   0.00000   0.00000
  8.07018   0.00000   0.00000   0.00000   0.00000   0.00000
  8.12030   0.00000   0.00000   0.00000   0.00000   0.00000
  8.17043   0.00000   0.00000   0.00000   0.00000   0.00000
  8.22055   0.00000   0.00000   0.00000   0.00000   0.00000
  8.27068   0.00000   0.00000   0.00000   0.00000   0.00000
  8.32080   0.00000   0.00000   0.00000   0.00000   0.00000
  8.37093   0.00000   0.00000   0.00000   0.00000   0.00000
  8.42105   0.00000   0.00000   0.00000   0.00000   0.00000
  8.47118   0.00000   0.00000   0.00000   0.00000   0.00000
  8.52130   0.00000   0.00000   0.00000   0.00000   0.00000
  8.57143   0.00000   0.00000   0.00000   0.00000   0.00000
  8.62155   0.00000   0.00000   0.00000   0.00000   0.00000
  8.67168   0.00000   0.00000   0.00000   0.00000   0.00000
  8.72180   0.00000   0.00000   0.00000   0.00000   0.00000
  8.77193   0.00000   0.00000   0.00000   0.00000   0.00000
  8.82206   0.00000   0.00000   0.00000   0.00000   0.00000
  8.87218   0.00000   0.00000   0.00000   0.00000   0.00000
  8.92231   0.00000   0.00000   0.00000   0.00000   0.00000
  8.97243   0.00000   0.00000   0.00000   0.00000   0.00000
  9.02256   0.00000   0.00000   0.00000   0.00000   0.00000
  9.07268   0.00000   0.00000   0.00000   0.00000   0.00000
  9.12281   0.00000   0.00000   0.00000   0.00000   0.00000
  9.17293   0.00000   0.00000   0.00000   0.00000   0.00000
  9.22306   0.00000   0.00000   0.00000   0.00000   0.00000
  9.27318   0.00000   0.00000   0.00000   0.00000   0.00000
  9.32331   0.00000   0.00000   0.00000   0.00000   0.00000
  9.37343   0.00000   0.00000   0.00000   0.00000   0.00000
  9.42356   0.00000   0.00000   0.00000   0.00000   0.00000
  9.47368   0.00000   0.00000   0.00000   0.00000   0.00000
  9.52381   0.00000   0.00000   0.00000   0.00000   0.00000
  9.57393   0.00000   0.00000   0.00000   0.00000   0.00000
  9.62406   0.00000   0.00000   0.00000   0.00000   0.00000
  9.67419   0.00000   0.00000   0.00000   0.00000   0.00000
  9.72431   0.00000   0.00000   0.00000   0.00000   0.00000
  9.77444   0.00000   0.00000   0.00000   0.00000   0.00000
  9.82456   0.00000   0.00000   0.00000   0.00000   0.00000
  9.87469   0.00000   0.00000   0.00000   0.00000   0.00000
  9.92481   0.00000   0.00000   0.00000   0.00000   0.00000
  9.97494   0.00000   0.00000   0.00000   0.00000   0.00000
 10.02506   0.00000   0.00000   0.00000   0.00000   0.00000
     10.02506266     -10.02506266   401       0.43334965       1.00000000; Z= 55; 5s 6s 5p_y 5p_z 5p_x 
-10.02506   0.00000   0.00000   0.00000   0.00000   0.00000
 -9.97494   0.00000   0.00000   0.00000   0.00000   0.00000
 -9.92481   0.00000   0.00000   0.00000   0.00000   0.00000
 -9.87469   0.00000   0.00000   0.00000   0.00000   0.00000
 -9.82456   0.00000   0.00000   0.00000   0.00000   0.00000
 -9.77444   0.00000   0.00000   0.00000   0.00000   0.00000
 -9.72431   0.00000   0.00000   0.00000   0.00000   0.00000
 -9.67419   0.00000   0.00000   0.00000   0.00000   0.00000
 -9.62406   0.00000   0.00000   0.00000   0.00000   0.00000
 -9.57393   0.00000   0.00000   0.00000   0.00000   0.00000
 -9.52381   0.00000   0.00000   0.00000   0.00000   0.00000
 -9.47368   0.00000   0.00000   0.00000   0.00000   0.00000
 -9.42356   0.00000   0.00000   0.00000   0.00000   0.00000
 -9.37343   0.00000   0.00000   0.00000   0.00000   0.00000
 -9.32331   0.00000   0.00000   0.00000   0.00000   0.00000
 -9.27318   0.00000   0.00000   0.00000   0.00000   0.00000
 -9.22306   0.00000   0.00000   0.00000   0.00000   0.00000
 -9.17293   0.00000   0.00000   0.00000   0.00000   0.00000
 -9.12281   0.00000   0.00000   0.00000   0.00000   0.00000
 -9.07268   0.00000   0.00000   0.00000   0.00000   0.00000
 -9.02256   0.00000   0.00000   0.00000   0.00000   0.00000
 -8.97243   0.00000   0.00000   0.00000   0.00000   0.00000
 -8.92231   0.00000   0.00000   0.00000   0.00000   0.00000
 -8.87218   0.00000   0.00000   0.00000   0.00000   0.00000
 -8.82206   0.00000   0.00000   0.00000   0.00000   0.00000
 -8.77193   0.00000   0.00000   0.00000   0.00000   0.00000
 -8.72180   0.00000   0.00000   0.00000   0.00000   0.00000
 -8.67168   0.00000   0.00000   0.00000   0.00000   0.00000
 -8.62155   0.00000   0.00000   0.00000   0.00000   0.00000
 -8.57143   0.00000   0.00000   0.00000   0.00000   0.00000
 -8.52130   0.00000   0.00000   0.00000   0.00000   0.00000
 -8.47118   0.00000   0.00000   0.00000   0.00000   0.00000
 -8.42105   0.00000   0.00000   0.00000   0.00000   0.00000
 -8.37093   0.00000   0.00000   0.00000   0.00000   0.00000
 -8.32080   0.00000   0.00000   0.00000   0.00000   0.00000
 -8.27068   0.00000   0.00000   0.00000   0.00000   0.00000
 -8.22055   0.00000   0.00000   0.00000   0.00000   0.00000
 -8.17043   0.00000   0.00000   0.00000   0.00000   0.00000
 -8.12030   0.00000   0.00000   0.00000   0.00000   0.00000
 -8.07018   0.00000   0.00000   0.00000   0.00000   0.00000
 -8.02005   0.00000   0.00000   0.00000   0.00000   0.00000
 -7.96992   0.00000   0.00000   0.00000   0.00000   0.00000
 -7.91980   0.00000   0.00000   0.00000   0.00000   0.00000
 -7.86967   0.00000   0.00000   0.00000   0.00000   0.00000
 -7.81955   0.00000   0.00000   0.00000   0.00000   0.00000
 -7.76942   0.00000   0.00000   0.00000   0.00000   0.00000
 -7.71930   0.00000   0.00000   0.00000   0.00000   0.00000
 -7.66917   0.00000   0.00000   0.00000   0.00000   0.00000
 -7.61905   0.00000   0.00000   0.00000   0.00000   0.00000
 -7.56892   0.00000   0.00000   0.00000   0.00000   0.00000
 -7.51880   0.00000   0.00000   0.00000   0.00000   0.00000
 -7.46867   0.00000   0.00000   0.00000   0.00000   0.00000
 -7.41855   0.00000   0.00000   0.00000   0.00000   0.00000
 -7.36842   0.00000   0.00000   0.00000   0.00000   0.00000
 -7.31830   0.00000   0.00174  19.00101   7.42437  16.80369
 -7.26817   0.00002   0.00291  20.04428  29.85362  22.50768
 -7.21805   0.00001  -0.00005   0.41496   2.22335   0.20672
 -7.16792   0.00000   0.00000   0.00000   0.00000   0.00000
 -7.11779   0.00000   0.00000   0.00000   0.00000   0.00000
 -7.06767   0.00000   0.00000   0.00000   0.00000   0.00000
 -7.01754   0.00000   0.00000   0.00000   0.00000   0.00000
 -6.96742   0.00000   0.00000   0.00000   0.00000   0.00000
 -6.91729   0.00000   0.00000   0.00000   0.00000   0.00000
 -6.86717   0.00000   0.00000   0.00000   0.00000   0.00000
 -6.81704   0.00000   0.00000   0.00000   0.00000   0.00000
 -6.76692   0.00000   0.00000   0.00000   0.00000   0.00000
 -6.71679   0.00000   0.00000   0.00000   0.00000   0.00000
 -6.66667   0.00000   0.00000   0.00000   0.00000   0.00000
 -6.61654   0.00000   0.00000   0.00000   0.00000   0.00000
 -6.56642   0.00000   0.00000   0.00000   0.00000   0.00000
 -6.51629   0.00000   0.00000   0.00000   0.00000   0.00000
 -6.46617   0.00000   0.00000   0.00000   0.00000   0.00000
 -6.41604   0.00000   0.00000   0.00000   0.00000   0.00000
 -6.36591   0.00000   0.00000   0.00000   0.00000   0.00000
 -6.31579   0.00000   0.00000   0.00000   0.00000   0.00000
 -6.26566   0.00000   0.00000   0.00000   0.00000   0.00000
 -6.21554   0.00000   0.00000   0.00000   0.00000   0.00000
 -6.16541   0.00000   0.00000   0.00000   0.00000   0.00000
 -6.11529   0.00000   0.00000   0.00000   0.00000   0.00000
 -6.06516   0.00000   0.00000   0.00000   0.00000   0.00000
 -6.01504   0.00000   0.00000   0.00000   0.00000   0.00000
 -5.96491   0.00000   0.00000   0.00000   0.00000   0.00000
 -5.91479   0.00000   0.00000   0.00000   0.00000   0.00000
 -5.86466   0.00000   0.00000   0.00000   0.00000   0.00000
 -5.81454   0.00000   0.00000   0.00000   0.00000   0.00000
 -5.76441   0.00000   0.00000   0.00000   0.00000   0.00000
 -5.71429   0.00000   0.00000   0.00000   0.00000   0.00000
 -5.66416   0.00000   0.00000   0.00000   0.00000   0.00000
 -5.61404   0.00000   0.00000   0.00000   0.00000   0.00000
 -5.56391   0.00000   0.00000   0.00000   0.00000   0.00000
 -5.51378   0.00000   0.00000   0.00000   0.00000   0.00000
 -5.46366   0.00000   0.00000   0.00000   0.00000   0.00000
 -5.41353   0.00000   0.00000   0.00000   0.00000   0.00000
 -5.36341   0.00000   0.00000   0.00000   0.00000   0.00000
 -5.31328   0.00000   0.00000   0.00000   0.00000   0.00000
 -5.26316   0.00000   0.00000   0.00000   0.00000   0.00000
 -5.21303   0.00000   0.00000   0.00000   0.00000   0.00000
 -5.16291   0.00000   0.00000   0.00000   0.00000   0.00000
 -5.11278   0.00000   0.00000   0.00000   0.00000   0.00000
 -5.06266   0.00000   0.00000   0.00000   0.00000   0.00000
 -5.01253   0.00000   0.00000   0.00000   0.00000   0.00000
 -4.96241   0.00000   0.00000   0.00000   0.00000   0.00000
 -4.91228   0.00000   0.00000   0.00000   0.00000   0.00000
 -4.86216   0.00000   0.00000   0.00000   0.00000   0.00000
 -4.81203   0.00000   0.00000   0.00000   0.00000   0.00000
 -4.76190   0.00000   0.00000   0.00000   0.00000   0.00000
 -4.71178   0.00000   0.00000   0.00000   0.00000   0.00000
 -4.66165   0.00000   0.00000   0.00000   0.00000   0.00000
 -4.61153   0.00000   0.00000   0.00000   0.00000   0.00000
 -4.56140   0.00000   0.00000   0.00000   0.00000   0.00000
 -4.51128   0.00000   0.00000   0.00000   0.00000   0.00000
 -4.46115   0.00000   0.00000   0.00000   0.00000   0.00000
 -4.41103   0.00000   0.00000   0.00000   0.00000   0.00000
 -4.36090   0.00000   0.00000   0.00000   0.00000   0.00000
 -4.31078   0.00000   0.00000   0.00000   0.00000   0.00000
 -4.26065   0.00000   0.00000   0.00000   0.00000   0.00000
 -4.21053   0.00000   0.00000   0.00000   0.00000   0.00000
 -4.16040   0.00000   0.00000   0.00000   0.00000   0.00000
 -4.11028   0.00000   0.00000   0.00000   0.00000   0.00000
 -4.06015   0.00000   0.00000   0.00000   0.00000   0.00000
 -4.01003   0.00000   0.00000   0.00000   0.00000   0.00000
 -3.95990   0.00000   0.00000   0.00000   0.00000   0.00000
 -3.90977   0.00000   0.00000   0.00000   0.00000   0.00000
 -3.85965   0.00000   0.00000   0.00000   0.00000   0.00000
 -3.80952   0.00000   0.00000   0.00000   0.00000   0.00000
 -3.75940   0.00000   0.00000   0.00000   0.00000   0.00000
 -3.70927  -0.00000   0.00008   0.00004   0.00003   0.00002
 -3.65915  -0.00004   0.00641   0.01271   0.00228   0.00256
 -3.60902  -0.00012   0.01915   0.01869   0.00452   0.00551
 -3.55890  -0.00006   0.01849   0.00705   0.00135   0.00377
 -3.50877  -0.00007   0.03000   0.00627   0.00378   0.00954
 -3.45865  -0.00004   0.01839   0.00272   0.00600   0.01175
 -3.40852  -0.00000   0.00065   0.00002   0.00027   0.00088
 -3.35840   0.00000   0.00000   0.00000   0.00000   0.00000
 -3.30827   0.00000   0.00000   0.00000   0.00000   0.00000
 -3.25815   0.00000   0.00000   0.00000   0.00000   0.00000
 -3.20802   0.00000   0.00000   0.00000   0.00000   0.00000
 -3.15789   0.00000   0.00000   0.00000   0.00000   0.00000
 -3.10777   0.00000   0.00000   0.00000   0.00000   0.00000
 -3.05764   0.00000   0.00000   0.00000   0.00000   0.00000
 -3.00752   0.00000   0.00000   0.00000   0.00000   0.00000
 -2.95739   0.00000   0.00000   0.00000   0.00000   0.00000
 -2.90727   0.00000   0.00000   0.00000   0.00000   0.00000
 -2.85714   0.00000   0.00000   0.00000   0.00000   0.00000
 -2.80702   0.00000   0.00000   0.00000   0.00000   0.00000
 -2.75689   0.00000   0.00000   0.00000   0.00000   0.00000
 -2.70677   0.00000   0.00000   0.00000   0.00000   0.00000
 -2.65664   0.00000   0.00000   0.00000   0.00000   0.00000
 -2.60652   0.00000   0.00000   0.00000   0.00000   0.00000
 -2.55639   0.00000   0.00000   0.00000   0.00000   0.00000
 -2.50627   0.00000   0.00000   0.00000   0.00000   0.00000
 -2.45614   0.00000   0.00000   0.00000   0.00000   0.00000
 -2.40602   0.00000   0.00000   0.00000   0.00000   0.00000
 -2.35589   0.00000   0.00000   0.00000   0.00000   0.00000
 -2.30576   0.00000   0.00000   0.00000   0.00000   0.00000
 -2.25564   0.00000   0.00000   0.00000   0.00000   0.00000
 -2.20551  -0.00008   0.00766   0.00023   0.00017   0.00031
 -2.15539  -0.00076   0.07729   0.00381   0.00209   0.00340
 -2.10526  -0.00174   0.16661   0.02504   0.00796   0.00713
 -2.05514  -0.00099   0.09305   0.02280   0.00808   0.00503
 -2.00501  -0.00096   0.09651   0.01948   0.01487   0.00973
 -1.95489  -0.00056   0.05560   0.01473   0.01568   0.01752
 -1.90476  -0.00007   0.00670   0.00376   0.00166   0.00500
 -1.85464  -0.00000   0.00031   0.00035   0.00005   0.00010
 -1.80451  -0.00012   0.01083   0.00110   0.00069   0.00086
 -1.75439  -0.00080   0.07269   0.01274   0.00381   0.00583
 -1.70426  -0.00113   0.10101   0.01732   0.00687   0.00695
 -1.65414  -0.00046   0.04418   0.00654   0.00483   0.00288
 -1.60401  -0.00078   0.06227   0.02962   0.00517   0.00332
 -1.55388  -0.00034   0.02703   0.02189   0.00209   0.00140
 -1.50376  -0.00008   0.00624   0.01043   0.00031   0.00037
 -1.45363  -0.00000   0.00035   0.00051   0.00001   0.00001
 -1.40351  -0.00015   0.02085   0.00085   0.00074   0.00082
 -1.35338  -0.00053   0.06255   0.00238   0.00598   0.00427
 -1.30326  -0.00125   0.12681   0.00443   0.02175   0.01410
 -1.25313  -0.00080   0.07975   0.00336   0.02043   0.02101
 -1.20301  -0.00025   0.02394   0.00527   0.01015   0.01390
 -1.15288  -0.00022   0.02032   0.00569   0.00513   0.00900
 -1.10276  -0.00039   0.04300   0.00857   0.01174   0.01300
 -1.05263  -0.00026   0.02698   0.01116   0.00736   0.00712
 -1.00251  -0.00014   0.01556   0.01270   0.00271   0.00332
 -0.95238  -0.00022   0.02621   0.01353   0.00720   0.01075
 -0.90226  -0.00012   0.01241   0.00498   0.00465   0.00676
 -0.85213  -0.00011   0.01253   0.00656   0.00577   0.00573
 -0.80201  -0.00019   0.02092   0.00835   0.00845   0.00525
 -0.75188  -0.00040   0.03939   0.00555   0.01661   0.00940
 -0.70175  -0.00051   0.06613   0.00845   0.01603   0.01113
 -0.65163  -0.00039   0.03890   0.00741   0.00786   0.00591
 -0.60150  -0.00006   0.00779   0.00551   0.00173   0.00187
 -0.55138  -0.00001   0.00208   0.00278   0.00019   0.00015
 -0.50125  -0.00000   0.00090   0.00002   0.00002   0.00032
 -0.45113  -0.00012   0.02180   0.00048   0.00161   0.00951
 -0.40100  -0.00015   0.03061   0.00071   0.00370   0.00976
 -0.35088  -0.00016   0.02828   0.00180   0.00532   0.00577
 -0.30075  -0.00008   0.02409   0.00192   0.00849   0.00331
 -0.25063   0.00005   0.02679   0.00124   0.00603   0.00331
 -0.20050  -0.00007   0.02998   0.00134   0.00474   0.00316
 -0.15038  -0.00024   0.01889   0.00071   0.00756   0.00210
 -0.10025  -0.00027   0.01815   0.00022   0.00809   0.00287
 -0.05013  -0.00011   0.00977   0.00007   0.00571   0.00190
  0.00000  -0.00001   0.00071   0.00001   0.00116   0.00022
  0.05013   0.00000   0.00000   0.00000   0.00000   0.00000
  0.10025   0.00000   0.00000   0.00000   0.00000   0.00000
  0.15038   0.00000   0.00000   0.00000   0.00000   0.00000
  0.20050   0.00000   0.00000   0.00000   0.00000   0.00000
  0.25063   0.00000   0.00000   0.00000   0.00000   0.00000
  0.30075   0.00000   0.00000   0.00000   0.00000   0.00000
  0.35088   0.00000   0.00000   0.00000   0.00000   0.00000
  0.40100   0.00000   0.00000   0.00000   0.00000   0.00000
  0.45113   0.00000   0.00000   0.00000   0.00000   0.00000
  0.50125   0.00000   0.00000   0.00000   0.00000   0.00000
  0.55138   0.00000   0.00000   0.00000   0.00000   0.00000
  0.60150   0.00000   0.00000   0.00000   0.00000   0.00000
  0.65163   0.00000   0.00000   0.00000   0.00000   0.00000
  0.70175   0.00000   0.00000   0.00000   0.00000   0.00000
  0.75188   0.00000   0.00000   0.00000   0.00000   0.00000
  0.80201   0.00000   0.00000   0.00000   0.00000   0.00000
  0.85213   0.00000   0.00000   0.00000   0.00000   0.00000
  0.90226   0.00000   0.00000   0.00000   0.00000   0.00000
  0.95238   0.00000   0.00000   0.00000   0.00000   0.00000
  1.00251   0.00000   0.00000   0.00000   0.00000   0.00000
  1.05263   0.00000   0.00000   0.00000   0.00000   0.00000
  1.10276   0.00000   0.00000   0.00000   0.00000   0.00000
  1.15288   0.00000   0.00000   0.00000   0.00000   0.00000
  1.20301   0.00000   0.00000   0.00000   0.00000   0.00000
  1.25313   0.00000   0.00000   0.00000   0.00000   0.00000
  1.30326   0.00000   0.00000   0.00000   0.00000   0.00000
  1.35338   0.00000   0.00000   0.00000   0.00000   0.00000
  1.40351   0.00000   0.00000   0.00000   0.00000   0.00000
  1.45363   0.00000   0.00000   0.00000   0.00000   0.00000
  1.50376   0.00000   0.00000   0.00000   0.00000   0.00000
  1.55388   0.00000   0.00000   0.00000   0.00000   0.00000
  1.60401   0.00000   0.00000   0.00000   0.00000   0.00000
  1.65414   0.00000   0.00000   0.00000   0.00000   0.00000
  1.70426   0.00000   0.00000   0.00000   0.00000   0.00000
  1.75439   0.00000   0.00000   0.00000   0.00000   0.00000
  1.80451   0.00000   0.00000   0.00000   0.00000   0.00000
  1.85464   0.00000   0.00000   0.00000   0.00000   0.00000
  1.90476  -0.00003   0.05053   0.00003   0.00033   0.00023
  1.95489  -0.00004   0.21601   0.00036   0.00143   0.00199
  2.00501   0.00006   0.11396   0.00021   0.00054   0.00158
  2.05514  -0.00001   0.11096   0.00023   0.00056   0.00117
  2.10526   0.00002   0.00303   0.00000   0.00002   0.00002
  2.15539   0.00000   0.00000   0.00000   0.00000   0.00000
  2.20551   0.00000   0.00000   0.00000   0.00000   0.00000
  2.25564   0.00000   0.00000   0.00000   0.00000   0.00000
  2.30576   0.00000   0.00000   0.00000   0.00000   0.00000
  2.35589   0.00000   0.00000   0.00000   0.00000   0.00000
  2.40602   0.00000   0.00000   0.00000   0.00000   0.00000
  2.45614   0.00000   0.00000   0.00000   0.00000   0.00000
  2.50627   0.00000   0.00000   0.00000   0.00000   0.00000
  2.55639   0.00000   0.00000   0.00000   0.00000   0.00000
  2.60652   0.00000   0.00000   0.00000   0.00000   0.00000
  2.65664   0.00000   0.00000   0.00000   0.00000   0.00000
  2.70677   0.00000   0.00000   0.00000   0.00000   0.00000
  2.75689   0.00000   0.00000   0.00000   0.00000   0.00000
  2.80702   0.00000   0.00000   0.00000   0.00000   0.00000
  2.85714   0.00000   0.00000   0.00000   0.00000   0.00000
  2.90727   0.00000   0.00000   0.00000   0.00000   0.00000
  2.95739   0.00000   0.00000   0.00000   0.00000   0.00000
  3.00752   0.00000   0.00000   0.00000   0.00000   0.00000
  3.05764   0.00000   0.00000   0.00000   0.00000   0.00000
  3.10777   0.00000   0.00000   0.00000   0.00000   0.00000
  3.15789   0.00000   0.00000   0.00000   0.00000   0.00000
  3.20802   0.00000   0.00000   0.00000   0.00000   0.00000
  3.25815   0.00000   0.00000   0.00000   0.00000   0.00000
  3.30827   0.00000   0.00000   0.00000   0.00000   0.00000
  3.35840   0.00000   0.00000   0.00000   0.00000   0.00000
  3.40852   0.00000   0.00000   0.00000   0.00000   0.00000
  3.45865   0.00000   0.00000   0.00000   0.00000   0.00000
  3.50877   0.00000   0.00000   0.00000   0.00000   0.00000
  3.55890   0.00000   0.00000   0.00000   0.00000   0.00000
  3.60902   0.00000   0.00000   0.00000   0.00000   0.00000
  3.65915   0.00000   0.00000   0.00000   0.00000   0.00000
  3.70927   0.00000   0.00000   0.00000   0.00000   0.00000
  3.75940   0.00000   0.00000   0.00000   0.00000   0.00000
  3.80952   0.00000   0.00000   0.00000   0.00000   0.00000
  3.85965   0.00000   0.00000   0.00000   0.00000   0.00000
  3.90977   0.00000   0.00000   0.00000   0.00000   0.00000
  3.95990   0.00000   0.00000   0.00000   0.00000   0.00000
  4.01003   0.00000   0.00000   0.00000   0.00000   0.00000
  4.06015   0.00000   0.00000   0.00000   0.00000   0.00000
  4.11028  -0.00000   0.00000   0.00000   0.00000   0.00000
  4.16040  -0.00001   0.00402   0.00000   0.00000   0.00000
  4.21053  -0.00008   0.02425   0.00000   0.00000   0.00000
  4.26065  -0.00021   0.06302   0.00001   0.00000   0.00000
  4.31078  -0.00040   0.11955   0.00001   0.00001   0.00001
  4.36090  -0.00056   0.17630   0.00002   0.00002   0.00002
  4.41103  -0.00063   0.21332   0.00003   0.00002   0.00002
  4.46115  -0.00062   0.23542   0.00004   0.00003   0.00003
  4.51128  -0.00059   0.26170   0.00005   0.00003   0.00004
  4.56140  -0.00057   0.30210   0.00006   0.00004   0.00005
  4.61153  -0.00058   0.36448   0.00007   0.00006   0.00007
  4.66165  -0.00063   0.46768   0.00009   0.00009   0.00008
  4.71178  -0.00048   0.52991   0.00011   0.00010   0.00010
  4.76190  -0.00009   0.54582   0.00012   0.00009   0.00012
  4.81203   0.00041   0.57258   0.00014   0.00009   0.00013
  4.86216   0.00105   0.62890   0.00016   0.00009   0.00014
  4.91228   0.00181   0.69238   0.00018   0.00010   0.00014
  4.96241   0.00288   0.78677   0.00020   0.00013   0.00014
  5.01253   0.00574   1.08116   0.00024   0.00024   0.00016
  5.06266   0.00954   1.23510   0.00027   0.00026   0.00017
  5.11278   0.03426   1.98467   0.00033   0.00023   0.00026
  5.16291   0.05907   3.22690   0.00048   0.00026   0.00033
  5.21303   0.11535   6.50169   0.00081   0.00035   0.00069
  5.26316   0.10707   6.44568   0.00099   0.00041   0.00074
  5.31328   0.08404   5.63535   0.00098   0.00042   0.00091
  5.36341   0.03831   2.72225   0.00059   0.00018   0.00036
  5.41353   0.01650   1.47496   0.00043   0.00012   0.00013
  5.46366   0.00036   0.02769   0.00000   0.00000   0.00000
  5.51378   0.00000   0.00000   0.00000   0.00000   0.00000
  5.56391   0.00000   0.00000   0.00000   0.00000   0.00000
  5.61404   0.00000   0.00000   0.00000   0.00000   0.00000
  5.66416   0.00000   0.00000   0.00000   0.00000   0.00000
  5.71429   0.00000   0.00000   0.00000   0.00000   0.00000
  5.76441   0.00000   0.00000   0.00000   0.00000   0.00000
  5.81454   0.00000   0.00000   0.00000   0.00000   0.00000
  5.86466   0.00000   0.00000   0.00000   0.00000   0.00000
  5.91479   0.00000   0.00000   0.00000   0.00000   0.00000
  5.96491   0.00000   0.00000   0.00000   0.00000   0.00000
  6.01504   0.00000   0.00000   0.00000   0.00000   0.00000
  6.06516   0.00000   0.00000   0.00000   0.00000   0.00000
  6.11529   0.00000   0.00000   0.00000   0.00000   0.00000
  6.16541   0.00000   0.00000   0.00000   0.00000   0.00000
  6.21554   0.00000   0.00000   0.00000   0.00000   0.00000
  6.26566   0.00000   0.00000   0.00000   0.00000   0.00000
  6.31579   0.00000   0.00000   0.00000   0.00000   0.00000
  6.36591   0.00000   0.00000   0.00000   0.00000   0.00000
  6.41604   0.00000   0.00000   0.00000   0.00000   0.00000
  6.46617   0.00000   0.00000   0.00000   0.00000   0.00000
  6.51629   0.00000   0.00000   0.00000   0.00000   0.00000
  6.56642   0.00000   0.00000   0.00000   0.00000   0.00000
  6.61654   0.00000   0.00000   0.00000   0.00000   0.00000
  6.66667   0.00000   0.00000   0.00000   0.00000   0.00000
  6.71679   0.00000   0.00000   0.00000   0.00000   0.00000
  6.76692   0.00000   0.00000   0.00000   0.00000   0.00000
  6.81704   0.00000   0.00000   0.00000   0.00000   0.00000
  6.86717   0.00000   0.00000   0.00000   0.00000   0.00000
  6.91729   0.00000   0.00000   0.00000   0.00000   0.00000
  6.96742   0.00000   0.00000   0.00000   0.00000   0.00000
  7.01754   0.00000   0.00000   0.00000   0.00000   0.00000
  7.06767   0.00000   0.00000   0.00000   0.00000   0.00000
  7.11779   0.00000   0.00000   0.00000   0.00000   0.00000
  7.16792   0.00000   0.00000   0.00000   0.00000   0.00000
  7.21805   0.00000   0.00000   0.00000   0.00000   0.00000
  7.26817   0.00000   0.00000   0.00000   0.00000   0.00000
  7.31830   0.00000   0.00000   0.00000   0.00000   0.00000
  7.36842   0.00000   0.00000   0.00000   0.00000   0.00000
  7.41855   0.00000   0.00000   0.00000   0.00000   0.00000
  7.46867   0.00000   0.00000   0.00000   0.00000   0.00000
  7.51880   0.00000   0.00000   0.00000   0.00000   0.00000
  7.56892   0.00000   0.00000   0.00000   0.00000   0.00000
  7.61905   0.00000   0.00000   0.00000   0.00000   0.00000
  7.66917   0.00000   0.00000   0.00000   0.00000   0.00000
  7.71930   0.00000   0.00000   0.00000   0.00000   0.00000
  7.76942   0.00000   0.00000   0.00000   0.00000   0.00000
  7.81955   0.00000   0.00000   0.00000   0.00000   0.00000
  7.86967   0.00000   0.00000   0.00000   0.00000   0.00000
  7.91980   0.00000   0.00000   0.00000   0.00000   0.00000
  7.96992   0.00000   0.00000   0.00000   0.00000   0.00000
  8.02005   0.00000   0.00000   0.00000   0.00000   0.00000
  8.07018   0.00000   0.00000   0.00000   0.00000   0.00000
  8.12030   0.00000   0.00000   0.00000   0.00000   0.00000
  8.17043   0.00000   0.00000   0.00000   0.00000   0.00000
  8.22055   0.00000   0.00000   0.00000   0.00000   0.00000
  8.27068   0.00000   0.00000   0.00000   0.00000   0.00000
  8.32080   0.00000   0.00000   0.00000   0.00000   0.00000
  8.37093   0.00000   0.00000   0.00000   0.00000   0.00000
  8.42105   0.00000   0.00000   0.00000   0.00000   0.00000
  8.47118   0.00000   0.00000   0.00000   0.00000   0.00000
  8.52130   0.00000   0.00000   0.00000   0.00000   0.00000
  8.57143   0.00000   0.00000   0.00000   0.00000   0.00000
  8.62155   0.00000   0.00000   0.00000   0.00000   0.00000
  8.67168   0.00000   0.00000   0.00000   0.00000   0.00000
  8.72180   0.00000   0.00000   0.00000   0.00000   0.00000
  8.77193   0.00000   0.00000   0.00000   0.00000   0.00000
  8.82206   0.00000   0.00000   0.00000   0.00000   0.00000
  8.87218   0.00000   0.00000   0.00000   0.00000   0.00000
  8.92231   0.00000   0.00000   0.00000   0.00000   0.00000
  8.97243   0.00000   0.00000   0.00000   0.00000   0.00000
  9.02256   0.00000   0.00000   0.00000   0.00000   0.00000
  9.07268   0.00000   0.00000   0.00000   0.00000   0.00000
  9.12281   0.00000   0.00000   0.00000   0.00000   0.00000
  9.17293   0.00000   0.00000   0.00000   0.00000   0.00000
  9.22306   0.00000   0.00000   0.00000   0.00000   0.00000
  9.27318   0.00000   0.00000   0.00000   0.00000   0.00000
  9.32331   0.00000   0.00000   0.00000   0.00000   0.00000
  9.37343   0.00000   0.00000   0.00000   0.00000   0.00000
  9.42356   0.00000   0.00000   0.00000   0.00000   0.00000
  9.47368   0.00000   0.00000   0.00000   0.00000   0.00000
  9.52381   0.00000   0.00000   0.00000   0.00000   0.00000
  9.57393   0.00000   0.00000   0.00000   0.00000   0.00000
  9.62406   0.00000   0.00000   0.00000   0.00000   0.00000
  9.67419   0.00000   0.00000   0.00000   0.00000   0.00000
  9.72431   0.00000   0.00000   0.00000   0.00000   0.00000
  9.77444   0.00000   0.00000   0.00000   0.00000   0.00000
  9.82456   0.00000   0.00000   0.00000   0.00000   0.00000
  9.87469   0.00000   0.00000   0.00000   0.00000   0.00000
  9.92481   0.00000   0.00000   0.00000   0.00000   0.00000
  9.97494   0.00000   0.00000   0.00000   0.00000   0.00000
 10.02506   0.00000   0.00000   0.00000   0.00000   0.00000
     10.02506266     -10.02506266   401       0.43334965       1.00000000; Z= 55; 5s 6s 5p_y 5p_z 5p_x 
-10.02506   0.00000   0.00000   0.00000   0.00000   0.00000
 -9.97494   0.00000   0.00000   0.00000   0.00000   0.00000
 -9.92481   0.00000   0.00000   0.00000   0.00000   0.00000
 -9.87469   0.00000   0.00000   0.00000   0.00000   0.00000
 -9.82456   0.00000   0.00000   0.00000   0.00000   0.00000
 -9.77444   0.00000   0.00000   0.00000   0.00000   0.00000
 -9.72431   0.00000   0.00000   0.00000   0.00000   0.00000
 -9.67419   0.00000   0.00000   0.00000   0.00000   0.00000
 -9.62406   0.00000   0.00000   0.00000   0.00000   0.00000
 -9.57393   0.00000   0.00000   0.00000   0.00000   0.00000
 -9.52381   0.00000   0.00000   0.00000   0.00000   0.00000
 -9.47368   0.00000   0.00000   0.00000   0.00000   0.00000
 -9.42356   0.00000   0.00000   0.00000   0.00000   0.00000
 -9.37343   0.00000   0.00000   0.00000   0.00000   0.00000
 -9.32331   0.00000   0.00000   0.00000   0.00000   0.00000
 -9.27318   0.00000   0.00000   0.00000   0.00000   0.00000
 -9.22306   0.00000   0.00000   0.00000   0.00000   0.00000
 -9.17293   0.00000   0.00000   0.00000   0.00000   0.00000
 -9.12281   0.00000   0.00000   0.00000   0.00000   0.00000
 -9.07268   0.00000   0.00000   0.00000   0.00000   0.00000
 -9.02256   0.00000   0.00000   0.00000   0.00000   0.00000
 -8.97243   0.00000   0.00000   0.00000   0.00000   0.00000
 -8.92231   0.00000   0.00000   0.00000   0.00000   0.00000
 -8.87218   0.00000   0.00000   0.00000   0.00000   0.00000
 -8.82206   0.00000   0.00000   0.00000   0.00000   0.00000
 -8.77193   0.00000   0.00000   0.00000   0.00000   0.00000
 -8.72180   0.00000   0.00000   0.00000   0.00000   0.00000
 -8.67168   0.00000   0.00000   0.00000   0.00000   0.00000
 -8.62155   0.00000   0.00000   0.00000   0.00000   0.00000
 -8.57143   0.00000   0.00000   0.00000   0.00000   0.00000
 -8.52130   0.00000   0.00000   0.00000   0.00000   0.00000
 -8.47118   0.00000   0.00000   0.00000   0.00000   0.00000
 -8.42105   0.00000   0.00000   0.00000   0.00000   0.00000
 -8.37093   0.00000   0.00000   0.00000   0.00000   0.00000
 -8.32080   0.00000   0.00000   0.00000   0.00000   0.00000
 -8.27068   0.00000   0.00000   0.00000   0.00000   0.00000
 -8.22055   0.00000   0.00000   0.00000   0.00000   0.00000
 -8.17043   0.00000   0.00000   0.00000   0.00000   0.00000
 -8.12030   0.00000   0.00000   0.00000   0.00000   0.00000
 -8.07018   0.00000   0.00000   0.00000   0.00000   0.00000
 -8.02005   0.00000   0.00000   0.00000   0.00000   0.00000
 -7.96992   0.00000   0.00000   0.00000   0.00000   0.00000
 -7.91980   0.00000   0.00000   0.00000   0.00000   0.00000
 -7.86967   0.00000   0.00000   0.00000   0.00000   0.00000
 -7.81955   0.00000   0.00000   0.00000   0.00000   0.00000
 -7.76942   0.00000   0.00000   0.00000   0.00000   0.00000
 -7.71930   0.00000   0.00000   0.00000   0.00000   0.00000
 -7.66917   0.00000   0.00000   0.00000   0.00000   0.00000
 -7.61905   0.00000   0.00000   0.00000   0.00000   0.00000
 -7.56892   0.00000   0.00000   0.00000   0.00000   0.00000
 -7.51880   0.00000   0.00000   0.00000   0.00000   0.00000
 -7.46867   0.00000   0.00000   0.00000   0.00000   0.00000
 -7.41855   0.00000   0.00000   0.00000   0.00000   0.00000
 -7.36842   0.00000   0.00000   0.00000   0.00000   0.00000
 -7.31830   0.00000   0.00174  18.97410   7.41995  16.80819
 -7.26817   0.00002   0.00290  20.05695  29.75001  22.50702
 -7.21805   0.00001  -0.00005   0.42923   2.33138   0.20288
 -7.16792   0.00000   0.00000   0.00000   0.00000   0.00000
 -7.11779   0.00000   0.00000   0.00000   0.00000   0.00000
 -7.06767   0.00000   0.00000   0.00000   0.00000   0.00000
 -7.01754   0.00000   0.00000   0.00000   0.00000   0.00000
 -6.96742   0.00000   0.00000   0.00000   0.00000   0.00000
 -6.91729   0.00000   0.00000   0.00000   0.00000   0.00000
 -6.86717   0.00000   0.00000   0.00000   0.00000   0.00000
 -6.81704   0.00000   0.00000   0.00000   0.00000   0.00000
 -6.76692   0.00000   0.00000   0.00000   0.00000   0.00000
 -6.71679   0.00000   0.00000   0.00000   0.00000   0.00000
 -6.66667   0.00000   0.00000   0.00000   0.00000   0.00000
 -6.61654   0.00000   0.00000   0.00000   0.00000   0.00000
 -6.56642   0.00000   0.00000   0.00000   0.00000   0.00000
 -6.51629   0.00000   0.00000   0.00000   0.00000   0.00000
 -6.46617   0.00000   0.00000   0.00000   0.00000   0.00000
 -6.41604   0.00000   0.00000   0.00000   0.00000   0.00000
 -6.36591   0.00000   0.00000   0.00000   0.00000   0.00000
 -6.31579   0.00000   0.00000   0.00000   0.00000   0.00000
 -6.26566   0.00000   0.00000   0.00000   0.00000   0.00000
 -6.21554   0.00000   0.00000   0.00000   0.00000   0.00000
 -6.16541   0.00000   0.00000   0.00000   0.00000   0.00000
 -6.11529   0.00000   0.00000   0.00000   0.00000   0.00000
 -6.06516   0.00000   0.00000   0.00000   0.00000   0.00000
 -6.01504   0.00000   0.00000   0.00000   0.00000   0.00000
 -5.96491   0.00000   0.00000   0.00000   0.00000   0.00000
 -5.91479   0.00000   0.00000   0.00000   0.00000   0.00000
 -5.86466   0.00000   0.00000   0.00000   0.00000   0.00000
 -5.81454   0.00000   0.00000   0.00000   0.00000   0.00000
 -5.76441   0.00000   0.00000   0.00000   0.00000   0.00000
 -5.71429   0.00000   0.00000   0.00000   0.00000   0.00000
 -5.66416   0.00000   0.00000   0.00000   0.00000   0.00000
 -5.61404   0.00000   0.00000   0.00000   0.00000   0.00000
 -5.56391   0.00000   0.00000   0.00000   0.00000   0.00000
 -5.51378   0.00000   0.00000   0.00000   0.00000   0.00000
 -5.46366   0.00000   0.00000   0.00000   0.00000   0.00000
 -5.41353   0.00000   0.00000   0.00000   0.00000   0.00000
 -5.36341   0.00000   0.00000   0.00000   0.00000   0.00000
 -5.31328   0.00000   0.00000   0.00000   0.00000   0.00000
 -5.26316   0.00000   0.00000   0.00000   0.00000   0.00000
 -5.21303   0.00000   0.00000   0.00000   0.00000   0.00000
 -5.16291   0.00000   0.00000   0.00000   0.00000   0.00000
 -5.11278   0.00000   0.00000   0.00000   0.00000   0.00000
 -5.06266   0.00000   0.00000   0.00000   0.00000   0.00000
 -5.01253   0.00000   0.00000   0.00000   0.00000   0.00000
 -4.96241   0.00000   0.00000   0.00000   0.00000   0.00000
 -4.91228   0.00000   0.00000   0.00000   0.00000   0.00000
 -4.86216   0.00000   0.00000   0.00000   0.00000   0.00000
 -4.81203   0.00000   0.00000   0.00000   0.00000   0.00000
 -4.76190   0.00000   0.00000   0.00000   0.00000   0.00000
 -4.71178   0.00000   0.00000   0.00000   0.00000   0.00000
 -4.66165   0.00000   0.00000   0.00000   0.00000   0.00000
 -4.61153   0.00000   0.00000   0.00000   0.00000   0.00000
 -4.56140   0.00000   0.00000   0.00000   0.00000   0.00000
 -4.51128   0.00000   0.00000   0.00000   0.00000   0.00000
 -4.46115   0.00000   0.00000   0.00000   0.00000   0.00000
 -4.41103   0.00000   0.00000   0.00000   0.00000   0.00000
 -4.36090   0.00000   0.00000   0.00000   0.00000   0.00000
 -4.31078   0.00000   0.00000   0.00000   0.00000   0.00000
 -4.26065   0.00000   0.00000   0.00000   0.00000   0.00000
 -4.21053   0.00000   0.00000   0.00000   0.00000   0.00000
 -4.16040   0.00000   0.00000   0.00000   0.00000   0.00000
 -4.11028   0.00000   0.00000   0.00000   0.00000   0.00000
 -4.06015   0.00000   0.00000   0.00000   0.00000   0.00000
 -4.01003   0.00000   0.00000   0.00000   0.00000   0.00000
 -3.95990   0.00000   0.00000   0.00000   0.00000   0.00000
 -3.90977   0.00000   0.00000   0.00000   0.00000   0.00000
 -3.85965   0.00000   0.00000   0.00000   0.00000   0.00000
 -3.80952   0.00000   0.00000   0.00000   0.00000   0.00000
 -3.75940   0.00000   0.00000   0.00000   0.00000   0.00000
 -3.70927  -0.00000   0.00008   0.00004   0.00003   0.00002
 -3.65915  -0.00004   0.00644   0.01281   0.00224   0.00250
 -3.60902  -0.00012   0.01871   0.01893   0.00454   0.00550
 -3.55890  -0.00005   0.01765   0.00702   0.00141   0.00398
 -3.50877  -0.00007   0.03023   0.00612   0.00376   0.00956
 -3.45865  -0.00004   0.01935   0.00255   0.00598   0.01159
 -3.40852  -0.00000   0.00065   0.00002   0.00027   0.00088
 -3.35840   0.00000   0.00000   0.00000   0.00000   0.00000
 -3.30827   0.00000   0.00000   0.00000   0.00000   0.00000
 -3.25815   0.00000   0.00000   0.00000   0.00000   0.00000
 -3.20802   0.00000   0.00000   0.00000   0.00000   0.00000
 -3.15789   0.00000   0.00000   0.00000   0.00000   0.00000
 -3.10777   0.00000   0.00000   0.00000   0.00000   0.00000
 -3.05764   0.00000   0.00000   0.00000   0.00000   0.00000
 -3.00752   0.00000   0.00000   0.00000   0.00000   0.00000
 -2.95739   0.00000   0.00000   0.00000   0.00000   0.00000
 -2.90727   0.00000   0.00000   0.00000   0.00000   0.00000
 -2.85714   0.00000   0.00000   0.00000   0.00000   0.00000
 -2.80702   0.00000   0.00000   0.00000   0.00000   0.00000
 -2.75689   0.00000   0.00000   0.00000   0.00000   0.00000
 -2.70677   0.00000   0.00000   0.00000   0.00000   0.00000
 -2.65664   0.00000   0.00000   0.00000   0.00000   0.00000
 -2.60652   0.00000   0.00000   0.00000   0.00000   0.00000
 -2.55639   0.00000   0.00000   0.00000   0.00000   0.00000
 -2.50627   0.00000   0.00000   0.00000   0.00000   0.00000
 -2.45614   0.00000   0.00000   0.00000   0.00000   0.00000
 -2.40602   0.00000   0.00000   0.00000   0.00000   0.00000
 -2.35589   0.00000   0.00000   0.00000   0.00000   0.00000
 -2.30576   0.00000   0.00000   0.00000   0.00000   0.00000
 -2.25564   0.00000   0.00000   0.00000   0.00000   0.00000
 -2.20551  -0.00008   0.00766   0.00023   0.00017   0.00031
 -2.15539  -0.00072   0.07277   0.00376   0.00239   0.00321
 -2.10526  -0.00173   0.16504   0.02439   0.00790   0.00708
 -2.05514  -0.00101   0.09523   0.02409   0.00837   0.00494
 -2.00501  -0.00100   0.10030   0.01923   0.01543   0.00975
 -1.95489  -0.00056   0.05618   0.01438   0.01469   0.01782
 -1.90476  -0.00007   0.00679   0.00376   0.00157   0.00501
 -1.85464  -0.00000   0.00031   0.00034   0.00005   0.00010
 -1.80451  -0.00011   0.00998   0.00083   0.00069   0.00090
 -1.75439  -0.00079   0.07311   0.01154   0.00402   0.00595
 -1.70426  -0.00114   0.10049   0.01783   0.00713   0.00682
 -1.65414  -0.00047   0.04547   0.00750   0.00435   0.00286
 -1.60401  -0.00079   0.06322   0.03026   0.00514   0.00337
 -1.55388  -0.00034   0.02680   0.02206   0.00209   0.00139
 -1.50376  -0.00007   0.00576   0.00964   0.00034   0.00031
 -1.45363  -0.00000   0.00034   0.00049   0.00001   0.00001
 -1.40351  -0.00015   0.02085   0.00085   0.00074   0.00082
 -1.35338  -0.00054   0.06442   0.00233   0.00595   0.00416
 -1.30326  -0.00128   0.13167   0.00427   0.02181   0.01361
 -1.25313  -0.00076   0.07414   0.00354   0.02057   0.02140
 -1.20301  -0.00027   0.02473   0.00576   0.01002   0.01394
 -1.15288  -0.00026   0.02356   0.00612   0.00540   0.00882
 -1.10276  -0.00035   0.04026   0.00816   0.01225   0.01318
 -1.05263  -0.00024   0.02388   0.01109   0.00680   0.00719
 -1.00251  -0.00015   0.01607   0.01267   0.00291   0.00313
 -0.95238  -0.00022   0.02708   0.01328   0.00707   0.01080
 -0.90226  -0.00011   0.01253   0.00492   0.00455   0.00700
 -0.85213  -0.00010   0.01208   0.00701   0.00635   0.00590
 -0.80201  -0.00019   0.01972   0.00798   0.00764   0.00523
 -0.75188  -0.00042   0.04161   0.00548   0.01653   0.00928
 -0.70175  -0.00052   0.06686   0.00876   0.01609   0.01099
 -0.65163  -0.00037   0.03604   0.00824   0.00804   0.00615
 -0.60150  -0.00005   0.00810   0.00446   0.00156   0.00174
 -0.55138  -0.00001   0.00220   0.00261   0.00018   0.00014
 -0.50125  -0.00000   0.00091   0.00001   0.00002   0.00032
 -0.45113  -0.00012   0.02178   0.00046   0.00145   0.00952
 -0.40100  -0.00014   0.03012   0.00069   0.00330   0.00983
 -0.35088  -0.00016   0.02726   0.00180   0.00655   0.00584
 -0.30075  -0.00008   0.02497   0.00192   0.00806   0.00321
 -0.25063   0.00004   0.02664   0.00121   0.00538   0.00325
 -0.20050  -0.00008   0.03103   0.00139   0.00512   0.00317
 -0.15038  -0.00024   0.01929   0.00071   0.00849   0.00209
 -0.10025  -0.00027   0.01781   0.00022   0.00743   0.00287
 -0.05013  -0.00011   0.00973   0.00007   0.00549   0.00190
  0.00000  -0.00001   0.00071   0.00001   0.00116   0.00022
  0.05013   0.00000   0.00000   0.00000   0.00000   0.00000
  0.10025   0.00000   0.00000   0.00000   0.00000   0.00000
  0.15038   0.00000   0.00000   0.00000   0.00000   0.00000
  0.20050   0.00000   0.00000   0.00000   0.00000   0.00000
  0.25063   0.00000   0.00000   0.00000   0.00000   0.00000
  0.30075   0.00000   0.00000   0.00000   0.00000   0.00000
  0.35088   0.00000   0.00000   0.00000   0.00000   0.00000
  0.40100   0.00000   0.00000   0.00000   0.00000   0.00000
  0.45113   0.00000   0.00000   0.00000   0.00000   0.00000
  0.50125   0.00000   0.00000   0.00000   0.00000   0.00000
  0.55138   0.00000   0.00000   0.00000   0.00000   0.00000
  0.60150   0.00000   0.00000   0.00000   0.00000   0.00000
  0.65163   0.00000   0.00000   0.00000   0.00000   0.00000
  0.70175   0.00000   0.00000   0.00000   0.00000   0.00000
  0.75188   0.00000   0.00000   0.00000   0.00000   0.00000
  0.80201   0.00000   0.00000   0.00000   0.00000   0.00000
  0.85213   0.00000   0.00000   0.00000   0.00000   0.00000
  0.90226   0.00000   0.00000   0.00000   0.00000   0.00000
  0.95238   0.00000   0.00000   0.00000   0.00000   0.00000
  1.00251   0.00000   0.00000   0.00000   0.00000   0.00000
  1.05263   0.00000   0.00000   0.00000   0.00000   0.00000
  1.10276   0.00000   0.00000   0.00000   0.00000   0.00000
  1.15288   0.00000   0.00000   0.00000   0.00000   0.00000
  1.20301   0.00000   0.00000   0.00000   0.00000   0.00000
  1.25313   0.00000   0.00000   0.00000   0.00000   0.00000
  1.30326   0.00000   0.00000   0.00000   0.00000   0.00000
  1.35338   0.00000   0.00000   0.00000   0.00000   0.00000
  1.40351   0.00000   0.00000   0.00000   0.00000   0.00000
  1.45363   0.00000   0.00000   0.00000   0.00000   0.00000
  1.50376   0.00000   0.00000   0.00000   0.00000   0.00000
  1.55388   0.00000   0.00000   0.00000   0.00000   0.00000
  1.60401   0.00000   0.00000   0.00000   0.00000   0.00000
  1.65414   0.00000   0.00000   0.00000   0.00000   0.00000
  1.70426   0.00000   0.00000   0.00000   0.00000   0.00000
  1.75439   0.00000   0.00000   0.00000   0.00000   0.00000
  1.80451   0.00000   0.00000   0.00000   0.00000   0.00000
  1.85464   0.00000   0.00000   0.00000   0.00000   0.00000
  1.90476   0.00001   0.03875   0.00002   0.00031   0.00019
  1.95489  -0.00008   0.22714   0.00036   0.00144   0.00200
  2.00501   0.00002   0.13002   0.00022   0.00061   0.00153
  2.05514   0.00003   0.09478   0.00023   0.00050   0.00125
  2.10526   0.00002   0.00301   0.00000   0.00002   0.00002
  2.15539   0.00000   0.00000   0.00000   0.00000   0.00000
  2.20551   0.00000   0.00000   0.00000   0.00000   0.00000
  2.25564   0.00000   0.00000   0.00000   0.00000   0.00000
  2.30576   0.00000   0.00000   0.00000   0.00000   0.00000
  2.35589   0.00000   0.00000   0.00000   0.00000   0.00000
  2.40602   0.00000   0.00000   0.00000   0.00000   0.00000
  2.45614   0.00000   0.00000   0.00000   0.00000   0.00000
  2.50627   0.00000   0.00000   0.00000   0.00000   0.00000
  2.55639   0.00000   0.00000   0.00000   0.00000   0.00000
  2.60652   0.00000   0.00000   0.00000   0.00000   0.00000
  2.65664   0.00000   0.00000   0.00000   0.00000   0.00000
  2.70677   0.00000   0.00000   0.00000   0.00000   0.00000
  2.75689   0.00000   0.00000   0.00000   0.00000   0.00000
  2.80702   0.00000   0.00000   0.00000   0.00000   0.00000
  2.85714   0.00000   0.00000   0.00000   0.00000   0.00000
  2.90727   0.00000   0.00000   0.00000   0.00000   0.00000
  2.95739   0.00000   0.00000   0.00000   0.00000   0.00000
  3.00752   0.00000   0.00000   0.00000   0.00000   0.00000
  3.05764   0.00000   0.00000   0.00000   0.00000   0.00000
  3.10777   0.00000   0.00000   0.00000   0.00000   0.00000
  3.15789   0.00000   0.00000   0.00000   0.00000   0.00000
  3.20802   0.00000   0.00000   0.00000   0.00000   0.00000
  3.25815   0.00000   0.00000   0.00000   0.00000   0.00000
  3.30827   0.00000   0.00000   0.00000   0.00000   0.00000
  3.35840   0.00000   0.00000   0.00000   0.00000   0.00000
  3.40852   0.00000   0.00000   0.00000   0.00000   0.00000
  3.45865   0.00000   0.00000   0.00000   0.00000   0.00000
  3.50877   0.00000   0.00000   0.00000   0.00000   0.00000
  3.55890   0.00000   0.00000   0.00000   0.00000   0.00000
  3.60902   0.00000   0.00000   0.00000   0.00000   0.00000
  3.65915   0.00000   0.00000   0.00000   0.00000   0.00000
  3.70927   0.00000   0.00000   0.00000   0.00000   0.00000
  3.75940   0.00000   0.00000   0.00000   0.00000   0.00000
  3.80952   0.00000   0.00000   0.00000   0.00000   0.00000
  3.85965   0.00000   0.00000   0.00000   0.00000   0.00000
  3.90977   0.00000   0.00000   0.00000   0.00000   0.00000
  3.95990   0.00000   0.00000   0.00000   0.00000   0.00000
  4.01003   0.00000   0.00000   0.00000   0.00000   0.00000
  4.06015   0.00000   0.00000   0.00000   0.00000   0.00000
  4.11028  -0.00000   0.00000   0.00000   0.00000   0.00000
  4.16040  -0.00001   0.00402   0.00000   0.00000   0.00000
  4.21053  -0.00008   0.02425   0.00000   0.00000   0.00000
  4.26065  -0.00021   0.06302   0.00001   0.00000   0.00000
  4.31078  -0.00040   0.11954   0.00001   0.00001   0.00001
  4.36090  -0.00056   0.17558   0.00002   0.00002   0.00002
  4.41103  -0.00062   0.21016   0.00003   0.00002   0.00003
  4.46115  -0.00061   0.22822   0.00004   0.00003   0.00003
  4.51128  -0.00058   0.24947   0.00005   0.00003   0.00005
  4.56140  -0.00056   0.28419   0.00006   0.00004   0.00006
  4.61153  -0.00057   0.34014   0.00007   0.00006   0.00008
  4.66165  -0.00062   0.43602   0.00009   0.00009   0.00010
  4.71178  -0.00047   0.48805   0.00011   0.00010   0.00012
  4.76190  -0.00011   0.50210   0.00012   0.00009   0.00013
  4.81203   0.00035   0.54244   0.00014   0.00009   0.00013
  4.86216   0.00093   0.61714   0.00016   0.00009   0.00013
  4.91228   0.00166   0.70715   0.00019   0.00010   0.00013
  4.96241   0.00271   0.82871   0.00021   0.00013   0.00012
  5.01253   0.00553   1.12437   0.00025   0.00025   0.00014
  5.06266   0.00929   1.26742   0.00028   0.00026   0.00015
  5.11278   0.03412   2.01013   0.00034   0.00024   0.00025
  5.16291   0.05852   3.18465   0.00049   0.00026   0.00033
  5.21303   0.10867   6.24033   0.00082   0.00033   0.00064
  5.26316   0.11150   6.65739   0.00096   0.00043   0.00076
  5.31328   0.08692   5.75029   0.00097   0.00043   0.00092
  5.36341   0.03948   2.76636   0.00058   0.00018   0.00036
  5.41353   0.01655   1.47323   0.00043   0.00012   0.00013
  5.46366   0.00036   0.02769   0.00000   0.00000   0.00000
  5.51378   0.00000   0.00000   0.00000   0.00000   0.00000
  5.56391   0.00000   0.00000   0.00000   0.00000   0.00000
  5.61404   0.00000   0.00000   0.00000   0.00000   0.00000
  5.66416   0.00000   0.00000   0.00000   0.00000   0.00000
  5.71429   0.00000   0.00000   0.00000   0.00000   0.00000
  5.76441   0.00000   0.00000   0.00000   0.00000   0.00000
  5.81454   0.00000   0.00000   0.00000   0.00000   0.00000
  5.86466   0.00000   0.00000   0.00000   0.00000   0.00000
  5.91479   0.00000   0.00000   0.00000   0.00000   0.00000
  5.96491   0.00000   0.00000   0.00000   0.00000   0.00000
  6.01504   0.00000   0.00000   0.00000   0.00000   0.00000
  6.06516   0.00000   0.00000   0.00000   0.00000   0.00000
  6.11529   0.00000   0.00000   0.00000   0.00000   0.00000
  6.16541   0.00000   0.00000   0.00000   0.00000   0.00000
  6.21554   0.00000   0.00000   0.00000   0.00000   0.00000
  6.26566   0.00000   0.00000   0.00000   0.00000   0.00000
  6.31579   0.00000   0.00000   0.00000   0.00000   0.00000
  6.36591   0.00000   0.00000   0.00000   0.00000   0.00000
  6.41604   0.00000   0.00000   0.00000   0.00000   0.00000
  6.46617   0.00000   0.00000   0.00000   0.00000   0.00000
  6.51629   0.00000   0.00000   0.00000   0.00000   0.00000
  6.56642   0.00000   0.00000   0.00000   0.00000   0.00000
  6.61654   0.00000   0.00000   0.00000   0.00000   0.00000
  6.66667   0.00000   0.00000   0.00000   0.00000   0.00000
  6.71679   0.00000   0.00000   0.00000   0.00000   0.00000
  6.76692   0.00000   0.00000   0.00000   0.00000   0.00000
  6.81704   0.00000   0.00000   0.00000   0.00000   0.00000
  6.86717   0.00000   0.00000   0.00000   0.00000   0.00000
  6.91729   0.00000   0.00000   0.00000   0.00000   0.00000
  6.96742   0.00000   0.00000   0.00000   0.00000   0.00000
  7.01754   0.00000   0.00000   0.00000   0.00000   0.00000
  7.06767   0.00000   0.00000   0.00000   0.00000   0.00000
  7.11779   0.00000   0.00000   0.00000   0.00000   0.00000
  7.16792   0.00000   0.00000   0.00000   0.00000   0.00000
  7.21805   0.00000   0.00000   0.00000   0.00000   0.00000
  7.26817   0.00000   0.00000   0.00000   0.00000   0.00000
  7.31830   0.00000   0.00000   0.00000   0.00000   0.00000
  7.36842   0.00000   0.00000   0.00000   0.00000   0.00000
  7.41855   0.00000   0.00000   0.00000   0.00000   0.00000
  7.46867   0.00000   0.00000   0.00000   0.00000   0.00000
  7.51880   0.00000   0.00000   0.00000   0.00000   0.00000
  7.56892   0.00000   0.00000   0.00000   0.00000   0.00000
  7.61905   0.00000   0.00000   0.00000   0.00000   0.00000
  7.66917   0.00000   0.00000   0.00000   0.00000   0.00000
  7.71930   0.00000   0.00000   0.00000   0.00000   0.00000
  7.76942   0.00000   0.00000   0.00000   0.00000   0.00000
  7.81955   0.00000   0.00000   0.00000   0.00000   0.00000
  7.86967   0.00000   0.00000   0.00000   0.00000   0.00000
  7.91980   0.00000   0.00000   0.00000   0.00000   0.00000
  7.96992   0.00000   0.00000   0.00000   0.00000   0.00000
  8.02005   0.00000   0.00000   0.00000   0.00000   0.00000
  8.07018   0.00000   0.00000   0.00000   0.00000   0.00000
  8.12030   0.00000   0.00000   0.00000   0.00000   0.00000
  8.17043   0.00000   0.00000   0.00000   0.00000   0.00000
  8.22055   0.00000   0.00000   0.00000   0.00000   0.00000
  8.27068   0.00000   0.00000   0.00000   0.00000   0.00000
  8.32080   0.00000   0.00000   0.00000   0.00000   0.00000
  8.37093   0.00000   0.00000   0.00000   0.00000   0.00000
  8.42105   0.00000   0.00000   0.00000   0.00000   0.00000
  8.47118   0.00000   0.00000   0.00000   0.00000   0.00000
  8.52130   0.00000   0.00000   0.00000   0.00000   0.00000
  8.57143   0.00000   0.00000   0.00000   0.00000   0.00000
  8.62155   0.00000   0.00000   0.00000   0.00000   0.00000
  8.67168   0.00000   0.00000   0.00000   0.00000   0.00000
  8.72180   0.00000   0.00000   0.00000   0.00000   0.00000
  8.77193   0.00000   0.00000   0.00000   0.00000   0.00000
  8.82206   0.00000   0.00000   0.00000   0.00000   0.00000
  8.87218   0.00000   0.00000   0.00000   0.00000   0.00000
  8.92231   0.00000   0.00000   0.00000   0.00000   0.00000
  8.97243   0.00000   0.00000   0.00000   0.00000   0.00000
  9.02256   0.00000   0.00000   0.00000   0.00000   0.00000
  9.07268   0.00000   0.00000   0.00000   0.00000   0.00000
  9.12281   0.00000   0.00000   0.00000   0.00000   0.00000
  9.17293   0.00000   0.00000   0.00000   0.00000   0.00000
  9.22306   0.00000   0.00000   0.00000   0.00000   0.00000
  9.27318   0.00000   0.00000   0.00000   0.00000   0.00000
  9.32331   0.00000   0.00000   0.00000   0.00000   0.00000
  9.37343   0.00000   0.00000   0.00000   0.00000   0.00000
  9.42356   0.00000   0.00000   0.00000   0.00000   0.00000
  9.47368   0.00000   0.00000   0.00000   0.00000   0.00000
  9.52381   0.00000   0.00000   0.00000   0.00000   0.00000
  9.57393   0.00000   0.00000   0.00000   0.00000   0.00000
  9.62406   0.00000   0.00000   0.00000   0.00000   0.00000
  9.67419   0.00000   0.00000   0.00000   0.00000   0.00000
  9.72431   0.00000   0.00000   0.00000   0.00000   0.00000
  9.77444   0.00000   0.00000   0.00000   0.00000   0.00000
  9.82456   0.00000   0.00000   0.00000   0.00000   0.00000
  9.87469   0.00000   0.00000   0.00000   0.00000   0.00000
  9.92481   0.00000   0.00000   0.00000   0.00000   0.00000
  9.97494   0.00000   0.00000   0.00000   0.00000   0.00000
 10.02506   0.00000   0.00000   0.00000   0.00000   0.00000
     10.02506266     -10.02506266   401       0.43334965       1.00000000; Z= 53; 5s 5p_y 5p_z 5p_x 
-10.02506   0.00000   0.00000   0.00000   0.00000
 -9.97494   0.00000   0.00000   0.00000   0.00000
 -9.92481   0.00000   0.00000   0.00000   0.00000
 -9.87469   0.00000   0.00000   0.00000   0.00000
 -9.82456   0.00000   0.00000   0.00000   0.00000
 -9.77444   0.00000   0.00000   0.00000   0.00000
 -9.72431   0.00000   0.00000   0.00000   0.00000
 -9.67419   0.00000   0.00000   0.00000   0.00000
 -9.62406   0.00000   0.00000   0.00000   0.00000
 -9.57393   0.00000   0.00000   0.00000   0.00000
 -9.52381   0.00000   0.00000   0.00000   0.00000
 -9.47368   0.00000   0.00000   0.00000   0.00000
 -9.42356   0.00000   0.00000   0.00000   0.00000
 -9.37343   0.00000   0.00000   0.00000   0.00000
 -9.32331   0.00000   0.00000   0.00000   0.00000
 -9.27318   0.00000   0.00000   0.00000   0.00000
 -9.22306   0.00000   0.00000   0.00000   0.00000
 -9.17293   0.00000   0.00000   0.00000   0.00000
 -9.12281   0.00000   0.00000   0.00000   0.00000
 -9.07268   0.00000   0.00000   0.00000   0.00000
 -9.02256   0.00000   0.00000   0.00000   0.00000
 -8.97243   0.00000   0.00000   0.00000   0.00000
 -8.92231   0.00000   0.00000   0.00000   0.00000
 -8.87218   0.00000   0.00000   0.00000   0.00000
 -8.82206   0.00000   0.00000   0.00000   0.00000
 -8.77193   0.00000   0.00000   0.00000   0.00000
 -8.72180   0.00000   0.00000   0.00000   0.00000
 -8.67168   0.00000   0.00000   0.00000   0.00000
 -8.62155   0.00000   0.00000   0.00000   0.00000
 -8.57143   0.00000   0.00000   0.00000   0.00000
 -8.52130   0.00000   0.00000   0.00000   0.00000
 -8.47118   0.00000   0.00000   0.00000   0.00000
 -8.42105   0.00000   0.00000   0.00000   0.00000
 -8.37093   0.00000   0.00000   0.00000   0.00000
 -8.32080   0.00000   0.00000   0.00000   0.00000
 -8.27068   0.00000   0.00000   0.00000   0.00000
 -8.22055   0.00000   0.00000   0.00000   0.00000
 -8.17043   0.00000   0.00000   0.00000   0.00000
 -8.12030   0.00000   0.00000   0.00000   0.00000
 -8.07018   0.00000   0.00000   0.00000   0.00000
 -8.02005   0.00000   0.00000   0.00000   0.00000
 -7.96992   0.00000   0.00000   0.00000   0.00000
 -7.91980   0.00000   0.00000   0.00000   0.00000
 -7.86967   0.00000   0.00000   0.00000   0.00000
 -7.81955   0.00000   0.00000   0.00000   0.00000
 -7.76942   0.00000   0.00000   0.00000   0.00000
 -7.71930   0.00000   0.00000   0.00000   0.00000
 -7.66917   0.00000   0.00000   0.00000   0.00000
 -7.61905   0.00000   0.00000   0.00000   0.00000
 -7.56892   0.00000   0.00000   0.00000   0.00000
 -7.51880   0.00000   0.00000   0.00000   0.00000
 -7.46867   0.00000   0.00000   0.00000   0.00000
 -7.41855   0.00000   0.00000   0.00000   0.00000
 -7.36842   0.00000   0.00000   0.00000   0.00000
 -7.31830   0.02364   0.14657   0.07896   0.08836
 -7.26817   0.13096   0.06536   0.09055   0.04910
 -7.21805   0.01126   0.00037   0.00316   0.00062
 -7.16792   0.00000   0.00000   0.00000   0.00000
 -7.11779   0.00000   0.00000   0.00000   0.00000
 -7.06767   0.00000   0.00000   0.00000   0.00000
 -7.01754   0.00000   0.00000   0.00000   0.00000
 -6.96742   0.00000   0.00000   0.00000   0.00000
 -6.91729   0.00000   0.00000   0.00000   0.00000
 -6.86717   0.00000   0.00000   0.00000   0.00000
 -6.81704   0.00000   0.00000   0.00000   0.00000
 -6.76692   0.00000   0.00000   0.00000   0.00000
 -6.71679   0.00000   0.00000   0.00000   0.00000
 -6.66667   0.00000   0.00000   0.00000   0.00000
 -6.61654   0.00000   0.00000   0.00000   0.00000
 -6.56642   0.00000   0.00000   0.00000   0.00000
 -6.51629   0.00000   0.00000   0.00000   0.00000
 -6.46617   0.00000   0.00000   0.00000   0.00000
 -6.41604   0.00000   0.00000   0.00000   0.00000
 -6.36591   0.00000   0.00000   0.00000   0.00000
 -6.31579   0.00000   0.00000   0.00000   0.00000
 -6.26566   0.00000   0.00000   0.00000   0.00000
 -6.21554   0.00000   0.00000   0.00000   0.00000
 -6.16541   0.00000   0.00000   0.00000   0.00000
 -6.11529   0.00000   0.00000   0.00000   0.00000
 -6.06516   0.00000   0.00000   0.00000   0.00000
 -6.01504   0.00000   0.00000   0.00000   0.00000
 -5.96491   0.00000   0.00000   0.00000   0.00000
 -5.91479   0.00000   0.00000   0.00000   0.00000
 -5.86466   0.00000   0.00000   0.00000   0.00000
 -5.81454   0.00000   0.00000   0.00000   0.00000
 -5.76441   0.00000   0.00000   0.00000   0.00000
 -5.71429   0.00000   0.00000   0.00000   0.00000
 -5.66416   0.00000   0.00000   0.00000   0.00000
 -5.61404   0.00000   0.00000   0.00000   0.00000
 -5.56391   0.00000   0.00000   0.00000   0.00000
 -5.51378   0.00000   0.00000   0.00000   0.00000
 -5.46366   0.00000   0.00000   0.00000   0.00000
 -5.41353   0.00000   0.00000   0.00000   0.00000
 -5.36341   0.00000   0.00000   0.00000   0.00000
 -5.31328   0.00000   0.00000   0.00000   0.00000
 -5.26316   0.00000   0.00000   0.00000   0.00000
 -5.21303   0.00000   0.00000   0.00000   0.00000
 -5.16291   0.00000   0.00000   0.00000   0.00000
 -5.11278   0.00000   0.00000   0.00000   0.00000
 -5.06266   0.00000   0.00000   0.00000   0.00000
 -5.01253   0.00000   0.00000   0.00000   0.00000
 -4.96241   0.00000   0.00000   0.00000   0.00000
 -4.91228   0.00000   0.00000   0.00000   0.00000
 -4.86216   0.00000   0.00000   0.00000   0.00000
 -4.81203   0.00000   0.00000   0.00000   0.00000
 -4.76190   0.00000   0.00000   0.00000   0.00000
 -4.71178   0.00000   0.00000   0.00000   0.00000
 -4.66165   0.00000   0.00000   0.00000   0.00000
 -4.61153   0.00000   0.00000   0.00000   0.00000
 -4.56140   0.00000   0.00000   0.00000   0.00000
 -4.51128   0.00000   0.00000   0.00000   0.00000
 -4.46115   0.00000   0.00000   0.00000   0.00000
 -4.41103   0.00000   0.00000   0.00000   0.00000
 -4.36090   0.00000   0.00000   0.00000   0.00000
 -4.31078   0.00000   0.00000   0.00000   0.00000
 -4.26065   0.00000   0.00000   0.00000   0.00000
 -4.21053   0.00000   0.00000   0.00000   0.00000
 -4.16040   0.00000   0.00000   0.00000   0.00000
 -4.11028   0.00000   0.00000   0.00000   0.00000
 -4.06015   0.00000   0.00000   0.00000   0.00000
 -4.01003   0.00000   0.00000   0.00000   0.00000
 -3.95990   0.00000   0.00000   0.00000   0.00000
 -3.90977   0.00000   0.00000   0.00000   0.00000
 -3.85965   0.00000   0.00000   0.00000   0.00000
 -3.80952   0.00000   0.00000   0.00000   0.00000
 -3.75940   0.00000   0.00000   0.00000   0.00000
 -3.70927   0.00119   0.00000   0.01051   0.00825
 -3.65915   0.08181   0.00076   0.72318   0.61015
 -3.60902   0.11751   0.00201   1.02730   0.98299
 -3.55890   0.05104   0.00164   0.41924   0.52800
 -3.50877   0.09209   0.00393   0.70650   1.14128
 -3.45865   0.07386   0.00399   0.47978   1.01831
 -3.40852   0.00295   0.00005   0.01640   0.03965
 -3.35840   0.00000   0.00000   0.00000   0.00000
 -3.30827   0.00000   0.00000   0.00000   0.00000
 -3.25815   0.00000   0.00000   0.00000   0.00000
 -3.20802   0.00000   0.00000   0.00000   0.00000
 -3.15789   0.00000   0.00000   0.00000   0.00000
 -3.10777   0.00000   0.00000   0.00000   0.00000
 -3.05764   0.00000   0.00000   0.00000   0.00000
 -3.00752   0.00000   0.00000   0.00000   0.00000
 -2.95739   0.00000   0.00000   0.00000   0.00000
 -2.90727   0.00000   0.00000   0.00000   0.00000
 -2.85714   0.00000   0.00000   0.00000   0.00000
 -2.80702   0.00000   0.00000   0.00000   0.00000
 -2.75689   0.00000   0.00000   0.00000   0.00000
 -2.70677   0.00000   0.00000   0.00000   0.00000
 -2.65664   0.00000   0.00000   0.00000   0.00000
 -2.60652   0.00000   0.00000   0.00000   0.00000
 -2.55639   0.00000   0.00000   0.00000   0.00000
 -2.50627   0.00000   0.00000   0.00000   0.00000
 -2.45614   0.00000   0.00000   0.00000   0.00000
 -2.40602   0.00000   0.00000   0.00000   0.00000
 -2.35589   0.00000   0.00000   0.00000   0.00000
 -2.30576   0.00000   0.00000   0.00000   0.00000
 -2.25564   0.00000   0.00000   0.00000   0.00000
 -2.20551  -0.00001   0.02586   0.01455   0.00051
 -2.15539   0.00024   0.28107   0.14353   0.03281
 -2.10526   0.00156   0.92230   0.35981   0.16570
 -2.05514   0.00148   0.67129   0.32307   0.19096
 -2.00501   0.00203   0.57015   0.55339   0.51428
 -1.95489   0.00212   0.34477   0.51001   0.73907
 -1.90476   0.00035   0.06051   0.06748   0.18146
 -1.85464   0.00001   0.00423   0.00197   0.00398
 -1.80451   0.00010   0.01627   0.07731   0.08890
 -1.75439   0.00110   0.47094   0.47830   0.69863
 -1.70426   0.00238   1.02520   0.73118   0.82627
 -1.65414   0.00106   0.57847   0.38030   0.26044
 -1.60401   0.00188   1.49764   0.79889   0.26041
 -1.55388   0.00142   0.71481   0.30964   0.09872
 -1.50376   0.00026   0.24050   0.02965   0.02308
 -1.45363   0.00001   0.00720   0.00098   0.00125
 -1.40351   0.00003   0.04850   0.20311   0.07657
 -1.35338   0.00032   0.15813   0.78488   0.31850
 -1.30326   0.00135   0.30591   1.70702   0.96165
 -1.25313   0.00040   0.40523   1.22587   1.04064
 -1.20301  -0.00007   0.85224   0.46547   0.63385
 -1.15288  -0.00013   1.09389   0.33533   0.72171
 -1.10276  -0.00023   1.57715   0.53465   1.38971
 -1.05263  -0.00011   1.46296   0.43500   0.97398
 -1.00251  -0.00016   1.67831   0.44457   0.79591
 -0.95238  -0.00032   2.02577   0.81416   1.71373
 -0.90226  -0.00007   1.05572   0.50646   1.04526
 -0.85213  -0.00002   1.92782   0.84888   1.13200
 -0.80201  -0.00064   1.88360   1.52124   1.37698
 -0.75188  -0.00207   1.23807   3.79829   2.83914
 -0.70175  -0.00253   1.68255   5.79484   2.83239
 -0.65163  -0.00064   2.55669   2.58087   1.59171
 -0.60150  -0.00014   1.18053   0.31080   0.69961
 -0.55138  -0.00000   0.58478   0.01373   0.04169
 -0.50125   0.00002   0.00461   0.00279   0.01413
 -0.45113   0.00018   0.27372   0.09093   0.61173
 -0.40100   0.00004   0.65217   0.19467   0.89591
 -0.35088   0.00022   1.15255   0.35953   0.77258
 -0.30075   0.00016   1.90999   0.43326   0.55310
 -0.25063   0.00015   2.02954   0.25115   0.44228
 -0.20050   0.00012   2.46473   0.44347   0.51706
 -0.15038   0.00006   1.09246   1.02460   0.75305
 -0.10025   0.00006   0.32786   1.11043   0.48100
 -0.05013   0.00003   0.18100   0.75736   0.31180
  0.00000   0.00000   0.03435   0.12130   0.04825
  0.05013   0.00000   0.00000   0.00000   0.00000
  0.10025   0.00000   0.00000   0.00000   0.00000
  0.15038   0.00000   0.00000   0.00000   0.00000
  0.20050   0.00000   0.00000   0.00000   0.00000
  0.25063   0.00000   0.00000   0.00000   0.00000
  0.30075   0.00000   0.00000   0.00000   0.00000
  0.35088   0.00000   0.00000   0.00000   0.00000
  0.40100   0.00000   0.00000   0.00000   0.00000
  0.45113   0.00000   0.00000   0.00000   0.00000
  0.50125   0.00000   0.00000   0.00000   0.00000
  0.55138   0.00000   0.00000   0.00000   0.00000
  0.60150   0.00000   0.00000   0.00000   0.00000
  0.65163   0.00000   0.00000   0.00000   0.00000
  0.70175   0.00000   0.00000   0.00000   0.00000
  0.75188   0.00000   0.00000   0.00000   0.00000
  0.80201   0.00000   0.00000   0.00000   0.00000
  0.85213   0.00000   0.00000   0.00000   0.00000
  0.90226   0.00000   0.00000   0.00000   0.00000
  0.95238   0.00000   0.00000   0.00000   0.00000
  1.00251   0.00000   0.00000   0.00000   0.00000
  1.05263   0.00000   0.00000   0.00000   0.00000
  1.10276   0.00000   0.00000   0.00000   0.00000
  1.15288   0.00000   0.00000   0.00000   0.00000
  1.20301   0.00000   0.00000   0.00000   0.00000
  1.25313   0.00000   0.00000   0.00000   0.00000
  1.30326   0.00000   0.00000   0.00000   0.00000
  1.35338   0.00000   0.00000   0.00000   0.00000
  1.40351   0.00000   0.00000   0.00000   0.00000
  1.45363   0.00000   0.00000   0.00000   0.00000
  1.50376   0.00000   0.00000   0.00000   0.00000
  1.55388   0.00000   0.00000   0.00000   0.00000
  1.60401   0.00000   0.00000   0.00000   0.00000
  1.65414   0.00000   0.00000   0.00000   0.00000
  1.70426   0.00000   0.00000   0.00000   0.00000
  1.75439   0.00000   0.00000   0.00000   0.00000
  1.80451   0.00000   0.00000   0.00000   0.00000
  1.85464   0.00000   0.00000   0.00000   0.00000
  1.90476   0.00999   0.00025   0.25903   0.25689
  1.95489   0.06087   0.00458   1.66627   1.78841
  2.00501   0.04347   0.00294   1.05670   1.49923
  2.05514   0.04377   0.00289   0.86637   1.55174
  2.10526   0.00115   0.00002   0.01940   0.03870
  2.15539   0.00000   0.00000   0.00000   0.00000
  2.20551   0.00000   0.00000   0.00000   0.00000
  2.25564   0.00000   0.00000   0.00000   0.00000
  2.30576   0.00000   0.00000   0.00000   0.00000
  2.35589   0.00000   0.00000   0.00000   0.00000
  2.40602   0.00000   0.00000   0.00000   0.00000
  2.45614   0.00000   0.00000   0.00000   0.00000
  2.50627   0.00000   0.00000   0.00000   0.00000
  2.55639   0.00000   0.00000   0.00000   0.00000
  2.60652   0.00000   0.00000   0.00000   0.00000
  2.65664   0.00000   0.00000   0.00000   0.00000
  2.70677   0.00000   0.00000   0.00000   0.00000
  2.75689   0.00000   0.00000   0.00000   0.00000
  2.80702   0.00000   0.00000   0.00000   0.00000
  2.85714   0.00000   0.00000   0.00000   0.00000
  2.90727   0.00000   0.00000   0.00000   0.00000
  2.95739   0.00000   0.00000   0.00000   0.00000
  3.00752   0.00000   0.00000   0.00000   0.00000
  3.05764   0.00000   0.00000   0.00000   0.00000
  3.10777   0.00000   0.00000   0.00000   0.00000
  3.15789   0.00000   0.00000   0.00000   0.00000
  3.20802   0.00000   0.00000   0.00000   0.00000
  3.25815   0.00000   0.00000   0.00000   0.00000
  3.30827   0.00000   0.00000   0.00000   0.00000
  3.35840   0.00000   0.00000   0.00000   0.00000
  3.40852   0.00000   0.00000   0.00000   0.00000
  3.45865   0.00000   0.00000   0.00000   0.00000
  3.50877   0.00000   0.00000   0.00000   0.00000
  3.55890   0.00000   0.00000   0.00000   0.00000
  3.60902   0.00000   0.00000   0.00000   0.00000
  3.65915   0.00000   0.00000   0.00000   0.00000
  3.70927   0.00000   0.00000   0.00000   0.00000
  3.75940   0.00000   0.00000   0.00000   0.00000
  3.80952   0.00000   0.00000   0.00000   0.00000
  3.85965   0.00000   0.00000   0.00000   0.00000
  3.90977   0.00000   0.00000   0.00000   0.00000
  3.95990   0.00000   0.00000   0.00000   0.00000
  4.01003   0.00000   0.00000   0.00000   0.00000
  4.06015   0.00000   0.00000   0.00000   0.00000
  4.11028   0.00000   0.00000   0.00000   0.00000
  4.16040   0.00003   0.00001   0.00002   0.00004
  4.21053   0.00018   0.00003   0.00014   0.00022
  4.26065   0.00048   0.00009   0.00035   0.00057
  4.31078   0.00092   0.00020   0.00073   0.00115
  4.36090   0.00137   0.00036   0.00118   0.00188
  4.41103   0.00167   0.00051   0.00153   0.00247
  4.46115   0.00186   0.00064   0.00180   0.00293
  4.51128   0.00210   0.00080   0.00210   0.00348
  4.56140   0.00246   0.00101   0.00251   0.00424
  4.61153   0.00300   0.00129   0.00322   0.00533
  4.66165   0.00386   0.00163   0.00454   0.00698
  4.71178   0.00442   0.00200   0.00503   0.00802
  4.76190   0.00464   0.00238   0.00477   0.00810
  4.81203   0.00490   0.00286   0.00470   0.00770
  4.86216   0.00543   0.00364   0.00505   0.00763
  4.91228   0.00595   0.00459   0.00564   0.00762
  4.96241   0.00653   0.00566   0.00675   0.00792
  5.01253   0.00829   0.00726   0.01075   0.01107
  5.06266   0.00908   0.00928   0.01249   0.01242
  5.11278   0.01182   0.01842   0.02134   0.01785
  5.16291   0.02287   0.04098   0.03008   0.02891
  5.21303   0.05247   0.06804   0.06834   0.06075
  5.26316   0.05801   0.07279   0.07027   0.05715
  5.31328   0.06003   0.06074   0.05660   0.05976
  5.36341   0.01865   0.04070   0.02570   0.03041
  5.41353   0.00751   0.02606   0.01299   0.01674
  5.46366   0.00006   0.00055   0.00026   0.00030
  5.51378   0.00000   0.00000   0.00000   0.00000
  5.56391   0.00000   0.00000   0.00000   0.00000
  5.61404   0.00000   0.00000   0.00000   0.00000
  5.66416   0.00000   0.00000   0.00000   0.00000
  5.71429   0.00000   0.00000   0.00000   0.00000
  5.76441   0.00000   0.00000   0.00000   0.00000
  5.81454   0.00000   0.00000   0.00000   0.00000
  5.86466   0.00000   0.00000   0.00000   0.00000
  5.91479   0.00000   0.00000   0.00000   0.00000
  5.96491   0.00000   0.00000   0.00000   0.00000
  6.01504   0.00000   0.00000   0.00000   0.00000
  6.06516   0.00000   0.00000   0.00000   0.00000
  6.11529   0.00000   0.00000   0.00000   0.00000
  6.16541   0.00000   0.00000   0.00000   0.00000
  6.21554   0.00000   0.00000   0.00000   0.00000
  6.26566   0.00000   0.00000   0.00000   0.00000
  6.31579   0.00000   0.00000   0.00000   0.00000
  6.36591   0.00000   0.00000   0.00000   0.00000
  6.41604   0.00000   0.00000   0.00000   0.00000
  6.46617   0.00000   0.00000   0.00000   0.00000
  6.51629   0.00000   0.00000   0.00000   0.00000
  6.56642   0.00000   0.00000   0.00000   0.00000
  6.61654   0.00000   0.00000   0.00000   0.00000
  6.66667   0.00000   0.00000   0.00000   0.00000
  6.71679   0.00000   0.00000   0.00000   0.00000
  6.76692   0.00000   0.00000   0.00000   0.00000
  6.81704   0.00000   0.00000   0.00000   0.00000
  6.86717   0.00000   0.00000   0.00000   0.00000
  6.91729   0.00000   0.00000   0.00000   0.00000
  6.96742   0.00000   0.00000   0.00000   0.00000
  7.01754   0.00000   0.00000   0.00000   0.00000
  7.06767   0.00000   0.00000   0.00000   0.00000
  7.11779   0.00000   0.00000   0.00000   0.00000
  7.16792   0.00000   0.00000   0.00000   0.00000
  7.21805   0.00000   0.00000   0.00000   0.00000
  7.26817   0.00000   0.00000   0.00000   0.00000
  7.31830   0.00000   0.00000   0.00000   0.00000
  7.36842   0.00000   0.00000   0.00000   0.00000
  7.41855   0.00000   0.00000   0.00000   0.00000
  7.46867   0.00000   0.00000   0.00000   0.00000
  7.51880   0.00000   0.00000   0.00000   0.00000
  7.56892   0.00000   0.00000   0.00000   0.00000
  7.61905   0.00000   0.00000   0.00000   0.00000
  7.66917   0.00000   0.00000   0.00000   0.00000
  7.71930   0.00000   0.00000   0.00000   0.00000
  7.76942   0.00000   0.00000   0.00000   0.00000
  7.81955   0.00000   0.00000   0.00000   0.00000
  7.86967   0.00000   0.00000   0.00000   0.00000
  7.91980   0.00000   0.00000   0.00000   0.00000
  7.96992   0.00000   0.00000   0.00000   0.00000
  8.02005   0.00000   0.00000   0.00000   0.00000
  8.07018   0.00000   0.00000   0.00000   0.00000
  8.12030   0.00000   0.00000   0.00000   0.00000
  8.17043   0.00000   0.00000   0.00000   0.00000
  8.22055   0.00000   0.00000   0.00000   0.00000
  8.27068   0.00000   0.00000   0.00000   0.00000
  8.32080   0.00000   0.00000   0.00000   0.00000
  8.37093   0.00000   0.00000   0.00000   0.00000
  8.42105   0.00000   0.00000   0.00000   0.00000
  8.47118   0.00000   0.00000   0.00000   0.00000
  8.52130   0.00000   0.00000   0.00000   0.00000
  8.57143   0.00000   0.00000   0.00000   0.00000
  8.62155   0.00000   0.00000   0.00000   0.00000
  8.67168   0.00000   0.00000   0.00000   0.00000
  8.72180   0.00000   0.00000   0.00000   0.00000
  8.77193   0.00000   0.00000   0.00000   0.00000
  8.82206   0.00000   0.00000   0.00000   0.00000
  8.87218   0.00000   0.00000   0.00000   0.00000
  8.92231   0.00000   0.00000   0.00000   0.00000
  8.97243   0.00000   0.00000   0.00000   0.00000
  9.02256   0.00000   0.00000   0.00000   0.00000
  9.07268   0.00000   0.00000   0.00000   0.00000
  9.12281   0.00000   0.00000   0.00000   0.00000
  9.17293   0.00000   0.00000   0.00000   0.00000
  9.22306   0.00000   0.00000   0.00000   0.00000
  9.27318   0.00000   0.00000   0.00000   0.00000
  9.32331   0.00000   0.00000   0.00000   0.00000
  9.37343   0.00000   0.00000   0.00000   0.00000
  9.42356   0.00000   0.00000   0.00000   0.00000
  9.47368   0.00000   0.00000   0.00000   0.00000
  9.52381   0.00000   0.00000   0.00000   0.00000
  9.57393   0.00000   0.00000   0.00000   0.00000
  9.62406   0.00000   0.00000   0.00000   0.00000
  9.67419   0.00000   0.00000   0.00000   0.00000
  9.72431   0.00000   0.00000   0.00000   0.00000
  9.77444   0.00000   0.00000   0.00000   0.00000
  9.82456   0.00000   0.00000   0.00000   0.00000
  9.87469   0.00000   0.00000   0.00000   0.00000
  9.92481   0.00000   0.00000   0.00000   0.00000
  9.97494   0.00000   0.00000   0.00000   0.00000
 10.02506   0.00000   0.00000   0.00000   0.00000
     10.02506266     -10.02506266   401       0.43334965       1.00000000; Z= 53; 5s 5p_y 5p_z 5p_x 
-10.02506   0.00000   0.00000   0.00000   0.00000
 -9.97494   0.00000   0.00000   0.00000   0.00000
 -9.92481   0.00000   0.00000   0.00000   0.00000
 -9.87469   0.00000   0.00000   0.00000   0.00000
 -9.82456   0.00000   0.00000   0.00000   0.00000
 -9.77444   0.00000   0.00000   0.00000   0.00000
 -9.72431   0.00000   0.00000   0.00000   0.00000
 -9.67419   0.00000   0.00000   0.00000   0.00000
 -9.62406   0.00000   0.00000   0.00000   0.00000
 -9.57393   0.00000   0.00000   0.00000   0.00000
 -9.52381   0.00000   0.00000   0.00000   0.00000
 -9.47368   0.00000   0.00000   0.00000   0.00000
 -9.42356   0.00000   0.00000   0.00000   0.00000
 -9.37343   0.00000   0.00000   0.00000   0.00000
 -9.32331   0.00000   0.00000   0.00000   0.00000
 -9.27318   0.00000   0.00000   0.00000   0.00000
 -9.22306   0.00000   0.00000   0.00000   0.00000
 -9.17293   0.00000   0.00000   0.00000   0.00000
 -9.12281   0.00000   0.00000   0.00000   0.00000
 -9.07268   0.00000   0.00000   0.00000   0.00000
 -9.02256   0.00000   0.00000   0.00000   0.00000
 -8.97243   0.00000   0.00000   0.00000   0.00000
 -8.92231   0.00000   0.00000   0.00000   0.00000
 -8.87218   0.00000   0.00000   0.00000   0.00000
 -8.82206   0.00000   0.00000   0.00000   0.00000
 -8.77193   0.00000   0.00000   0.00000   0.00000
 -8.72180   0.00000   0.00000   0.00000   0.00000
 -8.67168   0.00000   0.00000   0.00000   0.00000
 -8.62155   0.00000   0.00000   0.00000   0.00000
 -8.57143   0.00000   0.00000   0.00000   0.00000
 -8.52130   0.00000   0.00000   0.00000   0.00000
 -8.47118   0.00000   0.00000   0.00000   0.00000
 -8.42105   0.00000   0.00000   0.00000   0.00000
 -8.37093   0.00000   0.00000   0.00000   0.00000
 -8.32080   0.00000   0.00000   0.00000   0.00000
 -8.27068   0.00000   0.00000   0.00000   0.00000
 -8.22055   0.00000   0.00000   0.00000   0.00000
 -8.17043   0.00000   0.00000   0.00000   0.00000
 -8.12030   0.00000   0.00000   0.00000   0.00000
 -8.07018   0.00000   0.00000   0.00000   0.00000
 -8.02005   0.00000   0.00000   0.00000   0.00000
 -7.96992   0.00000   0.00000   0.00000   0.00000
 -7.91980   0.00000   0.00000   0.00000   0.00000
 -7.86967   0.00000   0.00000   0.00000   0.00000
 -7.81955   0.00000   0.00000   0.00000   0.00000
 -7.76942   0.00000   0.00000   0.00000   0.00000
 -7.71930   0.00000   0.00000   0.00000   0.00000
 -7.66917   0.00000   0.00000   0.00000   0.00000
 -7.61905   0.00000   0.00000   0.00000   0.00000
 -7.56892   0.00000   0.00000   0.00000   0.00000
 -7.51880   0.00000   0.00000   0.00000   0.00000
 -7.46867   0.00000   0.00000   0.00000   0.00000
 -7.41855   0.00000   0.00000   0.00000   0.00000
 -7.36842   0.00000   0.00000   0.00000   0.00000
 -7.31830   0.02365   0.14667   0.07902   0.08837
 -7.26817   0.13151   0.06526   0.09070   0.04912
 -7.21805   0.01071   0.00037   0.00295   0.00058
 -7.16792   0.00000   0.00000   0.00000   0.00000
 -7.11779   0.00000   0.00000   0.00000   0.00000
 -7.06767   0.00000   0.00000   0.00000   0.00000
 -7.01754   0.00000   0.00000   0.00000   0.00000
 -6.96742   0.00000   0.00000   0.00000   0.00000
 -6.91729   0.00000   0.00000   0.00000   0.00000
 -6.86717   0.00000   0.00000   0.00000   0.00000
 -6.81704   0.00000   0.00000   0.00000   0.00000
 -6.76692   0.00000   0.00000   0.00000   0.00000
 -6.71679   0.00000   0.00000   0.00000   0.00000
 -6.66667   0.00000   0.00000   0.00000   0.00000
 -6.61654   0.00000   0.00000   0.00000   0.00000
 -6.56642   0.00000   0.00000   0.00000   0.00000
 -6.51629   0.00000   0.00000   0.00000   0.00000
 -6.46617   0.00000   0.00000   0.00000   0.00000
 -6.41604   0.00000   0.00000   0.00000   0.00000
 -6.36591   0.00000   0.00000   0.00000   0.00000
 -6.31579   0.00000   0.00000   0.00000   0.00000
 -6.26566   0.00000   0.00000   0.00000   0.00000
 -6.21554   0.00000   0.00000   0.00000   0.00000
 -6.16541   0.00000   0.00000   0.00000   0.00000
 -6.11529   0.00000   0.00000   0.00000   0.00000
 -6.06516   0.00000   0.00000   0.00000   0.00000
 -6.01504   0.00000   0.00000   0.00000   0.00000
 -5.96491   0.00000   0.00000   0.00000   0.00000
 -5.91479   0.00000   0.00000   0.00000   0.00000
 -5.86466   0.00000   0.00000   0.00000   0.00000
 -5.81454   0.00000   0.00000   0.00000   0.00000
 -5.76441   0.00000   0.00000   0.00000   0.00000
 -5.71429   0.00000   0.00000   0.00000   0.00000
 -5.66416   0.00000   0.00000   0.00000   0.00000
 -5.61404   0.00000   0.00000   0.00000   0.00000
 -5.56391   0.00000   0.00000   0.00000   0.00000
 -5.51378   0.00000   0.00000   0.00000   0.00000
 -5.46366   0.00000   0.00000   0.00000   0.00000
 -5.41353   0.00000   0.00000   0.00000   0.00000
 -5.36341   0.00000   0.00000   0.00000   0.00000
 -5.31328   0.00000   0.00000   0.00000   0.00000
 -5.26316   0.00000   0.00000   0.00000   0.00000
 -5.21303   0.00000   0.00000   0.00000   0.00000
 -5.16291   0.00000   0.00000   0.00000   0.00000
 -5.11278   0.00000   0.00000   0.00000   0.00000
 -5.06266   0.00000   0.00000   0.00000   0.00000
 -5.01253   0.00000   0.00000   0.00000   0.00000
 -4.96241   0.00000   0.00000   0.00000   0.00000
 -4.91228   0.00000   0.00000   0.00000   0.00000
 -4.86216   0.00000   0.00000   0.00000   0.00000
 -4.81203   0.00000   0.00000   0.00000   0.00000
 -4.76190   0.00000   0.00000   0.00000   0.00000
 -4.71178   0.00000   0.00000   0.00000   0.00000
 -4.66165   0.00000   0.00000   0.00000   0.00000
 -4.61153   0.00000   0.00000   0.00000   0.00000
 -4.56140   0.00000   0.00000   0.00000   0.00000
 -4.51128   0.00000   0.00000   0.00000   0.00000
 -4.46115   0.00000   0.00000   0.00000   0.00000
 -4.41103   0.00000   0.00000   0.00000   0.00000
 -4.36090   0.00000   0.00000   0.00000   0.00000
 -4.31078   0.00000   0.00000   0.00000   0.00000
 -4.26065   0.00000   0.00000   0.00000   0.00000
 -4.21053   0.00000   0.00000   0.00000   0.00000
 -4.16040   0.00000   0.00000   0.00000   0.00000
 -4.11028   0.00000   0.00000   0.00000   0.00000
 -4.06015   0.00000   0.00000   0.00000   0.00000
 -4.01003   0.00000   0.00000   0.00000   0.00000
 -3.95990   0.00000   0.00000   0.00000   0.00000
 -3.90977   0.00000   0.00000   0.00000   0.00000
 -3.85965   0.00000   0.00000   0.00000   0.00000
 -3.80952   0.00000   0.00000   0.00000   0.00000
 -3.75940   0.00000   0.00000   0.00000   0.00000
 -3.70927   0.00119   0.00000   0.01051   0.00825
 -3.65915   0.07839   0.00076   0.69334   0.57807
 -3.60902   0.11673   0.00203   1.02086   0.97453
 -3.55890   0.04965   0.00163   0.41192   0.51591
 -3.50877   0.09350   0.00392   0.71797   1.15554
 -3.45865   0.07808   0.00400   0.51201   1.05668
 -3.40852   0.00295   0.00005   0.01640   0.03965
 -3.35840   0.00000   0.00000   0.00000   0.00000
 -3.30827   0.00000   0.00000   0.00000   0.00000
 -3.25815   0.00000   0.00000   0.00000   0.00000
 -3.20802   0.00000   0.00000   0.00000   0.00000
 -3.15789   0.00000   0.00000   0.00000   0.00000
 -3.10777   0.00000   0.00000   0.00000   0.00000
 -3.05764   0.00000   0.00000   0.00000   0.00000
 -3.00752   0.00000   0.00000   0.00000   0.00000
 -2.95739   0.00000   0.00000   0.00000   0.00000
 -2.90727   0.00000   0.00000   0.00000   0.00000
 -2.85714   0.00000   0.00000   0.00000   0.00000
 -2.80702   0.00000   0.00000   0.00000   0.00000
 -2.75689   0.00000   0.00000   0.00000   0.00000
 -2.70677   0.00000   0.00000   0.00000   0.00000
 -2.65664   0.00000   0.00000   0.00000   0.00000
 -2.60652   0.00000   0.00000   0.00000   0.00000
 -2.55639   0.00000   0.00000   0.00000   0.00000
 -2.50627   0.00000   0.00000   0.00000   0.00000
 -2.45614   0.00000   0.00000   0.00000   0.00000
 -2.40602   0.00000   0.00000   0.00000   0.00000
 -2.35589   0.00000   0.00000   0.00000   0.00000
 -2.30576   0.00000   0.00000   0.00000   0.00000
 -2.25564   0.00000   0.00000   0.00000   0.00000
 -2.20551  -0.00001   0.02586   0.01455   0.00051
 -2.15539   0.00025   0.29064   0.15249   0.02250
 -2.10526   0.00161   0.93830   0.36376   0.15691
 -2.05514   0.00149   0.63823   0.32299   0.18596
 -2.00501   0.00202   0.56090   0.55915   0.50073
 -1.95489   0.00207   0.36115   0.49317   0.77378
 -1.90476   0.00035   0.06097   0.06574   0.18428
 -1.85464   0.00001   0.00425   0.00224   0.00385
 -1.80451   0.00016   0.02031   0.10436   0.07496
 -1.75439   0.00120   0.49625   0.51176   0.67398
 -1.70426   0.00238   1.03981   0.67332   0.85769
 -1.65414   0.00090   0.52989   0.37754   0.26849
 -1.60401   0.00184   1.48164   0.80399   0.26300
 -1.55388   0.00142   0.73268   0.30890   0.09764
 -1.50376   0.00029   0.24370   0.02523   0.02108
 -1.45363   0.00001   0.00688   0.00092   0.00121
 -1.40351   0.00003   0.04850   0.20311   0.07657
 -1.35338   0.00031   0.16997   0.78029   0.32226
 -1.30326   0.00134   0.33352   1.69716   0.96217
 -1.25313   0.00041   0.36825   1.23447   1.03323
 -1.20301  -0.00010   0.78417   0.42504   0.64812
 -1.15288  -0.00020   1.01894   0.23039   0.74911
 -1.10276  -0.00017   1.61855   0.59421   1.37226
 -1.05263  -0.00012   1.48197   0.47398   0.98480
 -1.00251  -0.00018   1.56898   0.44768   0.80247
 -0.95238  -0.00029   2.09020   0.84183   1.68153
 -0.90226  -0.00004   1.13993   0.50150   1.03394
 -0.85213   0.00004   1.80746   0.69586   1.15492
 -0.80201  -0.00067   2.00474   1.57934   1.38642
 -0.75188  -0.00200   1.26926   3.81272   2.81327
 -0.70175  -0.00261   1.62022   5.81363   2.86560
 -0.65163  -0.00071   2.40575   2.62167   1.58064
 -0.60150  -0.00009   1.37507   0.35583   0.67736
 -0.55138   0.00000   0.61241   0.01596   0.04000
 -0.50125   0.00002   0.00274   0.00290   0.01420
 -0.45113   0.00018   0.20977   0.09138   0.61489
 -0.40100   0.00003   0.52649   0.18420   0.89660
 -0.35088   0.00020   1.35526   0.32572   0.75061
 -0.30075   0.00018   1.94386   0.44949   0.56490
 -0.25063   0.00015   1.83132   0.27862   0.46682
 -0.20050   0.00013   2.57268   0.43976   0.49744
 -0.15038   0.00005   1.13591   0.92309   0.69885
 -0.10025   0.00007   0.33313   1.18702   0.52417
 -0.05013   0.00004   0.17773   0.78599   0.32439
  0.00000   0.00000   0.03435   0.12130   0.04825
  0.05013   0.00000   0.00000   0.00000   0.00000
  0.10025   0.00000   0.00000   0.00000   0.00000
  0.15038   0.00000   0.00000   0.00000   0.00000
  0.20050   0.00000   0.00000   0.00000   0.00000
  0.25063   0.00000   0.00000   0.00000   0.00000
  0.30075   0.00000   0.00000   0.00000   0.00000
  0.35088   0.00000   0.00000   0.00000   0.00000
  0.40100   0.00000   0.00000   0.00000   0.00000
  0.45113   0.00000   0.00000   0.00000   0.00000
  0.50125   0.00000   0.00000   0.00000   0.00000
  0.55138   0.00000   0.00000   0.00000   0.00000
  0.60150   0.00000   0.00000   0.00000   0.00000
  0.65163   0.00000   0.00000   0.00000   0.00000
  0.70175   0.00000   0.00000   0.00000   0.00000
  0.75188   0.00000   0.00000   0.00000   0.00000
  0.80201   0.00000   0.00000   0.00000   0.00000
  0.85213   0.00000   0.00000   0.00000   0.00000
  0.90226   0.00000   0.00000   0.00000   0.00000
  0.95238   0.00000   0.00000   0.00000   0.00000
  1.00251   0.00000   0.00000   0.00000   0.00000
  1.05263   0.00000   0.00000   0.00000   0.00000
  1.10276   0.00000   0.00000   0.00000   0.00000
  1.15288   0.00000   0.00000   0.00000   0.00000
  1.20301   0.00000   0.00000   0.00000   0.00000
  1.25313   0.00000   0.00000   0.00000   0.00000
  1.30326   0.00000   0.00000   0.00000   0.00000
  1.35338   0.00000   0.00000   0.00000   0.00000
  1.40351   0.00000   0.00000   0.00000   0.00000
  1.45363   0.00000   0.00000   0.00000   0.00000
  1.50376   0.00000   0.00000   0.00000   0.00000
  1.55388   0.00000   0.00000   0.00000   0.00000
  1.60401   0.00000   0.00000   0.00000   0.00000
  1.65414   0.00000   0.00000   0.00000   0.00000
  1.70426   0.00000   0.00000   0.00000   0.00000
  1.75439   0.00000   0.00000   0.00000   0.00000
  1.80451   0.00000   0.00000   0.00000   0.00000
  1.85464   0.00000   0.00000   0.00000   0.00000
  1.90476   0.00899   0.00031   0.23539   0.23140
  1.95489   0.06120   0.00464   1.67204   1.79799
  2.00501   0.04133   0.00281   1.00159   1.44642
  2.05514   0.04659   0.00290   0.93913   1.62087
  2.10526   0.00115   0.00002   0.01939   0.03871
  2.15539   0.00000   0.00000   0.00000   0.00000
  2.20551   0.00000   0.00000   0.00000   0.00000
  2.25564   0.00000   0.00000   0.00000   0.00000
  2.30576   0.00000   0.00000   0.00000   0.00000
  2.35589   0.00000   0.00000   0.00000   0.00000
  2.40602   0.00000   0.00000   0.00000   0.00000
  2.45614   0.00000   0.00000   0.00000   0.00000
  2.50627   0.00000   0.00000   0.00000   0.00000
  2.55639   0.00000   0.00000   0.00000   0.00000
  2.60652   0.00000   0.00000   0.00000   0.00000
  2.65664   0.00000   0.00000   0.00000   0.00000
  2.70677   0.00000   0.00000   0.00000   0.00000
  2.75689   0.00000   0.00000   0.00000   0.00000
  2.80702   0.00000   0.00000   0.00000   0.00000
  2.85714   0.00000   0.00000   0.00000   0.00000
  2.90727   0.00000   0.00000   0.00000   0.00000
  2.95739   0.00000   0.00000   0.00000   0.00000
  3.00752   0.00000   0.00000   0.00000   0.00000
  3.05764   0.00000   0.00000   0.00000   0.00000
  3.10777   0.00000   0.00000   0.00000   0.00000
  3.15789   0.00000   0.00000   0.00000   0.00000
  3.20802   0.00000   0.00000   0.00000   0.00000
  3.25815   0.00000   0.00000   0.00000   0.00000
  3.30827   0.00000   0.00000   0.00000   0.00000
  3.35840   0.00000   0.00000   0.00000   0.00000
  3.40852   0.00000   0.00000   0.00000   0.00000
  3.45865   0.00000   0.00000   0.00000   0.00000
  3.50877   0.00000   0.00000   0.00000   0.00000
  3.55890   0.00000   0.00000   0.00000   0.00000
  3.60902   0.00000   0.00000   0.00000   0.00000
  3.65915   0.00000   0.00000   0.00000   0.00000
  3.70927   0.00000   0.00000   0.00000   0.00000
  3.75940   0.00000   0.00000   0.00000   0.00000
  3.80952   0.00000   0.00000   0.00000   0.00000
  3.85965   0.00000   0.00000   0.00000   0.00000
  3.90977   0.00000   0.00000   0.00000   0.00000
  3.95990   0.00000   0.00000   0.00000   0.00000
  4.01003   0.00000   0.00000   0.00000   0.00000
  4.06015   0.00000   0.00000   0.00000   0.00000
  4.11028   0.00000   0.00000   0.00000   0.00000
  4.16040   0.00003   0.00001   0.00002   0.00004
  4.21053   0.00018   0.00003   0.00014   0.00022
  4.26065   0.00048   0.00009   0.00035   0.00057
  4.31078   0.00092   0.00020   0.00073   0.00115
  4.36090   0.00137   0.00036   0.00118   0.00186
  4.41103   0.00170   0.00051   0.00154   0.00241
  4.46115   0.00192   0.00065   0.00184   0.00281
  4.51128   0.00218   0.00081   0.00216   0.00326
  4.56140   0.00258   0.00104   0.00261   0.00394
  4.61153   0.00316   0.00132   0.00335   0.00493
  4.66165   0.00406   0.00168   0.00471   0.00647
  4.71178   0.00468   0.00206   0.00527   0.00737
  4.76190   0.00489   0.00245   0.00504   0.00749
  4.81203   0.00502   0.00295   0.00490   0.00739
  4.86216   0.00536   0.00374   0.00517   0.00766
  4.91228   0.00568   0.00471   0.00558   0.00799
  4.96241   0.00607   0.00579   0.00649   0.00857
  5.01253   0.00780   0.00743   0.01048   0.01173
  5.06266   0.00865   0.00951   0.01229   0.01297
  5.11278   0.01155   0.01859   0.02117   0.01821
  5.16291   0.02287   0.04151   0.03049   0.02856
  5.21303   0.05362   0.06971   0.07158   0.05905
  5.26316   0.05768   0.07050   0.06837   0.05848
  5.31328   0.05984   0.05964   0.05542   0.06046
  5.36341   0.01875   0.04004   0.02539   0.03070
  5.41353   0.00755   0.02611   0.01300   0.01670
  5.46366   0.00006   0.00055   0.00026   0.00030
  5.51378   0.00000   0.00000   0.00000   0.00000
  5.56391   0.00000   0.00000   0.00000   0.00000
  5.61404   0.00000   0.00000   0.00000   0.00000
  5.66416   0.00000   0.00000   0.00000   0.00000
  5.71429   0.00000   0.00000   0.00000   0.00000
  5.76441   0.00000   0.00000   0.00000   0.00000
  5.81454   0.00000   0.00000   0.00000   0.00000
  5.86466   0.00000   0.00000   0.00000   0.00000
  5.91479   0.00000   0.00000   0.00000   0.00000
  5.96491   0.00000   0.00000   0.00000   0.00000
  6.01504   0.00000   0.00000   0.00000   0.00000
  6.06516   0.00000   0.00000   0.00000   0.00000
  6.11529   0.00000   0.00000   0.00000   0.00000
  6.16541   0.00000   0.00000   0.00000   0.00000
  6.21554   0.00000   0.00000   0.00000   0.00000
  6.26566   0.00000   0.00000   0.00000   0.00000
  6.31579   0.00000   0.00000   0.00000   0.00000
  6.36591   0.00000   0.00000   0.00000   0.00000
  6.41604   0.00000   0.00000   0.00000   0.00000
  6.46617   0.00000   0.00000   0.00000   0.00000
  6.51629   0.00000   0.00000   0.00000   0.00000
  6.56642   0.00000   0.00000   0.00000   0.00000
  6.61654   0.00000   0.00000   0.00000   0.00000
  6.66667   0.00000   0.00000   0.00000   0.00000
  6.71679   0.00000   0.00000   0.00000   0.00000
  6.76692   0.00000   0.00000   0.00000   0.00000
  6.81704   0.00000   0.00000   0.00000   0.00000
  6.86717   0.00000   0.00000   0.00000   0.00000
  6.91729   0.00000   0.00000   0.00000   0.00000
  6.96742   0.00000   0.00000   0.00000   0.00000
  7.01754   0.00000   0.00000   0.00000   0.00000
  7.06767   0.00000   0.00000   0.00000   0.00000
  7.11779   0.00000   0.00000   0.00000   0.00000
  7.16792   0.00000   0.00000   0.00000   0.00000
  7.21805   0.00000   0.00000   0.00000   0.00000
  7.26817   0.00000   0.00000   0.00000   0.00000
  7.31830   0.00000   0.00000   0.00000   0.00000
  7.36842   0.00000   0.00000   0.00000   0.00000
  7.41855   0.00000   0.00000   0.00000   0.00000
  7.46867   0.00000   0.00000   0.00000   0.00000
  7.51880   0.00000   0.00000   0.00000   0.00000
  7.56892   0.00000   0.00000   0.00000   0.00000
  7.61905   0.00000   0.00000   0.00000   0.00000
  7.66917   0.00000   0.00000   0.00000   0.00000
  7.71930   0.00000   0.00000   0.00000   0.00000
  7.76942   0.00000   0.00000   0.00000   0.00000
  7.81955   0.00000   0.00000   0.00000   0.00000
  7.86967   0.00000   0.00000   0.00000   0.00000
  7.91980   0.00000   0.00000   0.00000   0.00000
  7.96992   0.00000   0.00000   0.00000   0.00000
  8.02005   0.00000   0.00000   0.00000   0.00000
  8.07018   0.00000   0.00000   0.00000   0.00000
  8.12030   0.00000   0.00000   0.00000   0.00000
  8.17043   0.00000   0.00000   0.00000   0.00000
  8.22055   0.00000   0.00000   0.00000   0.00000
  8.27068   0.00000   0.00000   0.00000   0.00000
  8.32080   0.00000   0.00000   0.00000   0.00000
  8.37093   0.00000   0.00000   0.00000   0.00000
  8.42105   0.00000   0.00000   0.00000   0.00000
  8.47118   0.00000   0.00000   0.00000   0.00000
  8.52130   0.00000   0.00000   0.00000   0.00000
  8.57143   0.00000   0.00000   0.00000   0.00000
  8.62155   0.00000   0.00000   0.00000   0.00000
  8.67168   0.00000   0.00000   0.00000   0.00000
  8.72180   0.00000   0.00000   0.00000   0.00000
  8.77193   0.00000   0.00000   0.00000   0.00000
  8.82206   0.00000   0.00000   0.00000   0.00000
  8.87218   0.00000   0.00000   0.00000   0.00000
  8.92231   0.00000   0.00000   0.00000   0.00000
  8.97243   0.00000   0.00000   0.00000   0.00000
  9.02256   0.00000   0.00000   0.00000   0.00000
  9.07268   0.00000   0.00000   0.00000   0.00000
  9.12281   0.00000   0.00000   0.00000   0.00000
  9.17293   0.00000   0.00000   0.00000   0.00000
  9.22306   0.00000   0.00000   0.00000   0.00000
  9.27318   0.00000   0.00000   0.00000   0.00000
  9.32331   0.00000   0.00000   0.00000   0.00000
  9.37343   0.00000   0.00000   0.00000   0.00000
  9.42356   0.00000   0.00000   0.00000   0.00000
  9.47368   0.00000   0.00000   0.00000   0.00000
  9.52381   0.00000   0.00000   0.00000   0.00000
  9.57393   0.00000   0.00000   0.00000   0.00000
  9.62406   0.00000   0.00000   0.00000   0.00000
  9.67419   0.00000   0.00000   0.00000   0.00000
  9.72431   0.00000   0.00000   0.00000   0.00000
  9.77444   0.00000   0.00000   0.00000   0.00000
  9.82456   0.00000   0.00000   0.00000   0.00000
  9.87469   0.00000   0.00000   0.00000   0.00000
  9.92481   0.00000   0.00000   0.00000   0.00000
  9.97494   0.00000   0.00000   0.00000   0.00000
 10.02506   0.00000   0.00000   0.00000   0.00000
     10.02506266     -10.02506266   401       0.43334965       1.00000000; Z= 53; 5s 5p_y 5p_z 5p_x 
-10.02506   0.00000   0.00000   0.00000   0.00000
 -9.97494   0.00000   0.00000   0.00000   0.00000
 -9.92481   0.00000   0.00000   0.00000   0.00000
 -9.87469   0.00000   0.00000   0.00000   0.00000
 -9.82456   0.00000   0.00000   0.00000   0.00000
 -9.77444   0.00000   0.00000   0.00000   0.00000
 -9.72431   0.00000   0.00000   0.00000   0.00000
 -9.67419   0.00000   0.00000   0.00000   0.00000
 -9.62406   0.00000   0.00000   0.00000   0.00000
 -9.57393   0.00000   0.00000   0.00000   0.00000
 -9.52381   0.00000   0.00000   0.00000   0.00000
 -9.47368   0.00000   0.00000   0.00000   0.00000
 -9.42356   0.00000   0.00000   0.00000   0.00000
 -9.37343   0.00000   0.00000   0.00000   0.00000
 -9.32331   0.00000   0.00000   0.00000   0.00000
 -9.27318   0.00000   0.00000   0.00000   0.00000
 -9.22306   0.00000   0.00000   0.00000   0.00000
 -9.17293   0.00000   0.00000   0.00000   0.00000
 -9.12281   0.00000   0.00000   0.00000   0.00000
 -9.07268   0.00000   0.00000   0.00000   0.00000
 -9.02256   0.00000   0.00000   0.00000   0.00000
 -8.97243   0.00000   0.00000   0.00000   0.00000
 -8.92231   0.00000   0.00000   0.00000   0.00000
 -8.87218   0.00000   0.00000   0.00000   0.00000
 -8.82206   0.00000   0.00000   0.00000   0.00000
 -8.77193   0.00000   0.00000   0.00000   0.00000
 -8.72180   0.00000   0.00000   0.00000   0.00000
 -8.67168   0.00000   0.00000   0.00000   0.00000
 -8.62155   0.00000   0.00000   0.00000   0.00000
 -8.57143   0.00000   0.00000   0.00000   0.00000
 -8.52130   0.00000   0.00000   0.00000   0.00000
 -8.47118   0.00000   0.00000   0.00000   0.00000
 -8.42105   0.00000   0.00000   0.00000   0.00000
 -8.37093   0.00000   0.00000   0.00000   0.00000
 -8.32080   0.00000   0.00000   0.00000   0.00000
 -8.27068   0.00000   0.00000   0.00000   0.00000
 -8.22055   0.00000   0.00000   0.00000   0.00000
 -8.17043   0.00000   0.00000   0.00000   0.00000
 -8.12030   0.00000   0.00000   0.00000   0.00000
 -8.07018   0.00000   0.00000   0.00000   0.00000
 -8.02005   0.00000   0.00000   0.00000   0.00000
 -7.96992   0.00000   0.00000   0.00000   0.00000
 -7.91980   0.00000   0.00000   0.00000   0.00000
 -7.86967   0.00000   0.00000   0.00000   0.00000
 -7.81955   0.00000   0.00000   0.00000   0.00000
 -7.76942   0.00000   0.00000   0.00000   0.00000
 -7.71930   0.00000   0.00000   0.00000   0.00000
 -7.66917   0.00000   0.00000   0.00000   0.00000
 -7.61905   0.00000   0.00000   0.00000   0.00000
 -7.56892   0.00000   0.00000   0.00000   0.00000
 -7.51880   0.00000   0.00000   0.00000   0.00000
 -7.46867   0.00000   0.00000   0.00000   0.00000
 -7.41855   0.00000   0.00000   0.00000   0.00000
 -7.36842   0.00000   0.00000   0.00000   0.00000
 -7.31830   0.02362   0.14578   0.07872   0.08817
 -7.26817   0.12971   0.06620   0.09043   0.04938
 -7.21805   0.01254   0.00030   0.00349   0.00053
 -7.16792   0.00000   0.00000   0.00000   0.00000
 -7.11779   0.00000   0.00000   0.00000   0.00000
 -7.06767   0.00000   0.00000   0.00000   0.00000
 -7.01754   0.00000   0.00000   0.00000   0.00000
 -6.96742   0.00000   0.00000   0.00000   0.00000
 -6.91729   0.00000   0.00000   0.00000   0.00000
 -6.86717   0.00000   0.00000   0.00000   0.00000
 -6.81704   0.00000   0.00000   0.00000   0.00000
 -6.76692   0.00000   0.00000   0.00000   0.00000
 -6.71679   0.00000   0.00000   0.00000   0.00000
 -6.66667   0.00000   0.00000   0.00000   0.00000
 -6.61654   0.00000   0.00000   0.00000   0.00000
 -6.56642   0.00000   0.00000   0.00000   0.00000
 -6.51629   0.00000   0.00000   0.00000   0.00000
 -6.46617   0.00000   0.00000   0.00000   0.00000
 -6.41604   0.00000   0.00000   0.00000   0.00000
 -6.36591   0.00000   0.00000   0.00000   0.00000
 -6.31579   0.00000   0.00000   0.00000   0.00000
 -6.26566   0.00000   0.00000   0.00000   0.00000
 -6.21554   0.00000   0.00000   0.00000   0.00000
 -6.16541   0.00000   0.00000   0.00000   0.00000
 -6.11529   0.00000   0.00000   0.00000   0.00000
 -6.06516   0.00000   0.00000   0.00000   0.00000
 -6.01504   0.00000   0.00000   0.00000   0.00000
 -5.96491   0.00000   0.00000   0.00000   0.00000
 -5.91479   0.00000   0.00000   0.00000   0.00000
 -5.86466   0.00000   0.00000   0.00000   0.00000
 -5.81454   0.00000   0.00000   0.00000   0.00000
 -5.76441   0.00000   0.00000   0.00000   0.00000
 -5.71429   0.00000   0.00000   0.00000   0.00000
 -5.66416   0.00000   0.00000   0.00000   0.00000
 -5.61404   0.00000   0.00000   0.00000   0.00000
 -5.56391   0.00000   0.00000   0.00000   0.00000
 -5.51378   0.00000   0.00000   0.00000   0.00000
 -5.46366   0.00000   0.00000   0.00000   0.00000
 -5.41353   0.00000   0.00000   0.00000   0.00000
 -5.36341   0.00000   0.00000   0.00000   0.00000
 -5.31328   0.00000   0.00000   0.00000   0.00000
 -5.26316   0.00000   0.00000   0.00000   0.00000
 -5.21303   0.00000   0.00000   0.00000   0.00000
 -5.16291   0.00000   0.00000   0.00000   0.00000
 -5.11278   0.00000   0.00000   0.00000   0.00000
 -5.06266   0.00000   0.00000   0.00000   0.00000
 -5.01253   0.00000   0.00000   0.00000   0.00000
 -4.96241   0.00000   0.00000   0.00000   0.00000
 -4.91228   0.00000   0.00000   0.00000   0.00000
 -4.86216   0.00000   0.00000   0.00000   0.00000
 -4.81203   0.00000   0.00000   0.00000   0.00000
 -4.76190   0.00000   0.00000   0.00000   0.00000
 -4.71178   0.00000   0.00000   0.00000   0.00000
 -4.66165   0.00000   0.00000   0.00000   0.00000
 -4.61153   0.00000   0.00000   0.00000   0.00000
 -4.56140   0.00000   0.00000   0.00000   0.00000
 -4.51128   0.00000   0.00000   0.00000   0.00000
 -4.46115   0.00000   0.00000   0.00000   0.00000
 -4.41103   0.00000   0.00000   0.00000   0.00000
 -4.36090   0.00000   0.00000   0.00000   0.00000
 -4.31078   0.00000   0.00000   0.00000   0.00000
 -4.26065   0.00000   0.00000   0.00000   0.00000
 -4.21053   0.00000   0.00000   0.00000   0.00000
 -4.16040   0.00000   0.00000   0.00000   0.00000
 -4.11028   0.00000   0.00000   0.00000   0.00000
 -4.06015   0.00000   0.00000   0.00000   0.00000
 -4.01003   0.00000   0.00000   0.00000   0.00000
 -3.95990   0.00000   0.00000   0.00000   0.00000
 -3.90977   0.00000   0.00000   0.00000   0.00000
 -3.85965   0.00000   0.00000   0.00000   0.00000
 -3.80952   0.00000   0.00000   0.00000   0.00000
 -3.75940   0.00000   0.00000   0.00000   0.00000
 -3.70927   0.00120   0.00000   0.01040   0.00828
 -3.65915   0.08206   0.00079   0.72257   0.61358
 -3.60902   0.11742   0.00202   1.02692   0.98263
 -3.55890   0.05115   0.00165   0.42038   0.52884
 -3.50877   0.09201   0.00395   0.70694   1.14018
 -3.45865   0.07367   0.00398   0.47858   1.01595
 -3.40852   0.00302   0.00005   0.01639   0.04019
 -3.35840   0.00000   0.00000   0.00000   0.00000
 -3.30827   0.00000   0.00000   0.00000   0.00000
 -3.25815   0.00000   0.00000   0.00000   0.00000
 -3.20802   0.00000   0.00000   0.00000   0.00000
 -3.15789   0.00000   0.00000   0.00000   0.00000
 -3.10777   0.00000   0.00000   0.00000   0.00000
 -3.05764   0.00000   0.00000   0.00000   0.00000
 -3.00752   0.00000   0.00000   0.00000   0.00000
 -2.95739   0.00000   0.00000   0.00000   0.00000
 -2.90727   0.00000   0.00000   0.00000   0.00000
 -2.85714   0.00000   0.00000   0.00000   0.00000
 -2.80702   0.00000   0.00000   0.00000   0.00000
 -2.75689   0.00000   0.00000   0.00000   0.00000
 -2.70677   0.00000   0.00000   0.00000   0.00000
 -2.65664   0.00000   0.00000   0.00000   0.00000
 -2.60652   0.00000   0.00000   0.00000   0.00000
 -2.55639   0.00000   0.00000   0.00000   0.00000
 -2.50627   0.00000   0.00000   0.00000   0.00000
 -2.45614   0.00000   0.00000   0.00000   0.00000
 -2.40602   0.00000   0.00000   0.00000   0.00000
 -2.35589   0.00000   0.00000   0.00000   0.00000
 -2.30576   0.00000   0.00000   0.00000   0.00000
 -2.25564   0.00000   0.00000   0.00000   0.00000
 -2.20551   0.00001   0.02638   0.01366   0.00124
 -2.15539   0.00043   0.28613   0.13786   0.03893
 -2.10526   0.00157   0.92995   0.36219   0.16662
 -2.05514   0.00133   0.67128   0.32806   0.20231
 -2.00501   0.00188   0.55716   0.56660   0.50437
 -1.95489   0.00216   0.33899   0.50751   0.73454
 -1.90476   0.00040   0.06501   0.05649   0.17663
 -1.85464   0.00001   0.00574   0.00096   0.00385
 -1.80451   0.00007   0.01256   0.08515   0.10389
 -1.75439   0.00108   0.43771   0.47963   0.69445
 -1.70426   0.00251   0.98887   0.74775   0.77252
 -1.65414   0.00104   0.62621   0.34683   0.30081
 -1.60401   0.00185   1.40786   0.79507   0.25046
 -1.55388   0.00132   0.81934   0.32351   0.10734
 -1.50376   0.00029   0.25325   0.02772   0.02763
 -1.45363   0.00001   0.00703   0.00099   0.00120
 -1.40351   0.00003   0.04252   0.20755   0.08397
 -1.35338   0.00034   0.15801   0.78333   0.31305
 -1.30326   0.00132   0.32948   1.67462   0.87892
 -1.25313   0.00041   0.40785   1.22413   1.08228
 -1.20301  -0.00008   0.83410   0.49197   0.64764
 -1.15288  -0.00016   1.05138   0.35274   0.67639
 -1.10276  -0.00019   1.49480   0.53102   1.42288
 -1.05263  -0.00014   1.56693   0.41582   0.98210
 -1.00251  -0.00017   1.79796   0.41580   0.71328
 -0.95238  -0.00032   2.00711   0.80367   1.72653
 -0.90226  -0.00005   0.90508   0.54941   1.15438
 -0.85213   0.00000   1.78097   0.85094   1.13107
 -0.80201  -0.00061   2.00473   1.52651   1.36040
 -0.75188  -0.00215   1.30512   3.81289   2.87217
 -0.70175  -0.00256   1.63550   5.84682   2.79060
 -0.65163  -0.00059   2.49054   2.52362   1.66009
 -0.60150  -0.00011   1.28472   0.30553   0.65566
 -0.55138  -0.00000   0.62261   0.01338   0.03349
 -0.50125   0.00002   0.00486   0.00278   0.01557
 -0.45113   0.00016   0.27746   0.09455   0.61072
 -0.40100   0.00006   0.60253   0.20259   0.88897
 -0.35088   0.00022   1.19544   0.35250   0.77318
 -0.30075   0.00016   1.89487   0.44077   0.55644
 -0.25063   0.00014   1.93646   0.23274   0.43748
 -0.20050   0.00012   2.56831   0.45254   0.51945
 -0.15038   0.00005   1.13354   0.99093   0.67602
 -0.10025   0.00006   0.30243   1.13434   0.54847
 -0.05013   0.00003   0.17280   0.76440   0.32884
  0.00000   0.00000   0.03390   0.12168   0.04704
  0.05013   0.00000   0.00000   0.00000   0.00000
  0.10025   0.00000   0.00000   0.00000   0.00000
  0.15038   0.00000   0.00000   0.00000   0.00000
  0.20050   0.00000   0.00000   0.00000   0.00000
  0.25063   0.00000   0.00000   0.00000   0.00000
  0.30075   0.00000   0.00000   0.00000   0.00000
  0.35088   0.00000   0.00000   0.00000   0.00000
  0.40100   0.00000   0.00000   0.00000   0.00000
  0.45113   0.00000   0.00000   0.00000   0.00000
  0.50125   0.00000   0.00000   0.00000   0.00000
  0.55138   0.00000   0.00000   0.00000   0.00000
  0.60150   0.00000   0.00000   0.00000   0.00000
  0.65163   0.00000   0.00000   0.00000   0.00000
  0.70175   0.00000   0.00000   0.00000   0.00000
  0.75188   0.00000   0.00000   0.00000   0.00000
  0.80201   0.00000   0.00000   0.00000   0.00000
  0.85213   0.00000   0.00000   0.00000   0.00000
  0.90226   0.00000   0.00000   0.00000   0.00000
  0.95238   0.00000   0.00000   0.00000   0.00000
  1.00251   0.00000   0.00000   0.00000   0.00000
  1.05263   0.00000   0.00000   0.00000   0.00000
  1.10276   0.00000   0.00000   0.00000   0.00000
  1.15288   0.00000   0.00000   0.00000   0.00000
  1.20301   0.00000   0.00000   0.00000   0.00000
  1.25313   0.00000   0.00000   0.00000   0.00000
  1.30326   0.00000   0.00000   0.00000   0.00000
  1.35338   0.00000   0.00000   0.00000   0.00000
  1.40351   0.00000   0.00000   0.00000   0.00000
  1.45363   0.00000   0.00000   0.00000   0.00000
  1.50376   0.00000   0.00000   0.00000   0.00000
  1.55388   0.00000   0.00000   0.00000   0.00000
  1.60401   0.00000   0.00000   0.00000   0.00000
  1.65414   0.00000   0.00000   0.00000   0.00000
  1.70426   0.00000   0.00000   0.00000   0.00000
  1.75439   0.00000   0.00000   0.00000   0.00000
  1.80451   0.00000   0.00000   0.00000   0.00000
  1.85464   0.00000   0.00000   0.00000   0.00000
  1.90476   0.00848   0.00025   0.22342   0.21855
  1.95489   0.06166   0.00443   1.69437   1.81594
  2.00501   0.05042   0.00339   1.18974   1.70382
  2.05514   0.03803   0.00268   0.74653   1.36563
  2.10526   0.00088   0.00002   0.01353   0.03046
  2.15539   0.00000   0.00000   0.00000   0.00000
  2.20551   0.00000   0.00000   0.00000   0.00000
  2.25564   0.00000   0.00000   0.00000   0.00000
  2.30576   0.00000   0.00000   0.00000   0.00000
  2.35589   0.00000   0.00000   0.00000   0.00000
  2.40602   0.00000   0.00000   0.00000   0.00000
  2.45614   0.00000   0.00000   0.00000   0.00000
  2.50627   0.00000   0.00000   0.00000   0.00000
  2.55639   0.00000   0.00000   0.00000   0.00000
  2.60652   0.00000   0.00000   0.00000   0.00000
  2.65664   0.00000   0.00000   0.00000   0.00000
  2.70677   0.00000   0.00000   0.00000   0.00000
  2.75689   0.00000   0.00000   0.00000   0.00000
  2.80702   0.00000   0.00000   0.00000   0.00000
  2.85714   0.00000   0.00000   0.00000   0.00000
  2.90727   0.00000   0.00000   0.00000   0.00000
  2.95739   0.00000   0.00000   0.00000   0.00000
  3.00752   0.00000   0.00000   0.00000   0.00000
  3.05764   0.00000   0.00000   0.00000   0.00000
  3.10777   0.00000   0.00000   0.00000   0.00000
  3.15789   0.00000   0.00000   0.00000   0.00000
  3.20802   0.00000   0.00000   0.00000   0.00000
  3.25815   0.00000   0.00000   0.00000   0.00000
  3.30827   0.00000   0.00000   0.00000   0.00000
  3.35840   0.00000   0.00000   0.00000   0.00000
  3.40852   0.00000   0.00000   0.00000   0.00000
  3.45865   0.00000   0.00000   0.00000   0.00000
  3.50877   0.00000   0.00000   0.00000   0.00000
  3.55890   0.00000   0.00000   0.00000   0.00000
  3.60902   0.00000   0.00000   0.00000   0.00000
  3.65915   0.00000   0.00000   0.00000   0.00000
  3.70927   0.00000   0.00000   0.00000   0.00000
  3.75940   0.00000   0.00000   0.00000   0.00000
  3.80952   0.00000   0.00000   0.00000   0.00000
  3.85965   0.00000   0.00000   0.00000   0.00000
  3.90977   0.00000   0.00000   0.00000   0.00000
  3.95990   0.00000   0.00000   0.00000   0.00000
  4.01003   0.00000   0.00000   0.00000   0.00000
  4.06015   0.00000   0.00000   0.00000   0.00000
  4.11028   0.00000   0.00000   0.00000   0.00000
  4.16040   0.00003   0.00001   0.00002   0.00004
  4.21053   0.00019   0.00003   0.00015   0.00025
  4.26065   0.00049   0.00009   0.00039   0.00066
  4.31078   0.00093   0.00019   0.00078   0.00129
  4.36090   0.00137   0.00035   0.00121   0.00198
  4.41103   0.00164   0.00050   0.00152   0.00246
  4.46115   0.00177   0.00062   0.00172   0.00274
  4.51128   0.00192   0.00075   0.00195   0.00303
  4.56140   0.00218   0.00094   0.00229   0.00345
  4.61153   0.00260   0.00117   0.00292   0.00408
  4.66165   0.00331   0.00147   0.00418   0.00516
  4.71178   0.00366   0.00178   0.00461   0.00572
  4.76190   0.00376   0.00209   0.00442   0.00576
  4.81203   0.00411   0.00252   0.00460   0.00610
  4.86216   0.00482   0.00320   0.00523   0.00694
  4.91228   0.00581   0.00406   0.00616   0.00809
  4.96241   0.00705   0.00511   0.00759   0.00959
  5.01253   0.00892   0.00672   0.01159   0.01326
  5.06266   0.00960   0.00892   0.01323   0.01435
  5.11278   0.01310   0.01820   0.02161   0.01900
  5.16291   0.02327   0.04045   0.02988   0.02881
  5.21303   0.05426   0.06333   0.07339   0.05994
  5.26316   0.05897   0.07551   0.06298   0.05846
  5.31328   0.05874   0.06362   0.05365   0.06123
  5.36341   0.01832   0.04140   0.02503   0.03080
  5.41353   0.00829   0.02532   0.01312   0.01685
  5.46366   0.00002   0.00050   0.00027   0.00029
  5.51378   0.00000   0.00000   0.00000   0.00000
  5.56391   0.00000   0.00000   0.00000   0.00000
  5.61404   0.00000   0.00000   0.00000   0.00000
  5.66416   0.00000   0.00000   0.00000   0.00000
  5.71429   0.00000   0.00000   0.00000   0.00000
  5.76441   0.00000   0.00000   0.00000   0.00000
  5.81454   0.00000   0.00000   0.00000   0.00000
  5.86466   0.00000   0.00000   0.00000   0.00000
  5.91479   0.00000   0.00000   0.00000   0.00000
  5.96491   0.00000   0.00000   0.00000   0.00000
  6.01504   0.00000   0.00000   0.00000   0.00000
  6.06516   0.00000   0.00000   0.00000   0.00000
  6.11529   0.00000   0.00000   0.00000   0.00000
  6.16541   0.00000   0.00000   0.00000   0.00000
  6.21554   0.00000   0.00000   0.00000   0.00000
  6.26566   0.00000   0.00000   0.00000   0.00000
  6.31579   0.00000   0.00000   0.00000   0.00000
  6.36591   0.00000   0.00000   0.00000   0.00000
  6.41604   0.00000   0.00000   0.00000   0.00000
  6.46617   0.00000   0.00000   0.00000   0.00000
  6.51629   0.00000   0.00000   0.00000   0.00000
  6.56642   0.00000   0.00000   0.00000   0.00000
  6.61654   0.00000   0.00000   0.00000   0.00000
  6.66667   0.00000   0.00000   0.00000   0.00000
  6.71679   0.00000   0.00000   0.00000   0.00000
  6.76692   0.00000   0.00000   0.00000   0.00000
  6.81704   0.00000   0.00000   0.00000   0.00000
  6.86717   0.00000   0.00000   0.00000   0.00000
  6.91729   0.00000   0.00000   0.00000   0.00000
  6.96742   0.00000   0.00000   0.00000   0.00000
  7.01754   0.00000   0.00000   0.00000   0.00000
  7.06767   0.00000   0.00000   0.00000   0.00000
  7.11779   0.00000   0.00000   0.00000   0.00000
  7.16792   0.00000   0.00000   0.00000   0.00000
  7.21805   0.00000   0.00000   0.00000   0.00000
  7.26817   0.00000   0.00000   0.00000   0.00000
  7.31830   0.00000   0.00000   0.00000   0.00000
  7.36842   0.00000   0.00000   0.00000   0.00000
  7.41855   0.00000   0.00000   0.00000   0.00000
  7.46867   0.00000   0.00000   0.00000   0.00000
  7.51880   0.00000   0.00000   0.00000   0.00000
  7.56892   0.00000   0.00000   0.00000   0.00000
  7.61905   0.00000   0.00000   0.00000   0.00000
  7.66917   0.00000   0.00000   0.00000   0.00000
  7.71930   0.00000   0.00000   0.00000   0.00000
  7.76942   0.00000   0.00000   0.00000   0.00000
  7.81955   0.00000   0.00000   0.00000   0.00000
  7.86967   0.00000   0.00000   0.00000   0.00000
  7.91980   0.00000   0.00000   0.00000   0.00000
  7.96992   0.00000   0.00000   0.00000   0.00000
  8.02005   0.00000   0.00000   0.00000   0.00000
  8.07018   0.00000   0.00000   0.00000   0.00000
  8.12030   0.00000   0.00000   0.00000   0.00000
  8.17043   0.00000   0.00000   0.00000   0.00000
  8.22055   0.00000   0.00000   0.00000   0.00000
  8.27068   0.00000   0.00000   0.00000   0.00000
  8.32080   0.00000   0.00000   0.00000   0.00000
  8.37093   0.00000   0.00000   0.00000   0.00000
  8.42105   0.00000   0.00000   0.00000   0.00000
  8.47118   0.00000   0.00000   0.00000   0.00000
  8.52130   0.00000   0.00000   0.00000   0.00000
  8.57143   0.00000   0.00000   0.00000   0.00000
  8.62155   0.00000   0.00000   0.00000   0.00000
  8.67168   0.00000   0.00000   0.00000   0.00000
  8.72180   0.00000   0.00000   0.00000   0.00000
  8.77193   0.00000   0.00000   0.00000   0.00000
  8.82206   0.00000   0.00000   0.00000   0.00000
  8.87218   0.00000   0.00000   0.00000   0.00000
  8.92231   0.00000   0.00000   0.00000   0.00000
  8.97243   0.00000   0.00000   0.00000   0.00000
  9.02256   0.00000   0.00000   0.00000   0.00000
  9.07268   0.00000   0.00000   0.00000   0.00000
  9.12281   0.00000   0.00000   0.00000   0.00000
  9.17293   0.00000   0.00000   0.00000   0.00000
  9.22306   0.00000   0.00000   0.00000   0.00000
  9.27318   0.00000   0.00000   0.00000   0.00000
  9.32331   0.00000   0.00000   0.00000   0.00000
  9.37343   0.00000   0.00000   0.00000   0.00000
  9.42356   0.00000   0.00000   0.00000   0.00000
  9.47368   0.00000   0.00000   0.00000   0.00000
  9.52381   0.00000   0.00000   0.00000   0.00000
  9.57393   0.00000   0.00000   0.00000   0.00000
  9.62406   0.00000   0.00000   0.00000   0.00000
  9.67419   0.00000   0.00000   0.00000   0.00000
  9.72431   0.00000   0.00000   0.00000   0.00000
  9.77444   0.00000   0.00000   0.00000   0.00000
  9.82456   0.00000   0.00000   0.00000   0.00000
  9.87469   0.00000   0.00000   0.00000   0.00000
  9.92481   0.00000   0.00000   0.00000   0.00000
  9.97494   0.00000   0.00000   0.00000   0.00000
 10.02506   0.00000   0.00000   0.00000   0.00000
     10.02506266     -10.02506266   401       0.43334965       1.00000000; Z= 53; 5s 5p_y 5p_z 5p_x 
-10.02506   0.00000   0.00000   0.00000   0.00000
 -9.97494   0.00000   0.00000   0.00000   0.00000
 -9.92481   0.00000   0.00000   0.00000   0.00000
 -9.87469   0.00000   0.00000   0.00000   0.00000
 -9.82456   0.00000   0.00000   0.00000   0.00000
 -9.77444   0.00000   0.00000   0.00000   0.00000
 -9.72431   0.00000   0.00000   0.00000   0.00000
 -9.67419   0.00000   0.00000   0.00000   0.00000
 -9.62406   0.00000   0.00000   0.00000   0.00000
 -9.57393   0.00000   0.00000   0.00000   0.00000
 -9.52381   0.00000   0.00000   0.00000   0.00000
 -9.47368   0.00000   0.00000   0.00000   0.00000
 -9.42356   0.00000   0.00000   0.00000   0.00000
 -9.37343   0.00000   0.00000   0.00000   0.00000
 -9.32331   0.00000   0.00000   0.00000   0.00000
 -9.27318   0.00000   0.00000   0.00000   0.00000
 -9.22306   0.00000   0.00000   0.00000   0.00000
 -9.17293   0.00000   0.00000   0.00000   0.00000
 -9.12281   0.00000   0.00000   0.00000   0.00000
 -9.07268   0.00000   0.00000   0.00000   0.00000
 -9.02256   0.00000   0.00000   0.00000   0.00000
 -8.97243   0.00000   0.00000   0.00000   0.00000
 -8.92231   0.00000   0.00000   0.00000   0.00000
 -8.87218   0.00000   0.00000   0.00000   0.00000
 -8.82206   0.00000   0.00000   0.00000   0.00000
 -8.77193   0.00000   0.00000   0.00000   0.00000
 -8.72180   0.00000   0.00000   0.00000   0.00000
 -8.67168   0.00000   0.00000   0.00000   0.00000
 -8.62155   0.00000   0.00000   0.00000   0.00000
 -8.57143   0.00000   0.00000   0.00000   0.00000
 -8.52130   0.00000   0.00000   0.00000   0.00000
 -8.47118   0.00000   0.00000   0.00000   0.00000
 -8.42105   0.00000   0.00000   0.00000   0.00000
 -8.37093   0.00000   0.00000   0.00000   0.00000
 -8.32080   0.00000   0.00000   0.00000   0.00000
 -8.27068   0.00000   0.00000   0.00000   0.00000
 -8.22055   0.00000   0.00000   0.00000   0.00000
 -8.17043   0.00000   0.00000   0.00000   0.00000
 -8.12030   0.00000   0.00000   0.00000   0.00000
 -8.07018   0.00000   0.00000   0.00000   0.00000
 -8.02005   0.00000   0.00000   0.00000   0.00000
 -7.96992   0.00000   0.00000   0.00000   0.00000
 -7.91980   0.00000   0.00000   0.00000   0.00000
 -7.86967   0.00000   0.00000   0.00000   0.00000
 -7.81955   0.00000   0.00000   0.00000   0.00000
 -7.76942   0.00000   0.00000   0.00000   0.00000
 -7.71930   0.00000   0.00000   0.00000   0.00000
 -7.66917   0.00000   0.00000   0.00000   0.00000
 -7.61905   0.00000   0.00000   0.00000   0.00000
 -7.56892   0.00000   0.00000   0.00000   0.00000
 -7.51880   0.00000   0.00000   0.00000   0.00000
 -7.46867   0.00000   0.00000   0.00000   0.00000
 -7.41855   0.00000   0.00000   0.00000   0.00000
 -7.36842   0.00000   0.00000   0.00000   0.00000
 -7.31830   0.02363   0.14588   0.07878   0.08819
 -7.26817   0.13025   0.06610   0.09057   0.04940
 -7.21805   0.01198   0.00030   0.00328   0.00049
 -7.16792   0.00000   0.00000   0.00000   0.00000
 -7.11779   0.00000   0.00000   0.00000   0.00000
 -7.06767   0.00000   0.00000   0.00000   0.00000
 -7.01754   0.00000   0.00000   0.00000   0.00000
 -6.96742   0.00000   0.00000   0.00000   0.00000
 -6.91729   0.00000   0.00000   0.00000   0.00000
 -6.86717   0.00000   0.00000   0.00000   0.00000
 -6.81704   0.00000   0.00000   0.00000   0.00000
 -6.76692   0.00000   0.00000   0.00000   0.00000
 -6.71679   0.00000   0.00000   0.00000   0.00000
 -6.66667   0.00000   0.00000   0.00000   0.00000
 -6.61654   0.00000   0.00000   0.00000   0.00000
 -6.56642   0.00000   0.00000   0.00000   0.00000
 -6.51629   0.00000   0.00000   0.00000   0.00000
 -6.46617   0.00000   0.00000   0.00000   0.00000
 -6.41604   0.00000   0.00000   0.00000   0.00000
 -6.36591   0.00000   0.00000   0.00000   0.00000
 -6.31579   0.00000   0.00000   0.00000   0.00000
 -6.26566   0.00000   0.00000   0.00000   0.00000
 -6.21554   0.00000   0.00000   0.00000   0.00000
 -6.16541   0.00000   0.00000   0.00000   0.00000
 -6.11529   0.00000   0.00000   0.00000   0.00000
 -6.06516   0.00000   0.00000   0.00000   0.00000
 -6.01504   0.00000   0.00000   0.00000   0.00000
 -5.96491   0.00000   0.00000   0.00000   0.00000
 -5.91479   0.00000   0.00000   0.00000   0.00000
 -5.86466   0.00000   0.00000   0.00000   0.00000
 -5.81454   0.00000   0.00000   0.00000   0.00000
 -5.76441   0.00000   0.00000   0.00000   0.00000
 -5.71429   0.00000   0.00000   0.00000   0.00000
 -5.66416   0.00000   0.00000   0.00000   0.00000
 -5.61404   0.00000   0.00000   0.00000   0.00000
 -5.56391   0.00000   0.00000   0.00000   0.00000
 -5.51378   0.00000   0.00000   0.00000   0.00000
 -5.46366   0.00000   0.00000   0.00000   0.00000
 -5.41353   0.00000   0.00000   0.00000   0.00000
 -5.36341   0.00000   0.00000   0.00000   0.00000
 -5.31328   0.00000   0.00000   0.00000   0.00000
 -5.26316   0.00000   0.00000   0.00000   0.00000
 -5.21303   0.00000   0.00000   0.00000   0.00000
 -5.16291   0.00000   0.00000   0.00000   0.00000
 -5.11278   0.00000   0.00000   0.00000   0.00000
 -5.06266   0.00000   0.00000   0.00000   0.00000
 -5.01253   0.00000   0.00000   0.00000   0.00000
 -4.96241   0.00000   0.00000   0.00000   0.00000
 -4.91228   0.00000   0.00000   0.00000   0.00000
 -4.86216   0.00000   0.00000   0.00000   0.00000
 -4.81203   0.00000   0.00000   0.00000   0.00000
 -4.76190   0.00000   0.00000   0.00000   0.00000
 -4.71178   0.00000   0.00000   0.00000   0.00000
 -4.66165   0.00000   0.00000   0.00000   0.00000
 -4.61153   0.00000   0.00000   0.00000   0.00000
 -4.56140   0.00000   0.00000   0.00000   0.00000
 -4.51128   0.00000   0.00000   0.00000   0.00000
 -4.46115   0.00000   0.00000   0.00000   0.00000
 -4.41103   0.00000   0.00000   0.00000   0.00000
 -4.36090   0.00000   0.00000   0.00000   0.00000
 -4.31078   0.00000   0.00000   0.00000   0.00000
 -4.26065   0.00000   0.00000   0.00000   0.00000
 -4.21053   0.00000   0.00000   0.00000   0.00000
 -4.16040   0.00000   0.00000   0.00000   0.00000
 -4.11028   0.00000   0.00000   0.00000   0.00000
 -4.06015   0.00000   0.00000   0.00000   0.00000
 -4.01003   0.00000   0.00000   0.00000   0.00000
 -3.95990   0.00000   0.00000   0.00000   0.00000
 -3.90977   0.00000   0.00000   0.00000   0.00000
 -3.85965   0.00000   0.00000   0.00000   0.00000
 -3.80952   0.00000   0.00000   0.00000   0.00000
 -3.75940   0.00000   0.00000   0.00000   0.00000
 -3.70927   0.00120   0.00000   0.01040   0.00828
 -3.65915   0.07864   0.00079   0.69272   0.58151
 -3.60902   0.11664   0.00203   1.02048   0.97417
 -3.55890   0.04976   0.00163   0.41307   0.51675
 -3.50877   0.09342   0.00394   0.71841   1.15444
 -3.45865   0.07789   0.00399   0.51081   1.05431
 -3.40852   0.00302   0.00005   0.01639   0.04019
 -3.35840   0.00000   0.00000   0.00000   0.00000
 -3.30827   0.00000   0.00000   0.00000   0.00000
 -3.25815   0.00000   0.00000   0.00000   0.00000
 -3.20802   0.00000   0.00000   0.00000   0.00000
 -3.15789   0.00000   0.00000   0.00000   0.00000
 -3.10777   0.00000   0.00000   0.00000   0.00000
 -3.05764   0.00000   0.00000   0.00000   0.00000
 -3.00752   0.00000   0.00000   0.00000   0.00000
 -2.95739   0.00000   0.00000   0.00000   0.00000
 -2.90727   0.00000   0.00000   0.00000   0.00000
 -2.85714   0.00000   0.00000   0.00000   0.00000
 -2.80702   0.00000   0.00000   0.00000   0.00000
 -2.75689   0.00000   0.00000   0.00000   0.00000
 -2.70677   0.00000   0.00000   0.00000   0.00000
 -2.65664   0.00000   0.00000   0.00000   0.00000
 -2.60652   0.00000   0.00000   0.00000   0.00000
 -2.55639   0.00000   0.00000   0.00000   0.00000
 -2.50627   0.00000   0.00000   0.00000   0.00000
 -2.45614   0.00000   0.00000   0.00000   0.00000
 -2.40602   0.00000   0.00000   0.00000   0.00000
 -2.35589   0.00000   0.00000   0.00000   0.00000
 -2.30576   0.00000   0.00000   0.00000   0.00000
 -2.25564   0.00000   0.00000   0.00000   0.00000
 -2.20551   0.00001   0.02638   0.01366   0.00124
 -2.15539   0.00044   0.29570   0.14683   0.02862
 -2.10526   0.00162   0.94595   0.36615   0.15783
 -2.05514   0.00133   0.63822   0.32798   0.19730
 -2.00501   0.00187   0.54791   0.57236   0.49082
 -1.95489   0.00210   0.35536   0.49067   0.76926
 -1.90476   0.00040   0.06547   0.05475   0.17945
 -1.85464   0.00001   0.00577   0.00123   0.00372
 -1.80451   0.00013   0.01660   0.11220   0.08995
 -1.75439   0.00118   0.46303   0.51309   0.66980
 -1.70426   0.00251   1.00348   0.68988   0.80394
 -1.65414   0.00088   0.57764   0.34407   0.30887
 -1.60401   0.00181   1.39187   0.80017   0.25305
 -1.55388   0.00133   0.83721   0.32276   0.10626
 -1.50376   0.00032   0.25645   0.02330   0.02563
 -1.45363   0.00001   0.00672   0.00093   0.00116
 -1.40351   0.00003   0.04252   0.20755   0.08397
 -1.35338   0.00033   0.16984   0.77873   0.31682
 -1.30326   0.00132   0.35708   1.66475   0.87943
 -1.25313   0.00042   0.37087   1.23274   1.07487
 -1.20301  -0.00011   0.76604   0.45154   0.66191
 -1.15288  -0.00022   0.97643   0.24780   0.70379
 -1.10276  -0.00013   1.53620   0.59059   1.40542
 -1.05263  -0.00014   1.58594   0.45481   0.99292
 -1.00251  -0.00018   1.68864   0.41891   0.71984
 -0.95238  -0.00029   2.07154   0.83134   1.69433
 -0.90226  -0.00002   0.98929   0.54445   1.14306
 -0.85213   0.00006   1.66061   0.69792   1.15398
 -0.80201  -0.00063   2.12587   1.58461   1.36985
 -0.75188  -0.00209   1.33631   3.82732   2.84630
 -0.70175  -0.00264   1.57316   5.86560   2.82381
 -0.65163  -0.00067   2.33960   2.56442   1.64901
 -0.60150  -0.00007   1.47926   0.35056   0.63341
 -0.55138   0.00000   0.65024   0.01561   0.03181
 -0.50125   0.00002   0.00299   0.00289   0.01564
 -0.45113   0.00016   0.21351   0.09500   0.61387
 -0.40100   0.00005   0.47685   0.19211   0.88966
 -0.35088   0.00020   1.39815   0.31869   0.75121
 -0.30075   0.00018   1.92875   0.45700   0.56824
 -0.25063   0.00014   1.73824   0.26021   0.46203
 -0.20050   0.00013   2.67626   0.44882   0.49983
 -0.15038   0.00005   1.17699   0.88942   0.62182
 -0.10025   0.00007   0.30770   1.21093   0.59163
 -0.05013   0.00003   0.16954   0.79303   0.34143
  0.00000   0.00000   0.03390   0.12168   0.04704
  0.05013   0.00000   0.00000   0.00000   0.00000
  0.10025   0.00000   0.00000   0.00000   0.00000
  0.15038   0.00000   0.00000   0.00000   0.00000
  0.20050   0.00000   0.00000   0.00000   0.00000
  0.25063   0.00000   0.00000   0.00000   0.00000
  0.30075   0.00000   0.00000   0.00000   0.00000
  0.35088   0.00000   0.00000   0.00000   0.00000
  0.40100   0.00000   0.00000   0.00000   0.00000
  0.45113   0.00000   0.00000   0.00000   0.00000
  0.50125   0.00000   0.00000   0.00000   0.00000
  0.55138   0.00000   0.00000   0.00000   0.00000
  0.60150   0.00000   0.00000   0.00000   0.00000
  0.65163   0.00000   0.00000   0.00000   0.00000
  0.70175   0.00000   0.00000   0.00000   0.00000
  0.75188   0.00000   0.00000   0.00000   0.00000
  0.80201   0.00000   0.00000   0.00000   0.00000
  0.85213   0.00000   0.00000   0.00000   0.00000
  0.90226   0.00000   0.00000   0.00000   0.00000
  0.95238   0.00000   0.00000   0.00000   0.00000
  1.00251   0.00000   0.00000   0.00000   0.00000
  1.05263   0.00000   0.00000   0.00000   0.00000
  1.10276   0.00000   0.00000   0.00000   0.00000
  1.15288   0.00000   0.00000   0.00000   0.00000
  1.20301   0.00000   0.00000   0.00000   0.00000
  1.25313   0.00000   0.00000   0.00000   0.00000
  1.30326   0.00000   0.00000   0.00000   0.00000
  1.35338   0.00000   0.00000   0.00000   0.00000
  1.40351   0.00000   0.00000   0.00000   0.00000
  1.45363   0.00000   0.00000   0.00000   0.00000
  1.50376   0.00000   0.00000   0.00000   0.00000
  1.55388   0.00000   0.00000   0.00000   0.00000
  1.60401   0.00000   0.00000   0.00000   0.00000
  1.65414   0.00000   0.00000   0.00000   0.00000
  1.70426   0.00000   0.00000   0.00000   0.00000
  1.75439   0.00000   0.00000   0.00000   0.00000
  1.80451   0.00000   0.00000   0.00000   0.00000
  1.85464   0.00000   0.00000   0.00000   0.00000
  1.90476   0.00748   0.00031   0.19978   0.19307
  1.95489   0.06199   0.00449   1.70013   1.82552
  2.00501   0.04829   0.00326   1.13463   1.65100
  2.05514   0.04085   0.00269   0.81929   1.43477
  2.10526   0.00088   0.00002   0.01352   0.03047
  2.15539   0.00000   0.00000   0.00000   0.00000
  2.20551   0.00000   0.00000   0.00000   0.00000
  2.25564   0.00000   0.00000   0.00000   0.00000
  2.30576   0.00000   0.00000   0.00000   0.00000
  2.35589   0.00000   0.00000   0.00000   0.00000
  2.40602   0.00000   0.00000   0.00000   0.00000
  2.45614   0.00000   0.00000   0.00000   0.00000
  2.50627   0.00000   0.00000   0.00000   0.00000
  2.55639   0.00000   0.00000   0.00000   0.00000
  2.60652   0.00000   0.00000   0.00000   0.00000
  2.65664   0.00000   0.00000   0.00000   0.00000
  2.70677   0.00000   0.00000   0.00000   0.00000
  2.75689   0.00000   0.00000   0.00000   0.00000
  2.80702   0.00000   0.00000   0.00000   0.00000
  2.85714   0.00000   0.00000   0.00000   0.00000
  2.90727   0.00000   0.00000   0.00000   0.00000
  2.95739   0.00000   0.00000   0.00000   0.00000
  3.00752   0.00000   0.00000   0.00000   0.00000
  3.05764   0.00000   0.00000   0.00000   0.00000
  3.10777   0.00000   0.00000   0.00000   0.00000
  3.15789   0.00000   0.00000   0.00000   0.00000
  3.20802   0.00000   0.00000   0.00000   0.00000
  3.25815   0.00000   0.00000   0.00000   0.00000
  3.30827   0.00000   0.00000   0.00000   0.00000
  3.35840   0.00000   0.00000   0.00000   0.00000
  3.40852   0.00000   0.00000   0.00000   0.00000
  3.45865   0.00000   0.00000   0.00000   0.00000
  3.50877   0.00000   0.00000   0.00000   0.00000
  3.55890   0.00000   0.00000   0.00000   0.00000
  3.60902   0.00000   0.00000   0.00000   0.00000
  3.65915   0.00000   0.00000   0.00000   0.00000
  3.70927   0.00000   0.00000   0.00000   0.00000
  3.75940   0.00000   0.00000   0.00000   0.00000
  3.80952   0.00000   0.00000   0.00000   0.00000
  3.85965   0.00000   0.00000   0.00000   0.00000
  3.90977   0.00000   0.00000   0.00000   0.00000
  3.95990   0.00000   0.00000   0.00000   0.00000
  4.01003   0.00000   0.00000   0.00000   0.00000
  4.06015   0.00000   0.00000   0.00000   0.00000
  4.11028   0.00000   0.00000   0.00000   0.00000
  4.16040   0.00003   0.00001   0.00002   0.00004
  4.21053   0.00019   0.00003   0.00015   0.00025
  4.26065   0.00049   0.00009   0.00039   0.00066
  4.31078   0.00093   0.00019   0.00078   0.00129
  4.36090   0.00137   0.00035   0.00122   0.00197
  4.41103   0.00166   0.00050   0.00153   0.00240
  4.46115   0.00182   0.00062   0.00176   0.00261
  4.51128   0.00200   0.00077   0.00202   0.00281
  4.56140   0.00230   0.00096   0.00238   0.00315
  4.61153   0.00276   0.00121   0.00306   0.00368
  4.66165   0.00351   0.00152   0.00436   0.00465
  4.71178   0.00393   0.00184   0.00485   0.00507
  4.76190   0.00401   0.00217   0.00469   0.00515
  4.81203   0.00423   0.00261   0.00480   0.00579
  4.86216   0.00475   0.00330   0.00534   0.00697
  4.91228   0.00554   0.00417   0.00610   0.00845
  4.96241   0.00659   0.00523   0.00734   0.01025
  5.01253   0.00844   0.00688   0.01131   0.01393
  5.06266   0.00917   0.00915   0.01302   0.01490
  5.11278   0.01283   0.01836   0.02144   0.01936
  5.16291   0.02327   0.04098   0.03028   0.02846
  5.21303   0.05541   0.06500   0.07663   0.05823
  5.26316   0.05864   0.07321   0.06108   0.05979
  5.31328   0.05855   0.06252   0.05247   0.06193
  5.36341   0.01842   0.04073   0.02472   0.03109
  5.41353   0.00833   0.02537   0.01312   0.01681
  5.46366   0.00002   0.00050   0.00027   0.00029
  5.51378   0.00000   0.00000   0.00000   0.00000
  5.56391   0.00000   0.00000   0.00000   0.00000
  5.61404   0.00000   0.00000   0.00000   0.00000
  5.66416   0.00000   0.00000   0.00000   0.00000
  5.71429   0.00000   0.00000   0.00000   0.00000
  5.76441   0.00000   0.00000   0.00000   0.00000
  5.81454   0.00000   0.00000   0.00000   0.00000
  5.86466   0.00000   0.00000   0.00000   0.00000
  5.91479   0.00000   0.00000   0.00000   0.00000
  5.96491   0.00000   0.00000   0.00000   0.00000
  6.01504   0.00000   0.00000   0.00000   0.00000
  6.06516   0.00000   0.00000   0.00000   0.00000
  6.11529   0.00000   0.00000   0.00000   0.00000
  6.16541   0.00000   0.00000   0.00000   0.00000
  6.21554   0.00000   0.00000   0.00000   0.00000
  6.26566   0.00000   0.00000   0.00000   0.00000
  6.31579   0.00000   0.00000   0.00000   0.00000
  6.36591   0.00000   0.00000   0.00000   0.00000
  6.41604   0.00000   0.00000   0.00000   0.00000
  6.46617   0.00000   0.00000   0.00000   0.00000
  6.51629   0.00000   0.00000   0.00000   0.00000
  6.56642   0.00000   0.00000   0.00000   0.00000
  6.61654   0.00000   0.00000   0.00000   0.00000
  6.66667   0.00000   0.00000   0.00000   0.00000
  6.71679   0.00000   0.00000   0.00000   0.00000
  6.76692   0.00000   0.00000   0.00000   0.00000
  6.81704   0.00000   0.00000   0.00000   0.00000
  6.86717   0.00000   0.00000   0.00000   0.00000
  6.91729   0.00000   0.00000   0.00000   0.00000
  6.96742   0.00000   0.00000   0.00000   0.00000
  7.01754   0.00000   0.00000   0.00000   0.00000
  7.06767   0.00000   0.00000   0.00000   0.00000
  7.11779   0.00000   0.00000   0.00000   0.00000
  7.16792   0.00000   0.00000   0.00000   0.00000
  7.21805   0.00000   0.00000   0.00000   0.00000
  7.26817   0.00000   0.00000   0.00000   0.00000
  7.31830   0.00000   0.00000   0.00000   0.00000
  7.36842   0.00000   0.00000   0.00000   0.00000
  7.41855   0.00000   0.00000   0.00000   0.00000
  7.46867   0.00000   0.00000   0.00000   0.00000
  7.51880   0.00000   0.00000   0.00000   0.00000
  7.56892   0.00000   0.00000   0.00000   0.00000
  7.61905   0.00000   0.00000   0.00000   0.00000
  7.66917   0.00000   0.00000   0.00000   0.00000
  7.71930   0.00000   0.00000   0.00000   0.00000
  7.76942   0.00000   0.00000   0.00000   0.00000
  7.81955   0.00000   0.00000   0.00000   0.00000
  7.86967   0.00000   0.00000   0.00000   0.00000
  7.91980   0.00000   0.00000   0.00000   0.00000
  7.96992   0.00000   0.00000   0.00000   0.00000
  8.02005   0.00000   0.00000   0.00000   0.00000
  8.07018   0.00000   0.00000   0.00000   0.00000
  8.12030   0.00000   0.00000   0.00000   0.00000
  8.17043   0.00000   0.00000   0.00000   0.00000
  8.22055   0.00000   0.00000   0.00000   0.00000
  8.27068   0.00000   0.00000   0.00000   0.00000
  8.32080   0.00000   0.00000   0.00000   0.00000
  8.37093   0.00000   0.00000   0.00000   0.00000
  8.42105   0.00000   0.00000   0.00000   0.00000
  8.47118   0.00000   0.00000   0.00000   0.00000
  8.52130   0.00000   0.00000   0.00000   0.00000
  8.57143   0.00000   0.00000   0.00000   0.00000
  8.62155   0.00000   0.00000   0.00000   0.00000
  8.67168   0.00000   0.00000   0.00000   0.00000
  8.72180   0.00000   0.00000   0.00000   0.00000
  8.77193   0.00000   0.00000   0.00000   0.00000
  8.82206   0.00000   0.00000   0.00000   0.00000
  8.87218   0.00000   0.00000   0.00000   0.00000
  8.92231   0.00000   0.00000   0.00000   0.00000
  8.97243   0.00000   0.00000   0.00000   0.00000
  9.02256   0.00000   0.00000   0.00000   0.00000
  9.07268   0.00000   0.00000   0.00000   0.00000
  9.12281   0.00000   0.00000   0.00000   0.00000
  9.17293   0.00000   0.00000   0.00000   0.00000
  9.22306   0.00000   0.00000   0.00000   0.00000
  9.27318   0.00000   0.00000   0.00000   0.00000
  9.32331   0.00000   0.00000   0.00000   0.00000
  9.37343   0.00000   0.00000   0.00000   0.00000
  9.42356   0.00000   0.00000   0.00000   0.00000
  9.47368   0.00000   0.00000   0.00000   0.00000
  9.52381   0.00000   0.00000   0.00000   0.00000
  9.57393   0.00000   0.00000   0.00000   0.00000
  9.62406   0.00000   0.00000   0.00000   0.00000
  9.67419   0.00000   0.00000   0.00000   0.00000
  9.72431   0.00000   0.00000   0.00000   0.00000
  9.77444   0.00000   0.00000   0.00000   0.00000
  9.82456   0.00000   0.00000   0.00000   0.00000
  9.87469   0.00000   0.00000   0.00000   0.00000
  9.92481   0.00000   0.00000   0.00000   0.00000
  9.97494   0.00000   0.00000   0.00000   0.00000
 10.02506   0.00000   0.00000   0.00000   0.00000
     10.02506266     -10.02506266   401       0.43334965       1.00000000; Z= 53; 5s 5p_y 5p_z 5p_x 
-10.02506   0.00000   0.00000   0.00000   0.00000
 -9.97494   0.00000   0.00000   0.00000   0.00000
 -9.92481   0.00000   0.00000   0.00000   0.00000
 -9.87469   0.00000   0.00000   0.00000   0.00000
 -9.82456   0.00000   0.00000   0.00000   0.00000
 -9.77444   0.00000   0.00000   0.00000   0.00000
 -9.72431   0.00000   0.00000   0.00000   0.00000
 -9.67419   0.00000   0.00000   0.00000   0.00000
 -9.62406   0.00000   0.00000   0.00000   0.00000
 -9.57393   0.00000   0.00000   0.00000   0.00000
 -9.52381   0.00000   0.00000   0.00000   0.00000
 -9.47368   0.00000   0.00000   0.00000   0.00000
 -9.42356   0.00000   0.00000   0.00000   0.00000
 -9.37343   0.00000   0.00000   0.00000   0.00000
 -9.32331   0.00000   0.00000   0.00000   0.00000
 -9.27318   0.00000   0.00000   0.00000   0.00000
 -9.22306   0.00000   0.00000   0.00000   0.00000
 -9.17293   0.00000   0.00000   0.00000   0.00000
 -9.12281   0.00000   0.00000   0.00000   0.00000
 -9.07268   0.00000   0.00000   0.00000   0.00000
 -9.02256   0.00000   0.00000   0.00000   0.00000
 -8.97243   0.00000   0.00000   0.00000   0.00000
 -8.92231   0.00000   0.00000   0.00000   0.00000
 -8.87218   0.00000   0.00000   0.00000   0.00000
 -8.82206   0.00000   0.00000   0.00000   0.00000
 -8.77193   0.00000   0.00000   0.00000   0.00000
 -8.72180   0.00000   0.00000   0.00000   0.00000
 -8.67168   0.00000   0.00000   0.00000   0.00000
 -8.62155   0.00000   0.00000   0.00000   0.00000
 -8.57143   0.00000   0.00000   0.00000   0.00000
 -8.52130   0.00000   0.00000   0.00000   0.00000
 -8.47118   0.00000   0.00000   0.00000   0.00000
 -8.42105   0.00000   0.00000   0.00000   0.00000
 -8.37093   0.00000   0.00000   0.00000   0.00000
 -8.32080   0.00000   0.00000   0.00000   0.00000
 -8.27068   0.00000   0.00000   0.00000   0.00000
 -8.22055   0.00000   0.00000   0.00000   0.00000
 -8.17043   0.00000   0.00000   0.00000   0.00000
 -8.12030   0.00000   0.00000   0.00000   0.00000
 -8.07018   0.00000   0.00000   0.00000   0.00000
 -8.02005   0.00000   0.00000   0.00000   0.00000
 -7.96992   0.00000   0.00000   0.00000   0.00000
 -7.91980   0.00000   0.00000   0.00000   0.00000
 -7.86967   0.00000   0.00000   0.00000   0.00000
 -7.81955   0.00000   0.00000   0.00000   0.00000
 -7.76942   0.00000   0.00000   0.00000   0.00000
 -7.71930   0.00000   0.00000   0.00000   0.00000
 -7.66917   0.00000   0.00000   0.00000   0.00000
 -7.61905   0.00000   0.00000   0.00000   0.00000
 -7.56892   0.00000   0.00000   0.00000   0.00000
 -7.51880   0.00000   0.00000   0.00000   0.00000
 -7.46867   0.00000   0.00000   0.00000   0.00000
 -7.41855   0.00000   0.00000   0.00000   0.00000
 -7.36842   0.00000   0.00000   0.00000   0.00000
 -7.31830   0.00986   0.07626   0.00671   0.01458
 -7.26817   0.01906   0.04303   0.00596   0.02771
 -7.21805   0.00033   0.00080  -0.00002   0.00121
 -7.16792   0.00000   0.00000   0.00000   0.00000
 -7.11779   0.00000   0.00000   0.00000   0.00000
 -7.06767   0.00000   0.00000   0.00000   0.00000
 -7.01754   0.00000   0.00000   0.00000   0.00000
 -6.96742   0.00000   0.00000   0.00000   0.00000
 -6.91729   0.00000   0.00000   0.00000   0.00000
 -6.86717   0.00000   0.00000   0.00000   0.00000
 -6.81704   0.00000   0.00000   0.00000   0.00000
 -6.76692   0.00000   0.00000   0.00000   0.00000
 -6.71679   0.00000   0.00000   0.00000   0.00000
 -6.66667   0.00000   0.00000   0.00000   0.00000
 -6.61654   0.00000   0.00000   0.00000   0.00000
 -6.56642   0.00000   0.00000   0.00000   0.00000
 -6.51629   0.00000   0.00000   0.00000   0.00000
 -6.46617   0.00000   0.00000   0.00000   0.00000
 -6.41604   0.00000   0.00000   0.00000   0.00000
 -6.36591   0.00000   0.00000   0.00000   0.00000
 -6.31579   0.00000   0.00000   0.00000   0.00000
 -6.26566   0.00000   0.00000   0.00000   0.00000
 -6.21554   0.00000   0.00000   0.00000   0.00000
 -6.16541   0.00000   0.00000   0.00000   0.00000
 -6.11529   0.00000   0.00000   0.00000   0.00000
 -6.06516   0.00000   0.00000   0.00000   0.00000
 -6.01504   0.00000   0.00000   0.00000   0.00000
 -5.96491   0.00000   0.00000   0.00000   0.00000
 -5.91479   0.00000   0.00000   0.00000   0.00000
 -5.86466   0.00000   0.00000   0.00000   0.00000
 -5.81454   0.00000   0.00000   0.00000   0.00000
 -5.76441   0.00000   0.00000   0.00000   0.00000
 -5.71429   0.00000   0.00000   0.00000   0.00000
 -5.66416   0.00000   0.00000   0.00000   0.00000
 -5.61404   0.00000   0.00000   0.00000   0.00000
 -5.56391   0.00000   0.00000   0.00000   0.00000
 -5.51378   0.00000   0.00000   0.00000   0.00000
 -5.46366   0.00000   0.00000   0.00000   0.00000
 -5.41353   0.00000   0.00000   0.00000   0.00000
 -5.36341   0.00000   0.00000   0.00000   0.00000
 -5.31328   0.00000   0.00000   0.00000   0.00000
 -5.26316   0.00000   0.00000   0.00000   0.00000
 -5.21303   0.00000   0.00000   0.00000   0.00000
 -5.16291   0.00000   0.00000   0.00000   0.00000
 -5.11278   0.00000   0.00000   0.00000   0.00000
 -5.06266   0.00000   0.00000   0.00000   0.00000
 -5.01253   0.00000   0.00000   0.00000   0.00000
 -4.96241   0.00000   0.00000   0.00000   0.00000
 -4.91228   0.00000   0.00000   0.00000   0.00000
 -4.86216   0.00000   0.00000   0.00000   0.00000
 -4.81203   0.00000   0.00000   0.00000   0.00000
 -4.76190   0.00000   0.00000   0.00000   0.00000
 -4.71178   0.00000   0.00000   0.00000   0.00000
 -4.66165   0.00000   0.00000   0.00000   0.00000
 -4.61153   0.00000   0.00000   0.00000   0.00000
 -4.56140   0.00000   0.00000   0.00000   0.00000
 -4.51128   0.00000   0.00000   0.00000   0.00000
 -4.46115   0.00000   0.00000   0.00000   0.00000
 -4.41103   0.00000   0.00000   0.00000   0.00000
 -4.36090   0.00000   0.00000   0.00000   0.00000
 -4.31078   0.00000   0.00000   0.00000   0.00000
 -4.26065   0.00000   0.00000   0.00000   0.00000
 -4.21053   0.00000   0.00000   0.00000   0.00000
 -4.16040   0.00000   0.00000   0.00000   0.00000
 -4.11028   0.00000   0.00000   0.00000   0.00000
 -4.06015   0.00000   0.00000   0.00000   0.00000
 -4.01003   0.00000   0.00000   0.00000   0.00000
 -3.95990   0.00000   0.00000   0.00000   0.00000
 -3.90977   0.00000   0.00000   0.00000   0.00000
 -3.85965   0.00000   0.00000   0.00000   0.00000
 -3.80952   0.00000   0.00000   0.00000   0.00000
 -3.75940   0.00000   0.00000   0.00000   0.00000
 -3.70927   0.00004   0.00000   0.01449   0.03428
 -3.65915   0.00234   0.00284   1.10119   2.41286
 -3.60902   0.00474   0.00656   1.85908   3.43603
 -3.55890   0.00334   0.00252   1.04049   1.44704
 -3.50877   0.00773   0.00343   2.35984   2.43783
 -3.45865   0.00692   0.00277   2.05879   1.79374
 -3.40852   0.00028   0.00002   0.07563   0.06778
 -3.35840   0.00000   0.00000   0.00000   0.00000
 -3.30827   0.00000   0.00000   0.00000   0.00000
 -3.25815   0.00000   0.00000   0.00000   0.00000
 -3.20802   0.00000   0.00000   0.00000   0.00000
 -3.15789   0.00000   0.00000   0.00000   0.00000
 -3.10777   0.00000   0.00000   0.00000   0.00000
 -3.05764   0.00000   0.00000   0.00000   0.00000
 -3.00752   0.00000   0.00000   0.00000   0.00000
 -2.95739   0.00000   0.00000   0.00000   0.00000
 -2.90727   0.00000   0.00000   0.00000   0.00000
 -2.85714   0.00000   0.00000   0.00000   0.00000
 -2.80702   0.00000   0.00000   0.00000   0.00000
 -2.75689   0.00000   0.00000   0.00000   0.00000
 -2.70677   0.00000   0.00000   0.00000   0.00000
 -2.65664   0.00000   0.00000   0.00000   0.00000
 -2.60652   0.00000   0.00000   0.00000   0.00000
 -2.55639   0.00000   0.00000   0.00000   0.00000
 -2.50627   0.00000   0.00000   0.00000   0.00000
 -2.45614   0.00000   0.00000   0.00000   0.00000
 -2.40602   0.00000   0.00000   0.00000   0.00000
 -2.35589   0.00000   0.00000   0.00000   0.00000
 -2.30576   0.00000   0.00000   0.00000   0.00000
 -2.25564   0.00000   0.00000   0.00000   0.00000
 -2.20551   0.00031   0.06228   0.02495   0.02742
 -2.15539   0.00284   0.74583   0.30089   0.28460
 -2.10526   0.00659   2.88013   0.86649   0.71439
 -2.05514   0.00508   2.19884   0.85475   0.71714
 -2.00501   0.00796   2.14410   1.89114   1.43613
 -1.95489   0.00951   1.94233   2.22463   1.49788
 -1.90476   0.00150   0.57332   0.47111   0.24589
 -1.85464   0.00004   0.05811   0.01148   0.00724
 -1.80451   0.00270   0.02270   0.18996   0.11120
 -1.75439   0.01125   0.68206   1.52024   0.82413
 -1.70426   0.01755   1.89600   2.00016   1.27212
 -1.65414   0.01158   1.35861   0.67529   0.55137
 -1.60401   0.02032   4.06533   0.78162   0.78997
 -1.55388   0.00721   2.90027   0.38330   0.45615
 -1.50376   0.00052   1.47327   0.06213   0.05577
 -1.45363   0.00001   0.09210   0.00143   0.00109
 -1.40351   0.00073   0.02833   0.00590   0.01421
 -1.35338   0.00474   0.13264   0.02232   0.03821
 -1.30326   0.01802   0.39603   0.07468   0.07542
 -1.25313   0.01926   0.25914   0.07102   0.09584
 -1.20301   0.00943   0.16832   0.03223   0.05119
 -1.15288   0.01252   0.15921   0.02269   0.02923
 -1.10276   0.03412   0.24307   0.07962   0.08052
 -1.05263   0.02838   0.23424   0.06430   0.08353
 -1.00251   0.03126   0.22873   0.07463   0.10052
 -0.95238   0.05941   0.27821   0.14699   0.16884
 -0.90226   0.03483   0.11243   0.07610   0.09816
 -0.85213   0.04565   0.10115   0.10427   0.10623
 -0.80201   0.06860   0.14665   0.12752   0.15500
 -0.75188   0.13841   0.20946   0.21517   0.23739
 -0.70175   0.18331   0.37545   0.31607   0.30454
 -0.65163   0.07848   0.29954   0.16716   0.13978
 -0.60150   0.02129   0.11928   0.03023   0.02312
 -0.55138   0.00097   0.06884   0.00806   0.00491
 -0.50125   0.00040   0.00371   0.03565   0.01750
 -0.45113   0.01635   0.24213   1.15387   0.61046
 -0.40100   0.02008   0.68816   1.42108   0.81137
 -0.35088   0.00873   1.71510   1.24893   0.74737
 -0.30075   0.00538   2.51450   0.94229   0.61920
 -0.25063   0.00580   2.98734   0.54104   0.36715
 -0.20050   0.00463   3.08708   0.57015   0.43023
 -0.15038   0.00389   1.21773   1.21743   1.03200
 -0.10025   0.00342   0.34124   1.05787   1.04536
 -0.05013   0.00153   0.13698   0.69469   0.71536
  0.00000   0.00013   0.02297   0.10575   0.11406
  0.05013   0.00000   0.00000   0.00000   0.00000
  0.10025   0.00000   0.00000   0.00000   0.00000
  0.15038   0.00000   0.00000   0.00000   0.00000
  0.20050   0.00000   0.00000   0.00000   0.00000
  0.25063   0.00000   0.00000   0.00000   0.00000
  0.30075   0.00000   0.00000   0.00000   0.00000
  0.35088   0.00000   0.00000   0.00000   0.00000
  0.40100   0.00000   0.00000   0.00000   0.00000
  0.45113   0.00000   0.00000   0.00000   0.00000
  0.50125   0.00000   0.00000   0.00000   0.00000
  0.55138   0.00000   0.00000   0.00000   0.00000
  0.60150   0.00000   0.00000   0.00000   0.00000
  0.65163   0.00000   0.00000   0.00000   0.00000
  0.70175   0.00000   0.00000   0.00000   0.00000
  0.75188   0.00000   0.00000   0.00000   0.00000
  0.80201   0.00000   0.00000   0.00000   0.00000
  0.85213   0.00000   0.00000   0.00000   0.00000
  0.90226   0.00000   0.00000   0.00000   0.00000
  0.95238   0.00000   0.00000   0.00000   0.00000
  1.00251   0.00000   0.00000   0.00000   0.00000
  1.05263   0.00000   0.00000   0.00000   0.00000
  1.10276   0.00000   0.00000   0.00000   0.00000
  1.15288   0.00000   0.00000   0.00000   0.00000
  1.20301   0.00000   0.00000   0.00000   0.00000
  1.25313   0.00000   0.00000   0.00000   0.00000
  1.30326   0.00000   0.00000   0.00000   0.00000
  1.35338   0.00000   0.00000   0.00000   0.00000
  1.40351   0.00000   0.00000   0.00000   0.00000
  1.45363   0.00000   0.00000   0.00000   0.00000
  1.50376   0.00000   0.00000   0.00000   0.00000
  1.55388   0.00000   0.00000   0.00000   0.00000
  1.60401   0.00000   0.00000   0.00000   0.00000
  1.65414   0.00000   0.00000   0.00000   0.00000
  1.70426   0.00000   0.00000   0.00000   0.00000
  1.75439   0.00000   0.00000   0.00000   0.00000
  1.80451   0.00000   0.00000   0.00000   0.00000
  1.85464   0.00000   0.00000   0.00000   0.00000
  1.90476   0.00062   0.00016   0.52012   0.46742
  1.95489   0.00346   0.00327   3.43593   3.12623
  2.00501   0.00197   0.00188   2.09981   3.07667
  2.05514   0.00234   0.00122   1.75987   3.32877
  2.10526   0.00007   0.00002   0.04063   0.08727
  2.15539   0.00000   0.00000   0.00000   0.00000
  2.20551   0.00000   0.00000   0.00000   0.00000
  2.25564   0.00000   0.00000   0.00000   0.00000
  2.30576   0.00000   0.00000   0.00000   0.00000
  2.35589   0.00000   0.00000   0.00000   0.00000
  2.40602   0.00000   0.00000   0.00000   0.00000
  2.45614   0.00000   0.00000   0.00000   0.00000
  2.50627   0.00000   0.00000   0.00000   0.00000
  2.55639   0.00000   0.00000   0.00000   0.00000
  2.60652   0.00000   0.00000   0.00000   0.00000
  2.65664   0.00000   0.00000   0.00000   0.00000
  2.70677   0.00000   0.00000   0.00000   0.00000
  2.75689   0.00000   0.00000   0.00000   0.00000
  2.80702   0.00000   0.00000   0.00000   0.00000
  2.85714   0.00000   0.00000   0.00000   0.00000
  2.90727   0.00000   0.00000   0.00000   0.00000
  2.95739   0.00000   0.00000   0.00000   0.00000
  3.00752   0.00000   0.00000   0.00000   0.00000
  3.05764   0.00000   0.00000   0.00000   0.00000
  3.10777   0.00000   0.00000   0.00000   0.00000
  3.15789   0.00000   0.00000   0.00000   0.00000
  3.20802   0.00000   0.00000   0.00000   0.00000
  3.25815   0.00000   0.00000   0.00000   0.00000
  3.30827   0.00000   0.00000   0.00000   0.00000
  3.35840   0.00000   0.00000   0.00000   0.00000
  3.40852   0.00000   0.00000   0.00000   0.00000
  3.45865   0.00000   0.00000   0.00000   0.00000
  3.50877   0.00000   0.00000   0.00000   0.00000
  3.55890   0.00000   0.00000   0.00000   0.00000
  3.60902   0.00000   0.00000   0.00000   0.00000
  3.65915   0.00000   0.00000   0.00000   0.00000
  3.70927   0.00000   0.00000   0.00000   0.00000
  3.75940   0.00000   0.00000   0.00000   0.00000
  3.80952   0.00000   0.00000   0.00000   0.00000
  3.85965   0.00000   0.00000   0.00000   0.00000
  3.90977   0.00000   0.00000   0.00000   0.00000
  3.95990   0.00000   0.00000   0.00000   0.00000
  4.01003   0.00000   0.00000   0.00000   0.00000
  4.06015   0.00000   0.00000   0.00000   0.00000
  4.11028   0.00000   0.00000   0.00000   0.00000
  4.16040   0.00001   0.00000   0.00001   0.00001
  4.21053   0.00005   0.00001   0.00005   0.00007
  4.26065   0.00013   0.00002   0.00012   0.00017
  4.31078   0.00025   0.00004   0.00029   0.00040
  4.36090   0.00034   0.00008   0.00055   0.00077
  4.41103   0.00039   0.00012   0.00078   0.00113
  4.46115   0.00042   0.00015   0.00096   0.00143
  4.51128   0.00044   0.00019   0.00115   0.00176
  4.56140   0.00048   0.00025   0.00142   0.00219
  4.61153   0.00053   0.00034   0.00187   0.00277
  4.66165   0.00060   0.00045   0.00267   0.00360
  4.71178   0.00070   0.00057   0.00286   0.00401
  4.76190   0.00077   0.00069   0.00249   0.00381
  4.81203   0.00084   0.00084   0.00204   0.00327
  4.86216   0.00093   0.00110   0.00179   0.00287
  4.91228   0.00094   0.00142   0.00169   0.00261
  4.96241   0.00088   0.00176   0.00179   0.00251
  5.01253   0.00083   0.00225   0.00271   0.00344
  5.06266   0.00093   0.00277   0.00254   0.00350
  5.11278   0.00185   0.00371   0.00271   0.00314
  5.16291   0.00537   0.00734   0.00319   0.00117
  5.21303   0.01459   0.02230   0.00765   0.00546
  5.26316   0.01420   0.02584   0.00688   0.00127
  5.31328   0.01357   0.02779   0.00701  -0.00068
  5.36341   0.00356   0.02030   0.00065  -0.00009
  5.41353   0.00061   0.01059  -0.00077  -0.00112
  5.46366  -0.00001   0.00014  -0.00000  -0.00001
  5.51378   0.00000   0.00000   0.00000   0.00000
  5.56391   0.00000   0.00000   0.00000   0.00000
  5.61404   0.00000   0.00000   0.00000   0.00000
  5.66416   0.00000   0.00000   0.00000   0.00000
  5.71429   0.00000   0.00000   0.00000   0.00000
  5.76441   0.00000   0.00000   0.00000   0.00000
  5.81454   0.00000   0.00000   0.00000   0.00000
  5.86466   0.00000   0.00000   0.00000   0.00000
  5.91479   0.00000   0.00000   0.00000   0.00000
  5.96491   0.00000   0.00000   0.00000   0.00000
  6.01504   0.00000   0.00000   0.00000   0.00000
  6.06516   0.00000   0.00000   0.00000   0.00000
  6.11529   0.00000   0.00000   0.00000   0.00000
  6.16541   0.00000   0.00000   0.00000   0.00000
  6.21554   0.00000   0.00000   0.00000   0.00000
  6.26566   0.00000   0.00000   0.00000   0.00000
  6.31579   0.00000   0.00000   0.00000   0.00000
  6.36591   0.00000   0.00000   0.00000   0.00000
  6.41604   0.00000   0.00000   0.00000   0.00000
  6.46617   0.00000   0.00000   0.00000   0.00000
  6.51629   0.00000   0.00000   0.00000   0.00000
  6.56642   0.00000   0.00000   0.00000   0.00000
  6.61654   0.00000   0.00000   0.00000   0.00000
  6.66667   0.00000   0.00000   0.00000   0.00000
  6.71679   0.00000   0.00000   0.00000   0.00000
  6.76692   0.00000   0.00000   0.00000   0.00000
  6.81704   0.00000   0.00000   0.00000   0.00000
  6.86717   0.00000   0.00000   0.00000   0.00000
  6.91729   0.00000   0.00000   0.00000   0.00000
  6.96742   0.00000   0.00000   0.00000   0.00000
  7.01754   0.00000   0.00000   0.00000   0.00000
  7.06767   0.00000   0.00000   0.00000   0.00000
  7.11779   0.00000   0.00000   0.00000   0.00000
  7.16792   0.00000   0.00000   0.00000   0.00000
  7.21805   0.00000   0.00000   0.00000   0.00000
  7.26817   0.00000   0.00000   0.00000   0.00000
  7.31830   0.00000   0.00000   0.00000   0.00000
  7.36842   0.00000   0.00000   0.00000   0.00000
  7.41855   0.00000   0.00000   0.00000   0.00000
  7.46867   0.00000   0.00000   0.00000   0.00000
  7.51880   0.00000   0.00000   0.00000   0.00000
  7.56892   0.00000   0.00000   0.00000   0.00000
  7.61905   0.00000   0.00000   0.00000   0.00000
  7.66917   0.00000   0.00000   0.00000   0.00000
  7.71930   0.00000   0.00000   0.00000   0.00000
  7.76942   0.00000   0.00000   0.00000   0.00000
  7.81955   0.00000   0.00000   0.00000   0.00000
  7.86967   0.00000   0.00000   0.00000   0.00000
  7.91980   0.00000   0.00000   0.00000   0.00000
  7.96992   0.00000   0.00000   0.00000   0.00000
  8.02005   0.00000   0.00000   0.00000   0.00000
  8.07018   0.00000   0.00000   0.00000   0.00000
  8.12030   0.00000   0.00000   0.00000   0.00000
  8.17043   0.00000   0.00000   0.00000   0.00000
  8.22055   0.00000   0.00000   0.00000   0.00000
  8.27068   0.00000   0.00000   0.00000   0.00000
  8.32080   0.00000   0.00000   0.00000   0.00000
  8.37093   0.00000   0.00000   0.00000   0.00000
  8.42105   0.00000   0.00000   0.00000   0.00000
  8.47118   0.00000   0.00000   0.00000   0.00000
  8.52130   0.00000   0.00000   0.00000   0.00000
  8.57143   0.00000   0.00000   0.00000   0.00000
  8.62155   0.00000   0.00000   0.00000   0.00000
  8.67168   0.00000   0.00000   0.00000   0.00000
  8.72180   0.00000   0.00000   0.00000   0.00000
  8.77193   0.00000   0.00000   0.00000   0.00000
  8.82206   0.00000   0.00000   0.00000   0.00000
  8.87218   0.00000   0.00000   0.00000   0.00000
  8.92231   0.00000   0.00000   0.00000   0.00000
  8.97243   0.00000   0.00000   0.00000   0.00000
  9.02256   0.00000   0.00000   0.00000   0.00000
  9.07268   0.00000   0.00000   0.00000   0.00000
  9.12281   0.00000   0.00000   0.00000   0.00000
  9.17293   0.00000   0.00000   0.00000   0.00000
  9.22306   0.00000   0.00000   0.00000   0.00000
  9.27318   0.00000   0.00000   0.00000   0.00000
  9.32331   0.00000   0.00000   0.00000   0.00000
  9.37343   0.00000   0.00000   0.00000   0.00000
  9.42356   0.00000   0.00000   0.00000   0.00000
  9.47368   0.00000   0.00000   0.00000   0.00000
  9.52381   0.00000   0.00000   0.00000   0.00000
  9.57393   0.00000   0.00000   0.00000   0.00000
  9.62406   0.00000   0.00000   0.00000   0.00000
  9.67419   0.00000   0.00000   0.00000   0.00000
  9.72431   0.00000   0.00000   0.00000   0.00000
  9.77444   0.00000   0.00000   0.00000   0.00000
  9.82456   0.00000   0.00000   0.00000   0.00000
  9.87469   0.00000   0.00000   0.00000   0.00000
  9.92481   0.00000   0.00000   0.00000   0.00000
  9.97494   0.00000   0.00000   0.00000   0.00000
 10.02506   0.00000   0.00000   0.00000   0.00000
     10.02506266     -10.02506266   401       0.43334965       1.00000000; Z= 53; 5s 5p_y 5p_z 5p_x 
-10.02506   0.00000   0.00000   0.00000   0.00000
 -9.97494   0.00000   0.00000   0.00000   0.00000
 -9.92481   0.00000   0.00000   0.00000   0.00000
 -9.87469   0.00000   0.00000   0.00000   0.00000
 -9.82456   0.00000   0.00000   0.00000   0.00000
 -9.77444   0.00000   0.00000   0.00000   0.00000
 -9.72431   0.00000   0.00000   0.00000   0.00000
 -9.67419   0.00000   0.00000   0.00000   0.00000
 -9.62406   0.00000   0.00000   0.00000   0.00000
 -9.57393   0.00000   0.00000   0.00000   0.00000
 -9.52381   0.00000   0.00000   0.00000   0.00000
 -9.47368   0.00000   0.00000   0.00000   0.00000
 -9.42356   0.00000   0.00000   0.00000   0.00000
 -9.37343   0.00000   0.00000   0.00000   0.00000
 -9.32331   0.00000   0.00000   0.00000   0.00000
 -9.27318   0.00000   0.00000   0.00000   0.00000
 -9.22306   0.00000   0.00000   0.00000   0.00000
 -9.17293   0.00000   0.00000   0.00000   0.00000
 -9.12281   0.00000   0.00000   0.00000   0.00000
 -9.07268   0.00000   0.00000   0.00000   0.00000
 -9.02256   0.00000   0.00000   0.00000   0.00000
 -8.97243   0.00000   0.00000   0.00000   0.00000
 -8.92231   0.00000   0.00000   0.00000   0.00000
 -8.87218   0.00000   0.00000   0.00000   0.00000
 -8.82206   0.00000   0.00000   0.00000   0.00000
 -8.77193   0.00000   0.00000   0.00000   0.00000
 -8.72180   0.00000   0.00000   0.00000   0.00000
 -8.67168   0.00000   0.00000   0.00000   0.00000
 -8.62155   0.00000   0.00000   0.00000   0.00000
 -8.57143   0.00000   0.00000   0.00000   0.00000
 -8.52130   0.00000   0.00000   0.00000   0.00000
 -8.47118   0.00000   0.00000   0.00000   0.00000
 -8.42105   0.00000   0.00000   0.00000   0.00000
 -8.37093   0.00000   0.00000   0.00000   0.00000
 -8.32080   0.00000   0.00000   0.00000   0.00000
 -8.27068   0.00000   0.00000   0.00000   0.00000
 -8.22055   0.00000   0.00000   0.00000   0.00000
 -8.17043   0.00000   0.00000   0.00000   0.00000
 -8.12030   0.00000   0.00000   0.00000   0.00000
 -8.07018   0.00000   0.00000   0.00000   0.00000
 -8.02005   0.00000   0.00000   0.00000   0.00000
 -7.96992   0.00000   0.00000   0.00000   0.00000
 -7.91980   0.00000   0.00000   0.00000   0.00000
 -7.86967   0.00000   0.00000   0.00000   0.00000
 -7.81955   0.00000   0.00000   0.00000   0.00000
 -7.76942   0.00000   0.00000   0.00000   0.00000
 -7.71930   0.00000   0.00000   0.00000   0.00000
 -7.66917   0.00000   0.00000   0.00000   0.00000
 -7.61905   0.00000   0.00000   0.00000   0.00000
 -7.56892   0.00000   0.00000   0.00000   0.00000
 -7.51880   0.00000   0.00000   0.00000   0.00000
 -7.46867   0.00000   0.00000   0.00000   0.00000
 -7.41855   0.00000   0.00000   0.00000   0.00000
 -7.36842   0.00000   0.00000   0.00000   0.00000
 -7.31830   0.00986   0.07632   0.00671   0.01459
 -7.26817   0.01907   0.04301   0.00595   0.02776
 -7.21805   0.00032   0.00075  -0.00002   0.00115
 -7.16792   0.00000   0.00000   0.00000   0.00000
 -7.11779   0.00000   0.00000   0.00000   0.00000
 -7.06767   0.00000   0.00000   0.00000   0.00000
 -7.01754   0.00000   0.00000   0.00000   0.00000
 -6.96742   0.00000   0.00000   0.00000   0.00000
 -6.91729   0.00000   0.00000   0.00000   0.00000
 -6.86717   0.00000   0.00000   0.00000   0.00000
 -6.81704   0.00000   0.00000   0.00000   0.00000
 -6.76692   0.00000   0.00000   0.00000   0.00000
 -6.71679   0.00000   0.00000   0.00000   0.00000
 -6.66667   0.00000   0.00000   0.00000   0.00000
 -6.61654   0.00000   0.00000   0.00000   0.00000
 -6.56642   0.00000   0.00000   0.00000   0.00000
 -6.51629   0.00000   0.00000   0.00000   0.00000
 -6.46617   0.00000   0.00000   0.00000   0.00000
 -6.41604   0.00000   0.00000   0.00000   0.00000
 -6.36591   0.00000   0.00000   0.00000   0.00000
 -6.31579   0.00000   0.00000   0.00000   0.00000
 -6.26566   0.00000   0.00000   0.00000   0.00000
 -6.21554   0.00000   0.00000   0.00000   0.00000
 -6.16541   0.00000   0.00000   0.00000   0.00000
 -6.11529   0.00000   0.00000   0.00000   0.00000
 -6.06516   0.00000   0.00000   0.00000   0.00000
 -6.01504   0.00000   0.00000   0.00000   0.00000
 -5.96491   0.00000   0.00000   0.00000   0.00000
 -5.91479   0.00000   0.00000   0.00000   0.00000
 -5.86466   0.00000   0.00000   0.00000   0.00000
 -5.81454   0.00000   0.00000   0.00000   0.00000
 -5.76441   0.00000   0.00000   0.00000   0.00000
 -5.71429   0.00000   0.00000   0.00000   0.00000
 -5.66416   0.00000   0.00000   0.00000   0.00000
 -5.61404   0.00000   0.00000   0.00000   0.00000
 -5.56391   0.00000   0.00000   0.00000   0.00000
 -5.51378   0.00000   0.00000   0.00000   0.00000
 -5.46366   0.00000   0.00000   0.00000   0.00000
 -5.41353   0.00000   0.00000   0.00000   0.00000
 -5.36341   0.00000   0.00000   0.00000   0.00000
 -5.31328   0.00000   0.00000   0.00000   0.00000
 -5.26316   0.00000   0.00000   0.00000   0.00000
 -5.21303   0.00000   0.00000   0.00000   0.00000
 -5.16291   0.00000   0.00000   0.00000   0.00000
 -5.11278   0.00000   0.00000   0.00000   0.00000
 -5.06266   0.00000   0.00000   0.00000   0.00000
 -5.01253   0.00000   0.00000   0.00000   0.00000
 -4.96241   0.00000   0.00000   0.00000   0.00000
 -4.91228   0.00000   0.00000   0.00000   0.00000
 -4.86216   0.00000   0.00000   0.00000   0.00000
 -4.81203   0.00000   0.00000   0.00000   0.00000
 -4.76190   0.00000   0.00000   0.00000   0.00000
 -4.71178   0.00000   0.00000   0.00000   0.00000
 -4.66165   0.00000   0.00000   0.00000   0.00000
 -4.61153   0.00000   0.00000   0.00000   0.00000
 -4.56140   0.00000   0.00000   0.00000   0.00000
 -4.51128   0.00000   0.00000   0.00000   0.00000
 -4.46115   0.00000   0.00000   0.00000   0.00000
 -4.41103   0.00000   0.00000   0.00000   0.00000
 -4.36090   0.00000   0.00000   0.00000   0.00000
 -4.31078   0.00000   0.00000   0.00000   0.00000
 -4.26065   0.00000   0.00000   0.00000   0.00000
 -4.21053   0.00000   0.00000   0.00000   0.00000
 -4.16040   0.00000   0.00000   0.00000   0.00000
 -4.11028   0.00000   0.00000   0.00000   0.00000
 -4.06015   0.00000   0.00000   0.00000   0.00000
 -4.01003   0.00000   0.00000   0.00000   0.00000
 -3.95990   0.00000   0.00000   0.00000   0.00000
 -3.90977   0.00000   0.00000   0.00000   0.00000
 -3.85965   0.00000   0.00000   0.00000   0.00000
 -3.80952   0.00000   0.00000   0.00000   0.00000
 -3.75940   0.00000   0.00000   0.00000   0.00000
 -3.70927   0.00004   0.00000   0.01449   0.03428
 -3.65915   0.00231   0.00283   1.03776   2.31726
 -3.60902   0.00473   0.00651   1.84366   3.41180
 -3.55890   0.00333   0.00244   1.02513   1.40890
 -3.50877   0.00775   0.00350   2.38622   2.47863
 -3.45865   0.00696   0.00287   2.12661   1.91074
 -3.40852   0.00028   0.00002   0.07563   0.06778
 -3.35840   0.00000   0.00000   0.00000   0.00000
 -3.30827   0.00000   0.00000   0.00000   0.00000
 -3.25815   0.00000   0.00000   0.00000   0.00000
 -3.20802   0.00000   0.00000   0.00000   0.00000
 -3.15789   0.00000   0.00000   0.00000   0.00000
 -3.10777   0.00000   0.00000   0.00000   0.00000
 -3.05764   0.00000   0.00000   0.00000   0.00000
 -3.00752   0.00000   0.00000   0.00000   0.00000
 -2.95739   0.00000   0.00000   0.00000   0.00000
 -2.90727   0.00000   0.00000   0.00000   0.00000
 -2.85714   0.00000   0.00000   0.00000   0.00000
 -2.80702   0.00000   0.00000   0.00000   0.00000
 -2.75689   0.00000   0.00000   0.00000   0.00000
 -2.70677   0.00000   0.00000   0.00000   0.00000
 -2.65664   0.00000   0.00000   0.00000   0.00000
 -2.60652   0.00000   0.00000   0.00000   0.00000
 -2.55639   0.00000   0.00000   0.00000   0.00000
 -2.50627   0.00000   0.00000   0.00000   0.00000
 -2.45614   0.00000   0.00000   0.00000   0.00000
 -2.40602   0.00000   0.00000   0.00000   0.00000
 -2.35589   0.00000   0.00000   0.00000   0.00000
 -2.30576   0.00000   0.00000   0.00000   0.00000
 -2.25564   0.00000   0.00000   0.00000   0.00000
 -2.20551   0.00031   0.06228   0.02495   0.02742
 -2.15539   0.00301   0.79589   0.27057   0.26566
 -2.10526   0.00674   2.92338   0.84043   0.70193
 -2.05514   0.00507   2.15976   0.83283   0.70888
 -2.00501   0.00798   2.12152   1.85021   1.44059
 -1.95489   0.00921   1.91263   2.33509   1.53115
 -1.90476   0.00147   0.57155   0.47992   0.24778
 -1.85464   0.00004   0.05815   0.01135   0.00729
 -1.80451   0.00289   0.02784   0.17646   0.11377
 -1.75439   0.01174   0.71489   1.47280   0.81068
 -1.70426   0.01740   1.94631   1.99395   1.24752
 -1.65414   0.01094   1.25942   0.74734   0.58959
 -1.60401   0.02024   3.96706   0.79178   0.79094
 -1.55388   0.00731   2.86430   0.37773   0.45435
 -1.50376   0.00060   1.61491   0.05281   0.05391
 -1.45363   0.00001   0.09591   0.00132   0.00109
 -1.40351   0.00073   0.02833   0.00590   0.01421
 -1.35338   0.00494   0.12736   0.02238   0.03852
 -1.30326   0.01842   0.39517   0.07492   0.07814
 -1.25313   0.01871   0.26644   0.07010   0.09356
 -1.20301   0.01010   0.15274   0.03448   0.05446
 -1.15288   0.01406   0.13932   0.02621   0.04015
 -1.10276   0.03292   0.25590   0.07397   0.07472
 -1.05263   0.02791   0.24277   0.06436   0.07762
 -1.00251   0.03068   0.23827   0.06679   0.08727
 -0.95238   0.05844   0.28246   0.14845   0.17184
 -0.90226   0.03452   0.11091   0.08139   0.10653
 -0.85213   0.04079   0.09040   0.10546   0.11345
 -0.80201   0.07063   0.15472   0.12999   0.15034
 -0.75188   0.13695   0.20784   0.21546   0.23857
 -0.70175   0.18725   0.36477   0.30826   0.29544
 -0.65163   0.08124   0.29876   0.17141   0.14225
 -0.60150   0.02029   0.13428   0.03142   0.02451
 -0.55138   0.00082   0.07044   0.00802   0.00495
 -0.50125   0.00040   0.00073   0.03588   0.01762
 -0.45113   0.01631   0.12845   1.15668   0.60851
 -0.40100   0.02000   0.45506   1.40757   0.79355
 -0.35088   0.00915   2.06513   1.17620   0.71146
 -0.30075   0.00519   2.54942   0.97703   0.63587
 -0.25063   0.00584   2.73797   0.60989   0.40375
 -0.20050   0.00451   3.23229   0.54373   0.42730
 -0.15038   0.00422   1.28539   1.02816   0.89989
 -0.10025   0.00319   0.34970   1.20150   1.14525
 -0.05013   0.00141   0.12964   0.74641   0.75265
  0.00000   0.00013   0.02297   0.10575   0.11406
  0.05013   0.00000   0.00000   0.00000   0.00000
  0.10025   0.00000   0.00000   0.00000   0.00000
  0.15038   0.00000   0.00000   0.00000   0.00000
  0.20050   0.00000   0.00000   0.00000   0.00000
  0.25063   0.00000   0.00000   0.00000   0.00000
  0.30075   0.00000   0.00000   0.00000   0.00000
  0.35088   0.00000   0.00000   0.00000   0.00000
  0.40100   0.00000   0.00000   0.00000   0.00000
  0.45113   0.00000   0.00000   0.00000   0.00000
  0.50125   0.00000   0.00000   0.00000   0.00000
  0.55138   0.00000   0.00000   0.00000   0.00000
  0.60150   0.00000   0.00000   0.00000   0.00000
  0.65163   0.00000   0.00000   0.00000   0.00000
  0.70175   0.00000   0.00000   0.00000   0.00000
  0.75188   0.00000   0.00000   0.00000   0.00000
  0.80201   0.00000   0.00000   0.00000   0.00000
  0.85213   0.00000   0.00000   0.00000   0.00000
  0.90226   0.00000   0.00000   0.00000   0.00000
  0.95238   0.00000   0.00000   0.00000   0.00000
  1.00251   0.00000   0.00000   0.00000   0.00000
  1.05263   0.00000   0.00000   0.00000   0.00000
  1.10276   0.00000   0.00000   0.00000   0.00000
  1.15288   0.00000   0.00000   0.00000   0.00000
  1.20301   0.00000   0.00000   0.00000   0.00000
  1.25313   0.00000   0.00000   0.00000   0.00000
  1.30326   0.00000   0.00000   0.00000   0.00000
  1.35338   0.00000   0.00000   0.00000   0.00000
  1.40351   0.00000   0.00000   0.00000   0.00000
  1.45363   0.00000   0.00000   0.00000   0.00000
  1.50376   0.00000   0.00000   0.00000   0.00000
  1.55388   0.00000   0.00000   0.00000   0.00000
  1.60401   0.00000   0.00000   0.00000   0.00000
  1.65414   0.00000   0.00000   0.00000   0.00000
  1.70426   0.00000   0.00000   0.00000   0.00000
  1.75439   0.00000   0.00000   0.00000   0.00000
  1.80451   0.00000   0.00000   0.00000   0.00000
  1.85464   0.00000   0.00000   0.00000   0.00000
  1.90476   0.00053   0.00015   0.46960   0.42369
  1.95489   0.00347   0.00324   3.44908   3.14630
  2.00501   0.00164   0.00188   1.98917   2.99368
  2.05514   0.00275   0.00127   1.90795   3.43547
  2.10526   0.00007   0.00002   0.04063   0.08727
  2.15539   0.00000   0.00000   0.00000   0.00000
  2.20551   0.00000   0.00000   0.00000   0.00000
  2.25564   0.00000   0.00000   0.00000   0.00000
  2.30576   0.00000   0.00000   0.00000   0.00000
  2.35589   0.00000   0.00000   0.00000   0.00000
  2.40602   0.00000   0.00000   0.00000   0.00000
  2.45614   0.00000   0.00000   0.00000   0.00000
  2.50627   0.00000   0.00000   0.00000   0.00000
  2.55639   0.00000   0.00000   0.00000   0.00000
  2.60652   0.00000   0.00000   0.00000   0.00000
  2.65664   0.00000   0.00000   0.00000   0.00000
  2.70677   0.00000   0.00000   0.00000   0.00000
  2.75689   0.00000   0.00000   0.00000   0.00000
  2.80702   0.00000   0.00000   0.00000   0.00000
  2.85714   0.00000   0.00000   0.00000   0.00000
  2.90727   0.00000   0.00000   0.00000   0.00000
  2.95739   0.00000   0.00000   0.00000   0.00000
  3.00752   0.00000   0.00000   0.00000   0.00000
  3.05764   0.00000   0.00000   0.00000   0.00000
  3.10777   0.00000   0.00000   0.00000   0.00000
  3.15789   0.00000   0.00000   0.00000   0.00000
  3.20802   0.00000   0.00000   0.00000   0.00000
  3.25815   0.00000   0.00000   0.00000   0.00000
  3.30827   0.00000   0.00000   0.00000   0.00000
  3.35840   0.00000   0.00000   0.00000   0.00000
  3.40852   0.00000   0.00000   0.00000   0.00000
  3.45865   0.00000   0.00000   0.00000   0.00000
  3.50877   0.00000   0.00000   0.00000   0.00000
  3.55890   0.00000   0.00000   0.00000   0.00000
  3.60902   0.00000   0.00000   0.00000   0.00000
  3.65915   0.00000   0.00000   0.00000   0.00000
  3.70927   0.00000   0.00000   0.00000   0.00000
  3.75940   0.00000   0.00000   0.00000   0.00000
  3.80952   0.00000   0.00000   0.00000   0.00000
  3.85965   0.00000   0.00000   0.00000   0.00000
  3.90977   0.00000   0.00000   0.00000   0.00000
  3.95990   0.00000   0.00000   0.00000   0.00000
  4.01003   0.00000   0.00000   0.00000   0.00000
  4.06015   0.00000   0.00000   0.00000   0.00000
  4.11028   0.00000   0.00000   0.00000   0.00000
  4.16040   0.00001   0.00000   0.00001   0.00001
  4.21053   0.00005   0.00001   0.00005   0.00007
  4.26065   0.00013   0.00002   0.00012   0.00017
  4.31078   0.00025   0.00004   0.00029   0.00040
  4.36090   0.00034   0.00008   0.00055   0.00077
  4.41103   0.00040   0.00012   0.00077   0.00110
  4.46115   0.00043   0.00016   0.00094   0.00138
  4.51128   0.00046   0.00020   0.00113   0.00167
  4.56140   0.00051   0.00026   0.00138   0.00206
  4.61153   0.00056   0.00035   0.00183   0.00260
  4.66165   0.00064   0.00047   0.00262   0.00339
  4.71178   0.00076   0.00060   0.00280   0.00375
  4.76190   0.00083   0.00072   0.00243   0.00360
  4.81203   0.00089   0.00087   0.00202   0.00322
  4.86216   0.00095   0.00112   0.00181   0.00298
  4.91228   0.00092   0.00144   0.00173   0.00282
  4.96241   0.00082   0.00179   0.00185   0.00279
  5.01253   0.00077   0.00231   0.00277   0.00373
  5.06266   0.00090   0.00288   0.00259   0.00379
  5.11278   0.00184   0.00383   0.00275   0.00334
  5.16291   0.00551   0.00765   0.00316   0.00131
  5.21303   0.01498   0.02245   0.00733   0.00620
  5.26316   0.01378   0.02507   0.00705   0.00074
  5.31328   0.01327   0.02739   0.00712  -0.00085
  5.36341   0.00339   0.01994   0.00069  -0.00008
  5.41353   0.00060   0.01061  -0.00078  -0.00111
  5.46366  -0.00001   0.00014  -0.00000  -0.00001
  5.51378   0.00000   0.00000   0.00000   0.00000
  5.56391   0.00000   0.00000   0.00000   0.00000
  5.61404   0.00000   0.00000   0.00000   0.00000
  5.66416   0.00000   0.00000   0.00000   0.00000
  5.71429   0.00000   0.00000   0.00000   0.00000
  5.76441   0.00000   0.00000   0.00000   0.00000
  5.81454   0.00000   0.00000   0.00000   0.00000
  5.86466   0.00000   0.00000   0.00000   0.00000
  5.91479   0.00000   0.00000   0.00000   0.00000
  5.96491   0.00000   0.00000   0.00000   0.00000
  6.01504   0.00000   0.00000   0.00000   0.00000
  6.06516   0.00000   0.00000   0.00000   0.00000
  6.11529   0.00000   0.00000   0.00000   0.00000
  6.16541   0.00000   0.00000   0.00000   0.00000
  6.21554   0.00000   0.00000   0.00000   0.00000
  6.26566   0.00000   0.00000   0.00000   0.00000
  6.31579   0.00000   0.00000   0.00000   0.00000
  6.36591   0.00000   0.00000   0.00000   0.00000
  6.41604   0.00000   0.00000   0.00000   0.00000
  6.46617   0.00000   0.00000   0.00000   0.00000
  6.51629   0.00000   0.00000   0.00000   0.00000
  6.56642   0.00000   0.00000   0.00000   0.00000
  6.61654   0.00000   0.00000   0.00000   0.00000
  6.66667   0.00000   0.00000   0.00000   0.00000
  6.71679   0.00000   0.00000   0.00000   0.00000
  6.76692   0.00000   0.00000   0.00000   0.00000
  6.81704   0.00000   0.00000   0.00000   0.00000
  6.86717   0.00000   0.00000   0.00000   0.00000
  6.91729   0.00000   0.00000   0.00000   0.00000
  6.96742   0.00000   0.00000   0.00000   0.00000
  7.01754   0.00000   0.00000   0.00000   0.00000
  7.06767   0.00000   0.00000   0.00000   0.00000
  7.11779   0.00000   0.00000   0.00000   0.00000
  7.16792   0.00000   0.00000   0.00000   0.00000
  7.21805   0.00000   0.00000   0.00000   0.00000
  7.26817   0.00000   0.00000   0.00000   0.00000
  7.31830   0.00000   0.00000   0.00000   0.00000
  7.36842   0.00000   0.00000   0.00000   0.00000
  7.41855   0.00000   0.00000   0.00000   0.00000
  7.46867   0.00000   0.00000   0.00000   0.00000
  7.51880   0.00000   0.00000   0.00000   0.00000
  7.56892   0.00000   0.00000   0.00000   0.00000
  7.61905   0.00000   0.00000   0.00000   0.00000
  7.66917   0.00000   0.00000   0.00000   0.00000
  7.71930   0.00000   0.00000   0.00000   0.00000
  7.76942   0.00000   0.00000   0.00000   0.00000
  7.81955   0.00000   0.00000   0.00000   0.00000
  7.86967   0.00000   0.00000   0.00000   0.00000
  7.91980   0.00000   0.00000   0.00000   0.00000
  7.96992   0.00000   0.00000   0.00000   0.00000
  8.02005   0.00000   0.00000   0.00000   0.00000
  8.07018   0.00000   0.00000   0.00000   0.00000
  8.12030   0.00000   0.00000   0.00000   0.00000
  8.17043   0.00000   0.00000   0.00000   0.00000
  8.22055   0.00000   0.00000   0.00000   0.00000
  8.27068   0.00000   0.00000   0.00000   0.00000
  8.32080   0.00000   0.00000   0.00000   0.00000
  8.37093   0.00000   0.00000   0.00000   0.00000
  8.42105   0.00000   0.00000   0.00000   0.00000
  8.47118   0.00000   0.00000   0.00000   0.00000
  8.52130   0.00000   0.00000   0.00000   0.00000
  8.57143   0.00000   0.00000   0.00000   0.00000
  8.62155   0.00000   0.00000   0.00000   0.00000
  8.67168   0.00000   0.00000   0.00000   0.00000
  8.72180   0.00000   0.00000   0.00000   0.00000
  8.77193   0.00000   0.00000   0.00000   0.00000
  8.82206   0.00000   0.00000   0.00000   0.00000
  8.87218   0.00000   0.00000   0.00000   0.00000
  8.92231   0.00000   0.00000   0.00000   0.00000
  8.97243   0.00000   0.00000   0.00000   0.00000
  9.02256   0.00000   0.00000   0.00000   0.00000
  9.07268   0.00000   0.00000   0.00000   0.00000
  9.12281   0.00000   0.00000   0.00000   0.00000
  9.17293   0.00000   0.00000   0.00000   0.00000
  9.22306   0.00000   0.00000   0.00000   0.00000
  9.27318   0.00000   0.00000   0.00000   0.00000
  9.32331   0.00000   0.00000   0.00000   0.00000
  9.37343   0.00000   0.00000   0.00000   0.00000
  9.42356   0.00000   0.00000   0.00000   0.00000
  9.47368   0.00000   0.00000   0.00000   0.00000
  9.52381   0.00000   0.00000   0.00000   0.00000
  9.57393   0.00000   0.00000   0.00000   0.00000
  9.62406   0.00000   0.00000   0.00000   0.00000
  9.67419   0.00000   0.00000   0.00000   0.00000
  9.72431   0.00000   0.00000   0.00000   0.00000
  9.77444   0.00000   0.00000   0.00000   0.00000
  9.82456   0.00000   0.00000   0.00000   0.00000
  9.87469   0.00000   0.00000   0.00000   0.00000
  9.92481   0.00000   0.00000   0.00000   0.00000
  9.97494   0.00000   0.00000   0.00000   0.00000
 10.02506   0.00000   0.00000   0.00000   0.00000
     10.02506266     -10.02506266   401       0.43334965       1.00000000; Z= 53; 5s 5p_y 5p_z 5p_x 
-10.02506   0.00000   0.00000   0.00000   0.00000
 -9.97494   0.00000   0.00000   0.00000   0.00000
 -9.92481   0.00000   0.00000   0.00000   0.00000
 -9.87469   0.00000   0.00000   0.00000   0.00000
 -9.82456   0.00000   0.00000   0.00000   0.00000
 -9.77444   0.00000   0.00000   0.00000   0.00000
 -9.72431   0.00000   0.00000   0.00000   0.00000
 -9.67419   0.00000   0.00000   0.00000   0.00000
 -9.62406   0.00000   0.00000   0.00000   0.00000
 -9.57393   0.00000   0.00000   0.00000   0.00000
 -9.52381   0.00000   0.00000   0.00000   0.00000
 -9.47368   0.00000   0.00000   0.00000   0.00000
 -9.42356   0.00000   0.00000   0.00000   0.00000
 -9.37343   0.00000   0.00000   0.00000   0.00000
 -9.32331   0.00000   0.00000   0.00000   0.00000
 -9.27318   0.00000   0.00000   0.00000   0.00000
 -9.22306   0.00000   0.00000   0.00000   0.00000
 -9.17293   0.00000   0.00000   0.00000   0.00000
 -9.12281   0.00000   0.00000   0.00000   0.00000
 -9.07268   0.00000   0.00000   0.00000   0.00000
 -9.02256   0.00000   0.00000   0.00000   0.00000
 -8.97243   0.00000   0.00000   0.00000   0.00000
 -8.92231   0.00000   0.00000   0.00000   0.00000
 -8.87218   0.00000   0.00000   0.00000   0.00000
 -8.82206   0.00000   0.00000   0.00000   0.00000
 -8.77193   0.00000   0.00000   0.00000   0.00000
 -8.72180   0.00000   0.00000   0.00000   0.00000
 -8.67168   0.00000   0.00000   0.00000   0.00000
 -8.62155   0.00000   0.00000   0.00000   0.00000
 -8.57143   0.00000   0.00000   0.00000   0.00000
 -8.52130   0.00000   0.00000   0.00000   0.00000
 -8.47118   0.00000   0.00000   0.00000   0.00000
 -8.42105   0.00000   0.00000   0.00000   0.00000
 -8.37093   0.00000   0.00000   0.00000   0.00000
 -8.32080   0.00000   0.00000   0.00000   0.00000
 -8.27068   0.00000   0.00000   0.00000   0.00000
 -8.22055   0.00000   0.00000   0.00000   0.00000
 -8.17043   0.00000   0.00000   0.00000   0.00000
 -8.12030   0.00000   0.00000   0.00000   0.00000
 -8.07018   0.00000   0.00000   0.00000   0.00000
 -8.02005   0.00000   0.00000   0.00000   0.00000
 -7.96992   0.00000   0.00000   0.00000   0.00000
 -7.91980   0.00000   0.00000   0.00000   0.00000
 -7.86967   0.00000   0.00000   0.00000   0.00000
 -7.81955   0.00000   0.00000   0.00000   0.00000
 -7.76942   0.00000   0.00000   0.00000   0.00000
 -7.71930   0.00000   0.00000   0.00000   0.00000
 -7.66917   0.00000   0.00000   0.00000   0.00000
 -7.61905   0.00000   0.00000   0.00000   0.00000
 -7.56892   0.00000   0.00000   0.00000   0.00000
 -7.51880   0.00000   0.00000   0.00000   0.00000
 -7.46867   0.00000   0.00000   0.00000   0.00000
 -7.41855   0.00000   0.00000   0.00000   0.00000
 -7.36842   0.00000   0.00000   0.00000   0.00000
 -7.31830   0.00979   0.07575   0.00672   0.01450
 -7.26817   0.01903   0.04362   0.00596   0.02786
 -7.21805   0.00043   0.00071  -0.00003   0.00114
 -7.16792   0.00000   0.00000   0.00000   0.00000
 -7.11779   0.00000   0.00000   0.00000   0.00000
 -7.06767   0.00000   0.00000   0.00000   0.00000
 -7.01754   0.00000   0.00000   0.00000   0.00000
 -6.96742   0.00000   0.00000   0.00000   0.00000
 -6.91729   0.00000   0.00000   0.00000   0.00000
 -6.86717   0.00000   0.00000   0.00000   0.00000
 -6.81704   0.00000   0.00000   0.00000   0.00000
 -6.76692   0.00000   0.00000   0.00000   0.00000
 -6.71679   0.00000   0.00000   0.00000   0.00000
 -6.66667   0.00000   0.00000   0.00000   0.00000
 -6.61654   0.00000   0.00000   0.00000   0.00000
 -6.56642   0.00000   0.00000   0.00000   0.00000
 -6.51629   0.00000   0.00000   0.00000   0.00000
 -6.46617   0.00000   0.00000   0.00000   0.00000
 -6.41604   0.00000   0.00000   0.00000   0.00000
 -6.36591   0.00000   0.00000   0.00000   0.00000
 -6.31579   0.00000   0.00000   0.00000   0.00000
 -6.26566   0.00000   0.00000   0.00000   0.00000
 -6.21554   0.00000   0.00000   0.00000   0.00000
 -6.16541   0.00000   0.00000   0.00000   0.00000
 -6.11529   0.00000   0.00000   0.00000   0.00000
 -6.06516   0.00000   0.00000   0.00000   0.00000
 -6.01504   0.00000   0.00000   0.00000   0.00000
 -5.96491   0.00000   0.00000   0.00000   0.00000
 -5.91479   0.00000   0.00000   0.00000   0.00000
 -5.86466   0.00000   0.00000   0.00000   0.00000
 -5.81454   0.00000   0.00000   0.00000   0.00000
 -5.76441   0.00000   0.00000   0.00000   0.00000
 -5.71429   0.00000   0.00000   0.00000   0.00000
 -5.66416   0.00000   0.00000   0.00000   0.00000
 -5.61404   0.00000   0.00000   0.00000   0.00000
 -5.56391   0.00000   0.00000   0.00000   0.00000
 -5.51378   0.00000   0.00000   0.00000   0.00000
 -5.46366   0.00000   0.00000   0.00000   0.00000
 -5.41353   0.00000   0.00000   0.00000   0.00000
 -5.36341   0.00000   0.00000   0.00000   0.00000
 -5.31328   0.00000   0.00000   0.00000   0.00000
 -5.26316   0.00000   0.00000   0.00000   0.00000
 -5.21303   0.00000   0.00000   0.00000   0.00000
 -5.16291   0.00000   0.00000   0.00000   0.00000
 -5.11278   0.00000   0.00000   0.00000   0.00000
 -5.06266   0.00000   0.00000   0.00000   0.00000
 -5.01253   0.00000   0.00000   0.00000   0.00000
 -4.96241   0.00000   0.00000   0.00000   0.00000
 -4.91228   0.00000   0.00000   0.00000   0.00000
 -4.86216   0.00000   0.00000   0.00000   0.00000
 -4.81203   0.00000   0.00000   0.00000   0.00000
 -4.76190   0.00000   0.00000   0.00000   0.00000
 -4.71178   0.00000   0.00000   0.00000   0.00000
 -4.66165   0.00000   0.00000   0.00000   0.00000
 -4.61153   0.00000   0.00000   0.00000   0.00000
 -4.56140   0.00000   0.00000   0.00000   0.00000
 -4.51128   0.00000   0.00000   0.00000   0.00000
 -4.46115   0.00000   0.00000   0.00000   0.00000
 -4.41103   0.00000   0.00000   0.00000   0.00000
 -4.36090   0.00000   0.00000   0.00000   0.00000
 -4.31078   0.00000   0.00000   0.00000   0.00000
 -4.26065   0.00000   0.00000   0.00000   0.00000
 -4.21053   0.00000   0.00000   0.00000   0.00000
 -4.16040   0.00000   0.00000   0.00000   0.00000
 -4.11028   0.00000   0.00000   0.00000   0.00000
 -4.06015   0.00000   0.00000   0.00000   0.00000
 -4.01003   0.00000   0.00000   0.00000   0.00000
 -3.95990   0.00000   0.00000   0.00000   0.00000
 -3.90977   0.00000   0.00000   0.00000   0.00000
 -3.85965   0.00000   0.00000   0.00000   0.00000
 -3.80952   0.00000   0.00000   0.00000   0.00000
 -3.75940   0.00000   0.00000   0.00000   0.00000
 -3.70927   0.00004   0.00001   0.01445   0.03422
 -3.65915   0.00238   0.00285   1.10699   2.41512
 -3.60902   0.00474   0.00665   1.85796   3.43445
 -3.55890   0.00334   0.00251   1.04460   1.44961
 -3.50877   0.00771   0.00341   2.35840   2.43806
 -3.45865   0.00690   0.00279   2.05046   1.78965
 -3.40852   0.00028   0.00002   0.07639   0.06820
 -3.35840   0.00000   0.00000   0.00000   0.00000
 -3.30827   0.00000   0.00000   0.00000   0.00000
 -3.25815   0.00000   0.00000   0.00000   0.00000
 -3.20802   0.00000   0.00000   0.00000   0.00000
 -3.15789   0.00000   0.00000   0.00000   0.00000
 -3.10777   0.00000   0.00000   0.00000   0.00000
 -3.05764   0.00000   0.00000   0.00000   0.00000
 -3.00752   0.00000   0.00000   0.00000   0.00000
 -2.95739   0.00000   0.00000   0.00000   0.00000
 -2.90727   0.00000   0.00000   0.00000   0.00000
 -2.85714   0.00000   0.00000   0.00000   0.00000
 -2.80702   0.00000   0.00000   0.00000   0.00000
 -2.75689   0.00000   0.00000   0.00000   0.00000
 -2.70677   0.00000   0.00000   0.00000   0.00000
 -2.65664   0.00000   0.00000   0.00000   0.00000
 -2.60652   0.00000   0.00000   0.00000   0.00000
 -2.55639   0.00000   0.00000   0.00000   0.00000
 -2.50627   0.00000   0.00000   0.00000   0.00000
 -2.45614   0.00000   0.00000   0.00000   0.00000
 -2.40602   0.00000   0.00000   0.00000   0.00000
 -2.35589   0.00000   0.00000   0.00000   0.00000
 -2.30576   0.00000   0.00000   0.00000   0.00000
 -2.25564   0.00000   0.00000   0.00000   0.00000
 -2.20551   0.00025   0.06858   0.03116   0.03068
 -2.15539   0.00231   0.81313   0.35638   0.31754
 -2.10526   0.00646   2.97359   0.85877   0.72507
 -2.05514   0.00505   2.28897   0.89267   0.73643
 -2.00501   0.00855   2.01065   1.85852   1.42330
 -1.95489   0.00941   1.80367   2.21109   1.48226
 -1.90476   0.00174   0.58744   0.42892   0.21104
 -1.85464   0.00005   0.06027   0.00870   0.00490
 -1.80451   0.00167   0.03535   0.28246   0.16605
 -1.75439   0.01116   0.71367   1.52599   0.84614
 -1.70426   0.01864   1.94725   1.84531   1.22680
 -1.65414   0.01124   1.29037   0.72817   0.51841
 -1.60401   0.02010   4.27825   0.77659   0.80377
 -1.55388   0.00779   2.88224   0.39239   0.45004
 -1.50376   0.00054   1.26194   0.06126   0.04912
 -1.45363   0.00001   0.08246   0.00117   0.00086
 -1.40351   0.00081   0.03086   0.00639   0.01546
 -1.35338   0.00466   0.13535   0.02315   0.03958
 -1.30326   0.01760   0.38786   0.07456   0.07328
 -1.25313   0.01943   0.25164   0.06747   0.09326
 -1.20301   0.00972   0.18045   0.03465   0.05308
 -1.15288   0.01298   0.16412   0.02594   0.03005
 -1.10276   0.03388   0.24510   0.07780   0.07955
 -1.05263   0.02824   0.24399   0.06568   0.08733
 -1.00251   0.03078   0.21823   0.07478   0.10772
 -0.95238   0.06049   0.27693   0.14621   0.17039
 -0.90226   0.03477   0.10560   0.08013   0.09054
 -0.85213   0.04716   0.10907   0.11027   0.11238
 -0.80201   0.06681   0.14716   0.11718   0.14422
 -0.75188   0.14173   0.19728   0.20795   0.23435
 -0.70175   0.18420   0.37945   0.32714   0.31363
 -0.65163   0.07722   0.29583   0.16536   0.13709
 -0.60150   0.01831   0.12111   0.02724   0.02048
 -0.55138   0.00074   0.07162   0.00721   0.00445
 -0.50125   0.00045   0.00362   0.03675   0.01784
 -0.45113   0.01639   0.23760   1.16971   0.61725
 -0.40100   0.01989   0.65830   1.44007   0.82728
 -0.35088   0.00875   1.72809   1.22133   0.72916
 -0.30075   0.00532   2.52299   0.97260   0.63738
 -0.25063   0.00589   2.91227   0.50614   0.34692
 -0.20050   0.00466   3.17138   0.56636   0.43006
 -0.15038   0.00379   1.25999   1.20417   1.02988
 -0.10025   0.00342   0.30883   1.08030   1.05472
 -0.05013   0.00159   0.13100   0.69011   0.70950
  0.00000   0.00016   0.02378   0.10157   0.11009
  0.05013   0.00000   0.00000   0.00000   0.00000
  0.10025   0.00000   0.00000   0.00000   0.00000
  0.15038   0.00000   0.00000   0.00000   0.00000
  0.20050   0.00000   0.00000   0.00000   0.00000
  0.25063   0.00000   0.00000   0.00000   0.00000
  0.30075   0.00000   0.00000   0.00000   0.00000
  0.35088   0.00000   0.00000   0.00000   0.00000
  0.40100   0.00000   0.00000   0.00000   0.00000
  0.45113   0.00000   0.00000   0.00000   0.00000
  0.50125   0.00000   0.00000   0.00000   0.00000
  0.55138   0.00000   0.00000   0.00000   0.00000
  0.60150   0.00000   0.00000   0.00000   0.00000
  0.65163   0.00000   0.00000   0.00000   0.00000
  0.70175   0.00000   0.00000   0.00000   0.00000
  0.75188   0.00000   0.00000   0.00000   0.00000
  0.80201   0.00000   0.00000   0.00000   0.00000
  0.85213   0.00000   0.00000   0.00000   0.00000
  0.90226   0.00000   0.00000   0.00000   0.00000
  0.95238   0.00000   0.00000   0.00000   0.00000
  1.00251   0.00000   0.00000   0.00000   0.00000
  1.05263   0.00000   0.00000   0.00000   0.00000
  1.10276   0.00000   0.00000   0.00000   0.00000
  1.15288   0.00000   0.00000   0.00000   0.00000
  1.20301   0.00000   0.00000   0.00000   0.00000
  1.25313   0.00000   0.00000   0.00000   0.00000
  1.30326   0.00000   0.00000   0.00000   0.00000
  1.35338   0.00000   0.00000   0.00000   0.00000
  1.40351   0.00000   0.00000   0.00000   0.00000
  1.45363   0.00000   0.00000   0.00000   0.00000
  1.50376   0.00000   0.00000   0.00000   0.00000
  1.55388   0.00000   0.00000   0.00000   0.00000
  1.60401   0.00000   0.00000   0.00000   0.00000
  1.65414   0.00000   0.00000   0.00000   0.00000
  1.70426   0.00000   0.00000   0.00000   0.00000
  1.75439   0.00000   0.00000   0.00000   0.00000
  1.80451   0.00000   0.00000   0.00000   0.00000
  1.85464   0.00000   0.00000   0.00000   0.00000
  1.90476   0.00044   0.00019   0.44743   0.39213
  1.95489   0.00349   0.00342   3.48096   3.18645
  2.00501   0.00272   0.00159   2.37687   3.47322
  2.05514   0.00178   0.00131   1.52258   2.96140
  2.10526   0.00004   0.00002   0.02834   0.07199
  2.15539   0.00000   0.00000   0.00000   0.00000
  2.20551   0.00000   0.00000   0.00000   0.00000
  2.25564   0.00000   0.00000   0.00000   0.00000
  2.30576   0.00000   0.00000   0.00000   0.00000
  2.35589   0.00000   0.00000   0.00000   0.00000
  2.40602   0.00000   0.00000   0.00000   0.00000
  2.45614   0.00000   0.00000   0.00000   0.00000
  2.50627   0.00000   0.00000   0.00000   0.00000
  2.55639   0.00000   0.00000   0.00000   0.00000
  2.60652   0.00000   0.00000   0.00000   0.00000
  2.65664   0.00000   0.00000   0.00000   0.00000
  2.70677   0.00000   0.00000   0.00000   0.00000
  2.75689   0.00000   0.00000   0.00000   0.00000
  2.80702   0.00000   0.00000   0.00000   0.00000
  2.85714   0.00000   0.00000   0.00000   0.00000
  2.90727   0.00000   0.00000   0.00000   0.00000
  2.95739   0.00000   0.00000   0.00000   0.00000
  3.00752   0.00000   0.00000   0.00000   0.00000
  3.05764   0.00000   0.00000   0.00000   0.00000
  3.10777   0.00000   0.00000   0.00000   0.00000
  3.15789   0.00000   0.00000   0.00000   0.00000
  3.20802   0.00000   0.00000   0.00000   0.00000
  3.25815   0.00000   0.00000   0.00000   0.00000
  3.30827   0.00000   0.00000   0.00000   0.00000
  3.35840   0.00000   0.00000   0.00000   0.00000
  3.40852   0.00000   0.00000   0.00000   0.00000
  3.45865   0.00000   0.00000   0.00000   0.00000
  3.50877   0.00000   0.00000   0.00000   0.00000
  3.55890   0.00000   0.00000   0.00000   0.00000
  3.60902   0.00000   0.00000   0.00000   0.00000
  3.65915   0.00000   0.00000   0.00000   0.00000
  3.70927   0.00000   0.00000   0.00000   0.00000
  3.75940   0.00000   0.00000   0.00000   0.00000
  3.80952   0.00000   0.00000   0.00000   0.00000
  3.85965   0.00000   0.00000   0.00000   0.00000
  3.90977   0.00000   0.00000   0.00000   0.00000
  3.95990   0.00000   0.00000   0.00000   0.00000
  4.01003   0.00000   0.00000   0.00000   0.00000
  4.06015   0.00000   0.00000   0.00000   0.00000
  4.11028   0.00000   0.00000   0.00000   0.00000
  4.16040   0.00001   0.00000   0.00001   0.00002
  4.21053   0.00004   0.00001   0.00008   0.00011
  4.26065   0.00010   0.00002   0.00022   0.00028
  4.31078   0.00019   0.00005   0.00044   0.00057
  4.36090   0.00028   0.00009   0.00069   0.00091
  4.41103   0.00032   0.00013   0.00086   0.00114
  4.46115   0.00032   0.00017   0.00097   0.00126
  4.51128   0.00033   0.00022   0.00108   0.00137
  4.56140   0.00036   0.00028   0.00120   0.00152
  4.61153   0.00043   0.00035   0.00146   0.00175
  4.66165   0.00054   0.00045   0.00202   0.00220
  4.71178   0.00056   0.00056   0.00217   0.00238
  4.76190   0.00055   0.00066   0.00196   0.00242
  4.81203   0.00059   0.00079   0.00192   0.00272
  4.86216   0.00070   0.00100   0.00202   0.00314
  4.91228   0.00093   0.00124   0.00203   0.00346
  4.96241   0.00121   0.00154   0.00210   0.00377
  5.01253   0.00116   0.00206   0.00303   0.00471
  5.06266   0.00123   0.00267   0.00285   0.00465
  5.11278   0.00264   0.00351   0.00301   0.00450
  5.16291   0.00605   0.00688   0.00341   0.00207
  5.21303   0.01352   0.02176   0.00781   0.00664
  5.26316   0.01511   0.02387   0.00678   0.00129
  5.31328   0.01404   0.02665   0.00681  -0.00070
  5.36341   0.00354   0.02034   0.00093  -0.00020
  5.41353   0.00056   0.01110  -0.00064  -0.00114
  5.46366  -0.00001   0.00014  -0.00003  -0.00002
  5.51378   0.00000   0.00000   0.00000   0.00000
  5.56391   0.00000   0.00000   0.00000   0.00000
  5.61404   0.00000   0.00000   0.00000   0.00000
  5.66416   0.00000   0.00000   0.00000   0.00000
  5.71429   0.00000   0.00000   0.00000   0.00000
  5.76441   0.00000   0.00000   0.00000   0.00000
  5.81454   0.00000   0.00000   0.00000   0.00000
  5.86466   0.00000   0.00000   0.00000   0.00000
  5.91479   0.00000   0.00000   0.00000   0.00000
  5.96491   0.00000   0.00000   0.00000   0.00000
  6.01504   0.00000   0.00000   0.00000   0.00000
  6.06516   0.00000   0.00000   0.00000   0.00000
  6.11529   0.00000   0.00000   0.00000   0.00000
  6.16541   0.00000   0.00000   0.00000   0.00000
  6.21554   0.00000   0.00000   0.00000   0.00000
  6.26566   0.00000   0.00000   0.00000   0.00000
  6.31579   0.00000   0.00000   0.00000   0.00000
  6.36591   0.00000   0.00000   0.00000   0.00000
  6.41604   0.00000   0.00000   0.00000   0.00000
  6.46617   0.00000   0.00000   0.00000   0.00000
  6.51629   0.00000   0.00000   0.00000   0.00000
  6.56642   0.00000   0.00000   0.00000   0.00000
  6.61654   0.00000   0.00000   0.00000   0.00000
  6.66667   0.00000   0.00000   0.00000   0.00000
  6.71679   0.00000   0.00000   0.00000   0.00000
  6.76692   0.00000   0.00000   0.00000   0.00000
  6.81704   0.00000   0.00000   0.00000   0.00000
  6.86717   0.00000   0.00000   0.00000   0.00000
  6.91729   0.00000   0.00000   0.00000   0.00000
  6.96742   0.00000   0.00000   0.00000   0.00000
  7.01754   0.00000   0.00000   0.00000   0.00000
  7.06767   0.00000   0.00000   0.00000   0.00000
  7.11779   0.00000   0.00000   0.00000   0.00000
  7.16792   0.00000   0.00000   0.00000   0.00000
  7.21805   0.00000   0.00000   0.00000   0.00000
  7.26817   0.00000   0.00000   0.00000   0.00000
  7.31830   0.00000   0.00000   0.00000   0.00000
  7.36842   0.00000   0.00000   0.00000   0.00000
  7.41855   0.00000   0.00000   0.00000   0.00000
  7.46867   0.00000   0.00000   0.00000   0.00000
  7.51880   0.00000   0.00000   0.00000   0.00000
  7.56892   0.00000   0.00000   0.00000   0.00000
  7.61905   0.00000   0.00000   0.00000   0.00000
  7.66917   0.00000   0.00000   0.00000   0.00000
  7.71930   0.00000   0.00000   0.00000   0.00000
  7.76942   0.00000   0.00000   0.00000   0.00000
  7.81955   0.00000   0.00000   0.00000   0.00000
  7.86967   0.00000   0.00000   0.00000   0.00000
  7.91980   0.00000   0.00000   0.00000   0.00000
  7.96992   0.00000   0.00000   0.00000   0.00000
  8.02005   0.00000   0.00000   0.00000   0.00000
  8.07018   0.00000   0.00000   0.00000   0.00000
  8.12030   0.00000   0.00000   0.00000   0.00000
  8.17043   0.00000   0.00000   0.00000   0.00000
  8.22055   0.00000   0.00000   0.00000   0.00000
  8.27068   0.00000   0.00000   0.00000   0.00000
  8.32080   0.00000   0.00000   0.00000   0.00000
  8.37093   0.00000   0.00000   0.00000   0.00000
  8.42105   0.00000   0.00000   0.00000   0.00000
  8.47118   0.00000   0.00000   0.00000   0.00000
  8.52130   0.00000   0.00000   0.00000   0.00000
  8.57143   0.00000   0.00000   0.00000   0.00000
  8.62155   0.00000   0.00000   0.00000   0.00000
  8.67168   0.00000   0.00000   0.00000   0.00000
  8.72180   0.00000   0.00000   0.00000   0.00000
  8.77193   0.00000   0.00000   0.00000   0.00000
  8.82206   0.00000   0.00000   0.00000   0.00000
  8.87218   0.00000   0.00000   0.00000   0.00000
  8.92231   0.00000   0.00000   0.00000   0.00000
  8.97243   0.00000   0.00000   0.00000   0.00000
  9.02256   0.00000   0.00000   0.00000   0.00000
  9.07268   0.00000   0.00000   0.00000   0.00000
  9.12281   0.00000   0.00000   0.00000   0.00000
  9.17293   0.00000   0.00000   0.00000   0.00000
  9.22306   0.00000   0.00000   0.00000   0.00000
  9.27318   0.00000   0.00000   0.00000   0.00000
  9.32331   0.00000   0.00000   0.00000   0.00000
  9.37343   0.00000   0.00000   0.00000   0.00000
  9.42356   0.00000   0.00000   0.00000   0.00000
  9.47368   0.00000   0.00000   0.00000   0.00000
  9.52381   0.00000   0.00000   0.00000   0.00000
  9.57393   0.00000   0.00000   0.00000   0.00000
  9.62406   0.00000   0.00000   0.00000   0.00000
  9.67419   0.00000   0.00000   0.00000   0.00000
  9.72431   0.00000   0.00000   0.00000   0.00000
  9.77444   0.00000   0.00000   0.00000   0.00000
  9.82456   0.00000   0.00000   0.00000   0.00000
  9.87469   0.00000   0.00000   0.00000   0.00000
  9.92481   0.00000   0.00000   0.00000   0.00000
  9.97494   0.00000   0.00000   0.00000   0.00000
 10.02506   0.00000   0.00000   0.00000   0.00000
     10.02506266     -10.02506266   401       0.43334965       1.00000000; Z= 53; 5s 5p_y 5p_z 5p_x 
-10.02506   0.00000   0.00000   0.00000   0.00000
 -9.97494   0.00000   0.00000   0.00000   0.00000
 -9.92481   0.00000   0.00000   0.00000   0.00000
 -9.87469   0.00000   0.00000   0.00000   0.00000
 -9.82456   0.00000   0.00000   0.00000   0.00000
 -9.77444   0.00000   0.00000   0.00000   0.00000
 -9.72431   0.00000   0.00000   0.00000   0.00000
 -9.67419   0.00000   0.00000   0.00000   0.00000
 -9.62406   0.00000   0.00000   0.00000   0.00000
 -9.57393   0.00000   0.00000   0.00000   0.00000
 -9.52381   0.00000   0.00000   0.00000   0.00000
 -9.47368   0.00000   0.00000   0.00000   0.00000
 -9.42356   0.00000   0.00000   0.00000   0.00000
 -9.37343   0.00000   0.00000   0.00000   0.00000
 -9.32331   0.00000   0.00000   0.00000   0.00000
 -9.27318   0.00000   0.00000   0.00000   0.00000
 -9.22306   0.00000   0.00000   0.00000   0.00000
 -9.17293   0.00000   0.00000   0.00000   0.00000
 -9.12281   0.00000   0.00000   0.00000   0.00000
 -9.07268   0.00000   0.00000   0.00000   0.00000
 -9.02256   0.00000   0.00000   0.00000   0.00000
 -8.97243   0.00000   0.00000   0.00000   0.00000
 -8.92231   0.00000   0.00000   0.00000   0.00000
 -8.87218   0.00000   0.00000   0.00000   0.00000
 -8.82206   0.00000   0.00000   0.00000   0.00000
 -8.77193   0.00000   0.00000   0.00000   0.00000
 -8.72180   0.00000   0.00000   0.00000   0.00000
 -8.67168   0.00000   0.00000   0.00000   0.00000
 -8.62155   0.00000   0.00000   0.00000   0.00000
 -8.57143   0.00000   0.00000   0.00000   0.00000
 -8.52130   0.00000   0.00000   0.00000   0.00000
 -8.47118   0.00000   0.00000   0.00000   0.00000
 -8.42105   0.00000   0.00000   0.00000   0.00000
 -8.37093   0.00000   0.00000   0.00000   0.00000
 -8.32080   0.00000   0.00000   0.00000   0.00000
 -8.27068   0.00000   0.00000   0.00000   0.00000
 -8.22055   0.00000   0.00000   0.00000   0.00000
 -8.17043   0.00000   0.00000   0.00000   0.00000
 -8.12030   0.00000   0.00000   0.00000   0.00000
 -8.07018   0.00000   0.00000   0.00000   0.00000
 -8.02005   0.00000   0.00000   0.00000   0.00000
 -7.96992   0.00000   0.00000   0.00000   0.00000
 -7.91980   0.00000   0.00000   0.00000   0.00000
 -7.86967   0.00000   0.00000   0.00000   0.00000
 -7.81955   0.00000   0.00000   0.00000   0.00000
 -7.76942   0.00000   0.00000   0.00000   0.00000
 -7.71930   0.00000   0.00000   0.00000   0.00000
 -7.66917   0.00000   0.00000   0.00000   0.00000
 -7.61905   0.00000   0.00000   0.00000   0.00000
 -7.56892   0.00000   0.00000   0.00000   0.00000
 -7.51880   0.00000   0.00000   0.00000   0.00000
 -7.46867   0.00000   0.00000   0.00000   0.00000
 -7.41855   0.00000   0.00000   0.00000   0.00000
 -7.36842   0.00000   0.00000   0.00000   0.00000
 -7.31830   0.00979   0.07582   0.00671   0.01450
 -7.26817   0.01904   0.04360   0.00595   0.02790
 -7.21805   0.00042   0.00066  -0.00003   0.00109
 -7.16792   0.00000   0.00000   0.00000   0.00000
 -7.11779   0.00000   0.00000   0.00000   0.00000
 -7.06767   0.00000   0.00000   0.00000   0.00000
 -7.01754   0.00000   0.00000   0.00000   0.00000
 -6.96742   0.00000   0.00000   0.00000   0.00000
 -6.91729   0.00000   0.00000   0.00000   0.00000
 -6.86717   0.00000   0.00000   0.00000   0.00000
 -6.81704   0.00000   0.00000   0.00000   0.00000
 -6.76692   0.00000   0.00000   0.00000   0.00000
 -6.71679   0.00000   0.00000   0.00000   0.00000
 -6.66667   0.00000   0.00000   0.00000   0.00000
 -6.61654   0.00000   0.00000   0.00000   0.00000
 -6.56642   0.00000   0.00000   0.00000   0.00000
 -6.51629   0.00000   0.00000   0.00000   0.00000
 -6.46617   0.00000   0.00000   0.00000   0.00000
 -6.41604   0.00000   0.00000   0.00000   0.00000
 -6.36591   0.00000   0.00000   0.00000   0.00000
 -6.31579   0.00000   0.00000   0.00000   0.00000
 -6.26566   0.00000   0.00000   0.00000   0.00000
 -6.21554   0.00000   0.00000   0.00000   0.00000
 -6.16541   0.00000   0.00000   0.00000   0.00000
 -6.11529   0.00000   0.00000   0.00000   0.00000
 -6.06516   0.00000   0.00000   0.00000   0.00000
 -6.01504   0.00000   0.00000   0.00000   0.00000
 -5.96491   0.00000   0.00000   0.00000   0.00000
 -5.91479   0.00000   0.00000   0.00000   0.00000
 -5.86466   0.00000   0.00000   0.00000   0.00000
 -5.81454   0.00000   0.00000   0.00000   0.00000
 -5.76441   0.00000   0.00000   0.00000   0.00000
 -5.71429   0.00000   0.00000   0.00000   0.00000
 -5.66416   0.00000   0.00000   0.00000   0.00000
 -5.61404   0.00000   0.00000   0.00000   0.00000
 -5.56391   0.00000   0.00000   0.00000   0.00000
 -5.51378   0.00000   0.00000   0.00000   0.00000
 -5.46366   0.00000   0.00000   0.00000   0.00000
 -5.41353   0.00000   0.00000   0.00000   0.00000
 -5.36341   0.00000   0.00000   0.00000   0.00000
 -5.31328   0.00000   0.00000   0.00000   0.00000
 -5.26316   0.00000   0.00000   0.00000   0.00000
 -5.21303   0.00000   0.00000   0.00000   0.00000
 -5.16291   0.00000   0.00000   0.00000   0.00000
 -5.11278   0.00000   0.00000   0.00000   0.00000
 -5.06266   0.00000   0.00000   0.00000   0.00000
 -5.01253   0.00000   0.00000   0.00000   0.00000
 -4.96241   0.00000   0.00000   0.00000   0.00000
 -4.91228   0.00000   0.00000   0.00000   0.00000
 -4.86216   0.00000   0.00000   0.00000   0.00000
 -4.81203   0.00000   0.00000   0.00000   0.00000
 -4.76190   0.00000   0.00000   0.00000   0.00000
 -4.71178   0.00000   0.00000   0.00000   0.00000
 -4.66165   0.00000   0.00000   0.00000   0.00000
 -4.61153   0.00000   0.00000   0.00000   0.00000
 -4.56140   0.00000   0.00000   0.00000   0.00000
 -4.51128   0.00000   0.00000   0.00000   0.00000
 -4.46115   0.00000   0.00000   0.00000   0.00000
 -4.41103   0.00000   0.00000   0.00000   0.00000
 -4.36090   0.00000   0.00000   0.00000   0.00000
 -4.31078   0.00000   0.00000   0.00000   0.00000
 -4.26065   0.00000   0.00000   0.00000   0.00000
 -4.21053   0.00000   0.00000   0.00000   0.00000
 -4.16040   0.00000   0.00000   0.00000   0.00000
 -4.11028   0.00000   0.00000   0.00000   0.00000
 -4.06015   0.00000   0.00000   0.00000   0.00000
 -4.01003   0.00000   0.00000   0.00000   0.00000
 -3.95990   0.00000   0.00000   0.00000   0.00000
 -3.90977   0.00000   0.00000   0.00000   0.00000
 -3.85965   0.00000   0.00000   0.00000   0.00000
 -3.80952   0.00000   0.00000   0.00000   0.00000
 -3.75940   0.00000   0.00000   0.00000   0.00000
 -3.70927   0.00004   0.00001   0.01445   0.03422
 -3.65915   0.00235   0.00284   1.04356   2.31951
 -3.60902   0.00473   0.00660   1.84255   3.41022
 -3.55890   0.00333   0.00243   1.02924   1.41147
 -3.50877   0.00773   0.00349   2.38478   2.47887
 -3.45865   0.00693   0.00289   2.11828   1.90665
 -3.40852   0.00028   0.00002   0.07639   0.06820
 -3.35840   0.00000   0.00000   0.00000   0.00000
 -3.30827   0.00000   0.00000   0.00000   0.00000
 -3.25815   0.00000   0.00000   0.00000   0.00000
 -3.20802   0.00000   0.00000   0.00000   0.00000
 -3.15789   0.00000   0.00000   0.00000   0.00000
 -3.10777   0.00000   0.00000   0.00000   0.00000
 -3.05764   0.00000   0.00000   0.00000   0.00000
 -3.00752   0.00000   0.00000   0.00000   0.00000
 -2.95739   0.00000   0.00000   0.00000   0.00000
 -2.90727   0.00000   0.00000   0.00000   0.00000
 -2.85714   0.00000   0.00000   0.00000   0.00000
 -2.80702   0.00000   0.00000   0.00000   0.00000
 -2.75689   0.00000   0.00000   0.00000   0.00000
 -2.70677   0.00000   0.00000   0.00000   0.00000
 -2.65664   0.00000   0.00000   0.00000   0.00000
 -2.60652   0.00000   0.00000   0.00000   0.00000
 -2.55639   0.00000   0.00000   0.00000   0.00000
 -2.50627   0.00000   0.00000   0.00000   0.00000
 -2.45614   0.00000   0.00000   0.00000   0.00000
 -2.40602   0.00000   0.00000   0.00000   0.00000
 -2.35589   0.00000   0.00000   0.00000   0.00000
 -2.30576   0.00000   0.00000   0.00000   0.00000
 -2.25564   0.00000   0.00000   0.00000   0.00000
 -2.20551   0.00025   0.06858   0.03116   0.03068
 -2.15539   0.00248   0.86318   0.32605   0.29860
 -2.10526   0.00661   3.01684   0.83271   0.71261
 -2.05514   0.00505   2.24990   0.87076   0.72816
 -2.00501   0.00857   1.98807   1.81759   1.42776
 -1.95489   0.00911   1.77397   2.32155   1.51552
 -1.90476   0.00171   0.58567   0.43772   0.21293
 -1.85464   0.00005   0.06031   0.00857   0.00495
 -1.80451   0.00186   0.04050   0.26896   0.16862
 -1.75439   0.01165   0.74650   1.47855   0.83269
 -1.70426   0.01849   1.99756   1.83911   1.20220
 -1.65414   0.01060   1.19118   0.80022   0.55663
 -1.60401   0.02001   4.17998   0.78675   0.80474
 -1.55388   0.00789   2.84627   0.38681   0.44823
 -1.50376   0.00063   1.40357   0.05194   0.04726
 -1.45363   0.00001   0.08628   0.00107   0.00086
 -1.40351   0.00081   0.03086   0.00639   0.01546
 -1.35338   0.00486   0.13007   0.02321   0.03989
 -1.30326   0.01801   0.38700   0.07480   0.07600
 -1.25313   0.01888   0.25894   0.06655   0.09098
 -1.20301   0.01039   0.16487   0.03690   0.05635
 -1.15288   0.01453   0.14422   0.02946   0.04097
 -1.10276   0.03268   0.25793   0.07214   0.07375
 -1.05263   0.02777   0.25253   0.06574   0.08143
 -1.00251   0.03020   0.22776   0.06694   0.09446
 -0.95238   0.05952   0.28118   0.14768   0.17340
 -0.90226   0.03447   0.10408   0.08542   0.09891
 -0.85213   0.04230   0.09833   0.11146   0.11961
 -0.80201   0.06884   0.15523   0.11965   0.13956
 -0.75188   0.14026   0.19566   0.20824   0.23554
 -0.70175   0.18814   0.36877   0.31933   0.30453
 -0.65163   0.07998   0.29505   0.16961   0.13956
 -0.60150   0.01732   0.13611   0.02843   0.02188
 -0.55138   0.00059   0.07322   0.00717   0.00449
 -0.50125   0.00045   0.00064   0.03697   0.01795
 -0.45113   0.01635   0.12392   1.17251   0.61530
 -0.40100   0.01981   0.42520   1.42657   0.80946
 -0.35088   0.00917   2.07811   1.14860   0.69325
 -0.30075   0.00513   2.55792   1.00734   0.65406
 -0.25063   0.00593   2.66290   0.57499   0.38352
 -0.20050   0.00453   3.31659   0.53993   0.42713
 -0.15038   0.00412   1.32765   1.01489   0.89777
 -0.10025   0.00320   0.31729   1.22393   1.15460
 -0.05013   0.00147   0.12366   0.74183   0.74678
  0.00000   0.00016   0.02378   0.10157   0.11009
  0.05013   0.00000   0.00000   0.00000   0.00000
  0.10025   0.00000   0.00000   0.00000   0.00000
  0.15038   0.00000   0.00000   0.00000   0.00000
  0.20050   0.00000   0.00000   0.00000   0.00000
  0.25063   0.00000   0.00000   0.00000   0.00000
  0.30075   0.00000   0.00000   0.00000   0.00000
  0.35088   0.00000   0.00000   0.00000   0.00000
  0.40100   0.00000   0.00000   0.00000   0.00000
  0.45113   0.00000   0.00000   0.00000   0.00000
  0.50125   0.00000   0.00000   0.00000   0.00000
  0.55138   0.00000   0.00000   0.00000   0.00000
  0.60150   0.00000   0.00000   0.00000   0.00000
  0.65163   0.00000   0.00000   0.00000   0.00000
  0.70175   0.00000   0.00000   0.00000   0.00000
  0.75188   0.00000   0.00000   0.00000   0.00000
  0.80201   0.00000   0.00000   0.00000   0.00000
  0.85213   0.00000   0.00000   0.00000   0.00000
  0.90226   0.00000   0.00000   0.00000   0.00000
  0.95238   0.00000   0.00000   0.00000   0.00000
  1.00251   0.00000   0.00000   0.00000   0.00000
  1.05263   0.00000   0.00000   0.00000   0.00000
  1.10276   0.00000   0.00000   0.00000   0.00000
  1.15288   0.00000   0.00000   0.00000   0.00000
  1.20301   0.00000   0.00000   0.00000   0.00000
  1.25313   0.00000   0.00000   0.00000   0.00000
  1.30326   0.00000   0.00000   0.00000   0.00000
  1.35338   0.00000   0.00000   0.00000   0.00000
  1.40351   0.00000   0.00000   0.00000   0.00000
  1.45363   0.00000   0.00000   0.00000   0.00000
  1.50376   0.00000   0.00000   0.00000   0.00000
  1.55388   0.00000   0.00000   0.00000   0.00000
  1.60401   0.00000   0.00000   0.00000   0.00000
  1.65414   0.00000   0.00000   0.00000   0.00000
  1.70426   0.00000   0.00000   0.00000   0.00000
  1.75439   0.00000   0.00000   0.00000   0.00000
  1.80451   0.00000   0.00000   0.00000   0.00000
  1.85464   0.00000   0.00000   0.00000   0.00000
  1.90476   0.00035   0.00018   0.39691   0.34840
  1.95489   0.00350   0.00339   3.49411   3.20652
  2.00501   0.00239   0.00160   2.26623   3.39023
  2.05514   0.00220   0.00136   1.67067   3.06810
  2.10526   0.00004   0.00002   0.02834   0.07199
  2.15539   0.00000   0.00000   0.00000   0.00000
  2.20551   0.00000   0.00000   0.00000   0.00000
  2.25564   0.00000   0.00000   0.00000   0.00000
  2.30576   0.00000   0.00000   0.00000   0.00000
  2.35589   0.00000   0.00000   0.00000   0.00000
  2.40602   0.00000   0.00000   0.00000   0.00000
  2.45614   0.00000   0.00000   0.00000   0.00000
  2.50627   0.00000   0.00000   0.00000   0.00000
  2.55639   0.00000   0.00000   0.00000   0.00000
  2.60652   0.00000   0.00000   0.00000   0.00000
  2.65664   0.00000   0.00000   0.00000   0.00000
  2.70677   0.00000   0.00000   0.00000   0.00000
  2.75689   0.00000   0.00000   0.00000   0.00000
  2.80702   0.00000   0.00000   0.00000   0.00000
  2.85714   0.00000   0.00000   0.00000   0.00000
  2.90727   0.00000   0.00000   0.00000   0.00000
  2.95739   0.00000   0.00000   0.00000   0.00000
  3.00752   0.00000   0.00000   0.00000   0.00000
  3.05764   0.00000   0.00000   0.00000   0.00000
  3.10777   0.00000   0.00000   0.00000   0.00000
  3.15789   0.00000   0.00000   0.00000   0.00000
  3.20802   0.00000   0.00000   0.00000   0.00000
  3.25815   0.00000   0.00000   0.00000   0.00000
  3.30827   0.00000   0.00000   0.00000   0.00000
  3.35840   0.00000   0.00000   0.00000   0.00000
  3.40852   0.00000   0.00000   0.00000   0.00000
  3.45865   0.00000   0.00000   0.00000   0.00000
  3.50877   0.00000   0.00000   0.00000   0.00000
  3.55890   0.00000   0.00000   0.00000   0.00000
  3.60902   0.00000   0.00000   0.00000   0.00000
  3.65915   0.00000   0.00000   0.00000   0.00000
  3.70927   0.00000   0.00000   0.00000   0.00000
  3.75940   0.00000   0.00000   0.00000   0.00000
  3.80952   0.00000   0.00000   0.00000   0.00000
  3.85965   0.00000   0.00000   0.00000   0.00000
  3.90977   0.00000   0.00000   0.00000   0.00000
  3.95990   0.00000   0.00000   0.00000   0.00000
  4.01003   0.00000   0.00000   0.00000   0.00000
  4.06015   0.00000   0.00000   0.00000   0.00000
  4.11028   0.00000   0.00000   0.00000   0.00000
  4.16040   0.00001   0.00000   0.00001   0.00002
  4.21053   0.00004   0.00001   0.00008   0.00011
  4.26065   0.00010   0.00002   0.00022   0.00028
  4.31078   0.00019   0.00005   0.00044   0.00057
  4.36090   0.00028   0.00009   0.00069   0.00090
  4.41103   0.00032   0.00014   0.00086   0.00111
  4.46115   0.00033   0.00018   0.00096   0.00120
  4.51128   0.00034   0.00023   0.00105   0.00128
  4.56140   0.00039   0.00029   0.00117   0.00139
  4.61153   0.00047   0.00037   0.00141   0.00159
  4.66165   0.00058   0.00047   0.00197   0.00199
  4.71178   0.00061   0.00059   0.00211   0.00213
  4.76190   0.00061   0.00070   0.00191   0.00221
  4.81203   0.00063   0.00082   0.00190   0.00267
  4.86216   0.00072   0.00102   0.00203   0.00325
  4.91228   0.00091   0.00127   0.00207   0.00367
  4.96241   0.00114   0.00157   0.00216   0.00404
  5.01253   0.00110   0.00212   0.00309   0.00501
  5.06266   0.00119   0.00278   0.00290   0.00494
  5.11278   0.00262   0.00364   0.00304   0.00471
  5.16291   0.00620   0.00720   0.00337   0.00221
  5.21303   0.01390   0.02192   0.00749   0.00738
  5.26316   0.01470   0.02310   0.00696   0.00075
  5.31328   0.01374   0.02624   0.00692  -0.00088
  5.36341   0.00336   0.01998   0.00097  -0.00020
  5.41353   0.00055   0.01113  -0.00065  -0.00112
  5.46366  -0.00001   0.00014  -0.00003  -0.00002
  5.51378   0.00000   0.00000   0.00000   0.00000
  5.56391   0.00000   0.00000   0.00000   0.00000
  5.61404   0.00000   0.00000   0.00000   0.00000
  5.66416   0.00000   0.00000   0.00000   0.00000
  5.71429   0.00000   0.00000   0.00000   0.00000
  5.76441   0.00000   0.00000   0.00000   0.00000
  5.81454   0.00000   0.00000   0.00000   0.00000
  5.86466   0.00000   0.00000   0.00000   0.00000
  5.91479   0.00000   0.00000   0.00000   0.00000
  5.96491   0.00000   0.00000   0.00000   0.00000
  6.01504   0.00000   0.00000   0.00000   0.00000
  6.06516   0.00000   0.00000   0.00000   0.00000
  6.11529   0.00000   0.00000   0.00000   0.00000
  6.16541   0.00000   0.00000   0.00000   0.00000
  6.21554   0.00000   0.00000   0.00000   0.00000
  6.26566   0.00000   0.00000   0.00000   0.00000
  6.31579   0.00000   0.00000   0.00000   0.00000
  6.36591   0.00000   0.00000   0.00000   0.00000
  6.41604   0.00000   0.00000   0.00000   0.00000
  6.46617   0.00000   0.00000   0.00000   0.00000
  6.51629   0.00000   0.00000   0.00000   0.00000
  6.56642   0.00000   0.00000   0.00000   0.00000
  6.61654   0.00000   0.00000   0.00000   0.00000
  6.66667   0.00000   0.00000   0.00000   0.00000
  6.71679   0.00000   0.00000   0.00000   0.00000
  6.76692   0.00000   0.00000   0.00000   0.00000
  6.81704   0.00000   0.00000   0.00000   0.00000
  6.86717   0.00000   0.00000   0.00000   0.00000
  6.91729   0.00000   0.00000   0.00000   0.00000
  6.96742   0.00000   0.00000   0.00000   0.00000
  7.01754   0.00000   0.00000   0.00000   0.00000
  7.06767   0.00000   0.00000   0.00000   0.00000
  7.11779   0.00000   0.00000   0.00000   0.00000
  7.16792   0.00000   0.00000   0.00000   0.00000
  7.21805   0.00000   0.00000   0.00000   0.00000
  7.26817   0.00000   0.00000   0.00000   0.00000
  7.31830   0.00000   0.00000   0.00000   0.00000
  7.36842   0.00000   0.00000   0.00000   0.00000
  7.41855   0.00000   0.00000   0.00000   0.00000
  7.46867   0.00000   0.00000   0.00000   0.00000
  7.51880   0.00000   0.00000   0.00000   0.00000
  7.56892   0.00000   0.00000   0.00000   0.00000
  7.61905   0.00000   0.00000   0.00000   0.00000
  7.66917   0.00000   0.00000   0.00000   0.00000
  7.71930   0.00000   0.00000   0.00000   0.00000
  7.76942   0.00000   0.00000   0.00000   0.00000
  7.81955   0.00000   0.00000   0.00000   0.00000
  7.86967   0.00000   0.00000   0.00000   0.00000
  7.91980   0.00000   0.00000   0.00000   0.00000
  7.96992   0.00000   0.00000   0.00000   0.00000
  8.02005   0.00000   0.00000   0.00000   0.00000
  8.07018   0.00000   0.00000   0.00000   0.00000
  8.12030   0.00000   0.00000   0.00000   0.00000
  8.17043   0.00000   0.00000   0.00000   0.00000
  8.22055   0.00000   0.00000   0.00000   0.00000
  8.27068   0.00000   0.00000   0.00000   0.00000
  8.32080   0.00000   0.00000   0.00000   0.00000
  8.37093   0.00000   0.00000   0.00000   0.00000
  8.42105   0.00000   0.00000   0.00000   0.00000
  8.47118   0.00000   0.00000   0.00000   0.00000
  8.52130   0.00000   0.00000   0.00000   0.00000
  8.57143   0.00000   0.00000   0.00000   0.00000
  8.62155   0.00000   0.00000   0.00000   0.00000
  8.67168   0.00000   0.00000   0.00000   0.00000
  8.72180   0.00000   0.00000   0.00000   0.00000
  8.77193   0.00000   0.00000   0.00000   0.00000
  8.82206   0.00000   0.00000   0.00000   0.00000
  8.87218   0.00000   0.00000   0.00000   0.00000
  8.92231   0.00000   0.00000   0.00000   0.00000
  8.97243   0.00000   0.00000   0.00000   0.00000
  9.02256   0.00000   0.00000   0.00000   0.00000
  9.07268   0.00000   0.00000   0.00000   0.00000
  9.12281   0.00000   0.00000   0.00000   0.00000
  9.17293   0.00000   0.00000   0.00000   0.00000
  9.22306   0.00000   0.00000   0.00000   0.00000
  9.27318   0.00000   0.00000   0.00000   0.00000
  9.32331   0.00000   0.00000   0.00000   0.00000
  9.37343   0.00000   0.00000   0.00000   0.00000
  9.42356   0.00000   0.00000   0.00000   0.00000
  9.47368   0.00000   0.00000   0.00000   0.00000
  9.52381   0.00000   0.00000   0.00000   0.00000
  9.57393   0.00000   0.00000   0.00000   0.00000
  9.62406   0.00000   0.00000   0.00000   0.00000
  9.67419   0.00000   0.00000   0.00000   0.00000
  9.72431   0.00000   0.00000   0.00000   0.00000
  9.77444   0.00000   0.00000   0.00000   0.00000
  9.82456   0.00000   0.00000   0.00000   0.00000
  9.87469   0.00000   0.00000   0.00000   0.00000
  9.92481   0.00000   0.00000   0.00000   0.00000
  9.97494   0.00000   0.00000   0.00000   0.00000
 10.02506   0.00000   0.00000   0.00000   0.00000
     10.02506266     -10.02506266   401       0.43334965       1.00000000; Z= 53; 5s 5p_y 5p_z 5p_x 
-10.02506   0.00000   0.00000   0.00000   0.00000
 -9.97494   0.00000   0.00000   0.00000   0.00000
 -9.92481   0.00000   0.00000   0.00000   0.00000
 -9.87469   0.00000   0.00000   0.00000   0.00000
 -9.82456   0.00000   0.00000   0.00000   0.00000
 -9.77444   0.00000   0.00000   0.00000   0.00000
 -9.72431   0.00000   0.00000   0.00000   0.00000
 -9.67419   0.00000   0.00000   0.00000   0.00000
 -9.62406   0.00000   0.00000   0.00000   0.00000
 -9.57393   0.00000   0.00000   0.00000   0.00000
 -9.52381   0.00000   0.00000   0.00000   0.00000
 -9.47368   0.00000   0.00000   0.00000   0.00000
 -9.42356   0.00000   0.00000   0.00000   0.00000
 -9.37343   0.00000   0.00000   0.00000   0.00000
 -9.32331   0.00000   0.00000   0.00000   0.00000
 -9.27318   0.00000   0.00000   0.00000   0.00000
 -9.22306   0.00000   0.00000   0.00000   0.00000
 -9.17293   0.00000   0.00000   0.00000   0.00000
 -9.12281   0.00000   0.00000   0.00000   0.00000
 -9.07268   0.00000   0.00000   0.00000   0.00000
 -9.02256   0.00000   0.00000   0.00000   0.00000
 -8.97243   0.00000   0.00000   0.00000   0.00000
 -8.92231   0.00000   0.00000   0.00000   0.00000
 -8.87218   0.00000   0.00000   0.00000   0.00000
 -8.82206   0.00000   0.00000   0.00000   0.00000
 -8.77193   0.00000   0.00000   0.00000   0.00000
 -8.72180   0.00000   0.00000   0.00000   0.00000
 -8.67168   0.00000   0.00000   0.00000   0.00000
 -8.62155   0.00000   0.00000   0.00000   0.00000
 -8.57143   0.00000   0.00000   0.00000   0.00000
 -8.52130   0.00000   0.00000   0.00000   0.00000
 -8.47118   0.00000   0.00000   0.00000   0.00000
 -8.42105   0.00000   0.00000   0.00000   0.00000
 -8.37093   0.00000   0.00000   0.00000   0.00000
 -8.32080   0.00000   0.00000   0.00000   0.00000
 -8.27068   0.00000   0.00000   0.00000   0.00000
 -8.22055   0.00000   0.00000   0.00000   0.00000
 -8.17043   0.00000   0.00000   0.00000   0.00000
 -8.12030   0.00000   0.00000   0.00000   0.00000
 -8.07018   0.00000   0.00000   0.00000   0.00000
 -8.02005   0.00000   0.00000   0.00000   0.00000
 -7.96992   0.00000   0.00000   0.00000   0.00000
 -7.91980   0.00000   0.00000   0.00000   0.00000
 -7.86967   0.00000   0.00000   0.00000   0.00000
 -7.81955   0.00000   0.00000   0.00000   0.00000
 -7.76942   0.00000   0.00000   0.00000   0.00000
 -7.71930   0.00000   0.00000   0.00000   0.00000
 -7.66917   0.00000   0.00000   0.00000   0.00000
 -7.61905   0.00000   0.00000   0.00000   0.00000
 -7.56892   0.00000   0.00000   0.00000   0.00000
 -7.51880   0.00000   0.00000   0.00000   0.00000
 -7.46867   0.00000   0.00000   0.00000   0.00000
 -7.41855   0.00000   0.00000   0.00000   0.00000
 -7.36842   0.00000   0.00000   0.00000   0.00000
 -7.31830   0.01740   0.01504   0.06683   0.03952
 -7.26817   0.04628   0.01388   0.05185   0.06464
 -7.21805   0.00356   0.00118   0.00071   0.00094
 -7.16792   0.00000   0.00000   0.00000   0.00000
 -7.11779   0.00000   0.00000   0.00000   0.00000
 -7.06767   0.00000   0.00000   0.00000   0.00000
 -7.01754   0.00000   0.00000   0.00000   0.00000
 -6.96742   0.00000   0.00000   0.00000   0.00000
 -6.91729   0.00000   0.00000   0.00000   0.00000
 -6.86717   0.00000   0.00000   0.00000   0.00000
 -6.81704   0.00000   0.00000   0.00000   0.00000
 -6.76692   0.00000   0.00000   0.00000   0.00000
 -6.71679   0.00000   0.00000   0.00000   0.00000
 -6.66667   0.00000   0.00000   0.00000   0.00000
 -6.61654   0.00000   0.00000   0.00000   0.00000
 -6.56642   0.00000   0.00000   0.00000   0.00000
 -6.51629   0.00000   0.00000   0.00000   0.00000
 -6.46617   0.00000   0.00000   0.00000   0.00000
 -6.41604   0.00000   0.00000   0.00000   0.00000
 -6.36591   0.00000   0.00000   0.00000   0.00000
 -6.31579   0.00000   0.00000   0.00000   0.00000
 -6.26566   0.00000   0.00000   0.00000   0.00000
 -6.21554   0.00000   0.00000   0.00000   0.00000
 -6.16541   0.00000   0.00000   0.00000   0.00000
 -6.11529   0.00000   0.00000   0.00000   0.00000
 -6.06516   0.00000   0.00000   0.00000   0.00000
 -6.01504   0.00000   0.00000   0.00000   0.00000
 -5.96491   0.00000   0.00000   0.00000   0.00000
 -5.91479   0.00000   0.00000   0.00000   0.00000
 -5.86466   0.00000   0.00000   0.00000   0.00000
 -5.81454   0.00000   0.00000   0.00000   0.00000
 -5.76441   0.00000   0.00000   0.00000   0.00000
 -5.71429   0.00000   0.00000   0.00000   0.00000
 -5.66416   0.00000   0.00000   0.00000   0.00000
 -5.61404   0.00000   0.00000   0.00000   0.00000
 -5.56391   0.00000   0.00000   0.00000   0.00000
 -5.51378   0.00000   0.00000   0.00000   0.00000
 -5.46366   0.00000   0.00000   0.00000   0.00000
 -5.41353   0.00000   0.00000   0.00000   0.00000
 -5.36341   0.00000   0.00000   0.00000   0.00000
 -5.31328   0.00000   0.00000   0.00000   0.00000
 -5.26316   0.00000   0.00000   0.00000   0.00000
 -5.21303   0.00000   0.00000   0.00000   0.00000
 -5.16291   0.00000   0.00000   0.00000   0.00000
 -5.11278   0.00000   0.00000   0.00000   0.00000
 -5.06266   0.00000   0.00000   0.00000   0.00000
 -5.01253   0.00000   0.00000   0.00000   0.00000
 -4.96241   0.00000   0.00000   0.00000   0.00000
 -4.91228   0.00000   0.00000   0.00000   0.00000
 -4.86216   0.00000   0.00000   0.00000   0.00000
 -4.81203   0.00000   0.00000   0.00000   0.00000
 -4.76190   0.00000   0.00000   0.00000   0.00000
 -4.71178   0.00000   0.00000   0.00000   0.00000
 -4.66165   0.00000   0.00000   0.00000   0.00000
 -4.61153   0.00000   0.00000   0.00000   0.00000
 -4.56140   0.00000   0.00000   0.00000   0.00000
 -4.51128   0.00000   0.00000   0.00000   0.00000
 -4.46115   0.00000   0.00000   0.00000   0.00000
 -4.41103   0.00000   0.00000   0.00000   0.00000
 -4.36090   0.00000   0.00000   0.00000   0.00000
 -4.31078   0.00000   0.00000   0.00000   0.00000
 -4.26065   0.00000   0.00000   0.00000   0.00000
 -4.21053   0.00000   0.00000   0.00000   0.00000
 -4.16040   0.00000   0.00000   0.00000   0.00000
 -4.11028   0.00000   0.00000   0.00000   0.00000
 -4.06015   0.00000   0.00000   0.00000   0.00000
 -4.01003   0.00000   0.00000   0.00000   0.00000
 -3.95990   0.00000   0.00000   0.00000   0.00000
 -3.90977   0.00000   0.00000   0.00000   0.00000
 -3.85965   0.00000   0.00000   0.00000   0.00000
 -3.80952   0.00000   0.00000   0.00000   0.00000
 -3.75940   0.00000   0.00000   0.00000   0.00000
 -3.70927   0.00127   0.00001   0.01232   0.01535
 -3.65915   0.09088   0.00471   0.93693   1.06016
 -3.60902   0.14089   0.00854   1.36646   1.59835
 -3.55890   0.06761   0.00443   0.57568   0.75642
 -3.50877   0.13989   0.00798   1.00539   1.46601
 -3.45865   0.11413   0.00666   0.76287   1.16266
 -3.40852   0.00401   0.00008   0.02875   0.04150
 -3.35840   0.00000   0.00000   0.00000   0.00000
 -3.30827   0.00000   0.00000   0.00000   0.00000
 -3.25815   0.00000   0.00000   0.00000   0.00000
 -3.20802   0.00000   0.00000   0.00000   0.00000
 -3.15789   0.00000   0.00000   0.00000   0.00000
 -3.10777   0.00000   0.00000   0.00000   0.00000
 -3.05764   0.00000   0.00000   0.00000   0.00000
 -3.00752   0.00000   0.00000   0.00000   0.00000
 -2.95739   0.00000   0.00000   0.00000   0.00000
 -2.90727   0.00000   0.00000   0.00000   0.00000
 -2.85714   0.00000   0.00000   0.00000   0.00000
 -2.80702   0.00000   0.00000   0.00000   0.00000
 -2.75689   0.00000   0.00000   0.00000   0.00000
 -2.70677   0.00000   0.00000   0.00000   0.00000
 -2.65664   0.00000   0.00000   0.00000   0.00000
 -2.60652   0.00000   0.00000   0.00000   0.00000
 -2.55639   0.00000   0.00000   0.00000   0.00000
 -2.50627   0.00000   0.00000   0.00000   0.00000
 -2.45614   0.00000   0.00000   0.00000   0.00000
 -2.40602   0.00000   0.00000   0.00000   0.00000
 -2.35589   0.00000   0.00000   0.00000   0.00000
 -2.30576   0.00000   0.00000   0.00000   0.00000
 -2.25564   0.00000   0.00000   0.00000   0.00000
 -2.20551   0.00009   0.02569   0.00745   0.02439
 -2.15539   0.00113   0.31240   0.12034   0.22375
 -2.10526   0.00338   1.20660   0.45802   0.45062
 -2.05514   0.00341   0.89750   0.47244   0.38717
 -2.00501   0.00666   0.88134   0.94258   0.70510
 -1.95489   0.00757   0.87960   1.03421   0.65977
 -1.90476   0.00132   0.25125   0.22014   0.09172
 -1.85464   0.00003   0.02325   0.00563   0.00255
 -1.80451   0.00084   0.00933   0.09652   0.04798
 -1.75439   0.00517   0.17936   0.63212   0.32339
 -1.70426   0.00646   0.48327   0.80144   0.56108
 -1.65414   0.00208   0.36153   0.24138   0.32231
 -1.60401   0.00276   1.01327   0.23280   0.38570
 -1.55388   0.00182   0.88924   0.08283   0.20930
 -1.50376   0.00029   0.58495   0.01913   0.02138
 -1.45363   0.00001   0.04934   0.00118   0.00053
 -1.40351   0.00010   0.09163   0.15895   0.04810
 -1.35338   0.00036   0.32186   0.72828   0.25256
 -1.30326   0.00075   0.90199   1.93431   0.87390
 -1.25313   0.00034   0.66343   1.64437   0.92371
 -1.20301   0.00015   0.53682   0.74957   0.59920
 -1.15288   0.00011   0.76957   0.57690   0.85468
 -1.10276   0.00003   1.56519   0.94207   2.03333
 -1.05263   0.00009   1.14977   0.69388   1.31344
 -1.00251  -0.00005   0.93378   0.62806   0.61600
 -0.95238  -0.00004   1.48711   1.06687   1.15704
 -0.90226   0.00009   0.75741   0.59888   0.72233
 -0.85213  -0.00004   1.11345   0.80754   0.94530
 -0.80201   0.00074   0.92422   0.84808   0.82457
 -0.75188   0.00117   0.72746   1.02413   1.75984
 -0.70175   0.00171   1.22697   1.75160   1.97135
 -0.65163   0.00089   1.58924   0.84853   0.80647
 -0.60150   0.00009   0.55247   0.12965   0.30861
 -0.55138  -0.00001   0.12902   0.00920   0.02073
 -0.50125   0.00003   0.00255   0.03989   0.00816
 -0.45113   0.00078   0.16200   1.40281   0.22969
 -0.40100   0.00104   0.51856   1.76877   0.39154
 -0.35088   0.00095   1.72227   1.17167   0.61329
 -0.30075   0.00107   3.20265   0.71069   0.67503
 -0.25063   0.00042   4.15401   0.46311   0.35920
 -0.20050   0.00034   3.93480   0.52455   0.40046
 -0.15038   0.00086   1.83776   1.01294   0.99419
 -0.10025   0.00098   0.44464   0.97250   1.13911
 -0.05013   0.00054   0.09397   0.72183   0.72857
  0.00000   0.00008   0.00595   0.12381   0.10814
  0.05013   0.00000   0.00000   0.00000   0.00000
  0.10025   0.00000   0.00000   0.00000   0.00000
  0.15038   0.00000   0.00000   0.00000   0.00000
  0.20050   0.00000   0.00000   0.00000   0.00000
  0.25063   0.00000   0.00000   0.00000   0.00000
  0.30075   0.00000   0.00000   0.00000   0.00000
  0.35088   0.00000   0.00000   0.00000   0.00000
  0.40100   0.00000   0.00000   0.00000   0.00000
  0.45113   0.00000   0.00000   0.00000   0.00000
  0.50125   0.00000   0.00000   0.00000   0.00000
  0.55138   0.00000   0.00000   0.00000   0.00000
  0.60150   0.00000   0.00000   0.00000   0.00000
  0.65163   0.00000   0.00000   0.00000   0.00000
  0.70175   0.00000   0.00000   0.00000   0.00000
  0.75188   0.00000   0.00000   0.00000   0.00000
  0.80201   0.00000   0.00000   0.00000   0.00000
  0.85213   0.00000   0.00000   0.00000   0.00000
  0.90226   0.00000   0.00000   0.00000   0.00000
  0.95238   0.00000   0.00000   0.00000   0.00000
  1.00251   0.00000   0.00000   0.00000   0.00000
  1.05263   0.00000   0.00000   0.00000   0.00000
  1.10276   0.00000   0.00000   0.00000   0.00000
  1.15288   0.00000   0.00000   0.00000   0.00000
  1.20301   0.00000   0.00000   0.00000   0.00000
  1.25313   0.00000   0.00000   0.00000   0.00000
  1.30326   0.00000   0.00000   0.00000   0.00000
  1.35338   0.00000   0.00000   0.00000   0.00000
  1.40351   0.00000   0.00000   0.00000   0.00000
  1.45363   0.00000   0.00000   0.00000   0.00000
  1.50376   0.00000   0.00000   0.00000   0.00000
  1.55388   0.00000   0.00000   0.00000   0.00000
  1.60401   0.00000   0.00000   0.00000   0.00000
  1.65414   0.00000   0.00000   0.00000   0.00000
  1.70426   0.00000   0.00000   0.00000   0.00000
  1.75439   0.00000   0.00000   0.00000   0.00000
  1.80451   0.00000   0.00000   0.00000   0.00000
  1.85464   0.00000   0.00000   0.00000   0.00000
  1.90476   0.01273   0.00134   0.24794   0.42146
  1.95489   0.08211   0.02788   1.72661   2.66657
  2.00501   0.06163   0.01819   1.54597   1.90272
  2.05514   0.06056   0.01607   1.51031   1.87929
  2.10526   0.00136   0.00021   0.03723   0.04897
  2.15539   0.00000   0.00000   0.00000   0.00000
  2.20551   0.00000   0.00000   0.00000   0.00000
  2.25564   0.00000   0.00000   0.00000   0.00000
  2.30576   0.00000   0.00000   0.00000   0.00000
  2.35589   0.00000   0.00000   0.00000   0.00000
  2.40602   0.00000   0.00000   0.00000   0.00000
  2.45614   0.00000   0.00000   0.00000   0.00000
  2.50627   0.00000   0.00000   0.00000   0.00000
  2.55639   0.00000   0.00000   0.00000   0.00000
  2.60652   0.00000   0.00000   0.00000   0.00000
  2.65664   0.00000   0.00000   0.00000   0.00000
  2.70677   0.00000   0.00000   0.00000   0.00000
  2.75689   0.00000   0.00000   0.00000   0.00000
  2.80702   0.00000   0.00000   0.00000   0.00000
  2.85714   0.00000   0.00000   0.00000   0.00000
  2.90727   0.00000   0.00000   0.00000   0.00000
  2.95739   0.00000   0.00000   0.00000   0.00000
  3.00752   0.00000   0.00000   0.00000   0.00000
  3.05764   0.00000   0.00000   0.00000   0.00000
  3.10777   0.00000   0.00000   0.00000   0.00000
  3.15789   0.00000   0.00000   0.00000   0.00000
  3.20802   0.00000   0.00000   0.00000   0.00000
  3.25815   0.00000   0.00000   0.00000   0.00000
  3.30827   0.00000   0.00000   0.00000   0.00000
  3.35840   0.00000   0.00000   0.00000   0.00000
  3.40852   0.00000   0.00000   0.00000   0.00000
  3.45865   0.00000   0.00000   0.00000   0.00000
  3.50877   0.00000   0.00000   0.00000   0.00000
  3.55890   0.00000   0.00000   0.00000   0.00000
  3.60902   0.00000   0.00000   0.00000   0.00000
  3.65915   0.00000   0.00000   0.00000   0.00000
  3.70927   0.00000   0.00000   0.00000   0.00000
  3.75940   0.00000   0.00000   0.00000   0.00000
  3.80952   0.00000   0.00000   0.00000   0.00000
  3.85965   0.00000   0.00000   0.00000   0.00000
  3.90977   0.00000   0.00000   0.00000   0.00000
  3.95990   0.00000   0.00000   0.00000   0.00000
  4.01003   0.00000   0.00000   0.00000   0.00000
  4.06015   0.00000   0.00000   0.00000   0.00000
  4.11028   0.00000   0.00000   0.00000   0.00000
  4.16040   0.00002   0.00000   0.00003   0.00003
  4.21053   0.00010   0.00002   0.00021   0.00020
  4.26065   0.00025   0.00006   0.00054   0.00052
  4.31078   0.00046   0.00012   0.00110   0.00105
  4.36090   0.00066   0.00022   0.00173   0.00175
  4.41103   0.00078   0.00032   0.00217   0.00239
  4.46115   0.00083   0.00040   0.00245   0.00295
  4.51128   0.00088   0.00049   0.00273   0.00359
  4.56140   0.00097   0.00061   0.00316   0.00442
  4.61153   0.00112   0.00077   0.00392   0.00550
  4.66165   0.00139   0.00097   0.00542   0.00698
  4.71178   0.00152   0.00119   0.00585   0.00817
  4.76190   0.00156   0.00140   0.00537   0.00850
  4.81203   0.00175   0.00166   0.00528   0.00821
  4.86216   0.00213   0.00203   0.00582   0.00805
  4.91228   0.00267   0.00250   0.00668   0.00787
  4.96241   0.00336   0.00307   0.00801   0.00782
  5.01253   0.00489   0.00392   0.01149   0.00960
  5.06266   0.00588   0.00505   0.01167   0.01037
  5.11278   0.00986   0.00908   0.01119   0.01411
  5.16291   0.01844   0.01929   0.01740   0.01929
  5.21303   0.02985   0.03836   0.05004   0.05529
  5.26316   0.03204   0.04248   0.06092   0.04156
  5.31328   0.02882   0.03660   0.05913   0.04674
  5.36341   0.01738   0.02089   0.01963   0.02022
  5.41353   0.01253   0.01083   0.00935   0.00960
  5.46366   0.00039   0.00009   0.00006   0.00019
  5.51378   0.00000   0.00000   0.00000   0.00000
  5.56391   0.00000   0.00000   0.00000   0.00000
  5.61404   0.00000   0.00000   0.00000   0.00000
  5.66416   0.00000   0.00000   0.00000   0.00000
  5.71429   0.00000   0.00000   0.00000   0.00000
  5.76441   0.00000   0.00000   0.00000   0.00000
  5.81454   0.00000   0.00000   0.00000   0.00000
  5.86466   0.00000   0.00000   0.00000   0.00000
  5.91479   0.00000   0.00000   0.00000   0.00000
  5.96491   0.00000   0.00000   0.00000   0.00000
  6.01504   0.00000   0.00000   0.00000   0.00000
  6.06516   0.00000   0.00000   0.00000   0.00000
  6.11529   0.00000   0.00000   0.00000   0.00000
  6.16541   0.00000   0.00000   0.00000   0.00000
  6.21554   0.00000   0.00000   0.00000   0.00000
  6.26566   0.00000   0.00000   0.00000   0.00000
  6.31579   0.00000   0.00000   0.00000   0.00000
  6.36591   0.00000   0.00000   0.00000   0.00000
  6.41604   0.00000   0.00000   0.00000   0.00000
  6.46617   0.00000   0.00000   0.00000   0.00000
  6.51629   0.00000   0.00000   0.00000   0.00000
  6.56642   0.00000   0.00000   0.00000   0.00000
  6.61654   0.00000   0.00000   0.00000   0.00000
  6.66667   0.00000   0.00000   0.00000   0.00000
  6.71679   0.00000   0.00000   0.00000   0.00000
  6.76692   0.00000   0.00000   0.00000   0.00000
  6.81704   0.00000   0.00000   0.00000   0.00000
  6.86717   0.00000   0.00000   0.00000   0.00000
  6.91729   0.00000   0.00000   0.00000   0.00000
  6.96742   0.00000   0.00000   0.00000   0.00000
  7.01754   0.00000   0.00000   0.00000   0.00000
  7.06767   0.00000   0.00000   0.00000   0.00000
  7.11779   0.00000   0.00000   0.00000   0.00000
  7.16792   0.00000   0.00000   0.00000   0.00000
  7.21805   0.00000   0.00000   0.00000   0.00000
  7.26817   0.00000   0.00000   0.00000   0.00000
  7.31830   0.00000   0.00000   0.00000   0.00000
  7.36842   0.00000   0.00000   0.00000   0.00000
  7.41855   0.00000   0.00000   0.00000   0.00000
  7.46867   0.00000   0.00000   0.00000   0.00000
  7.51880   0.00000   0.00000   0.00000   0.00000
  7.56892   0.00000   0.00000   0.00000   0.00000
  7.61905   0.00000   0.00000   0.00000   0.00000
  7.66917   0.00000   0.00000   0.00000   0.00000
  7.71930   0.00000   0.00000   0.00000   0.00000
  7.76942   0.00000   0.00000   0.00000   0.00000
  7.81955   0.00000   0.00000   0.00000   0.00000
  7.86967   0.00000   0.00000   0.00000   0.00000
  7.91980   0.00000   0.00000   0.00000   0.00000
  7.96992   0.00000   0.00000   0.00000   0.00000
  8.02005   0.00000   0.00000   0.00000   0.00000
  8.07018   0.00000   0.00000   0.00000   0.00000
  8.12030   0.00000   0.00000   0.00000   0.00000
  8.17043   0.00000   0.00000   0.00000   0.00000
  8.22055   0.00000   0.00000   0.00000   0.00000
  8.27068   0.00000   0.00000   0.00000   0.00000
  8.32080   0.00000   0.00000   0.00000   0.00000
  8.37093   0.00000   0.00000   0.00000   0.00000
  8.42105   0.00000   0.00000   0.00000   0.00000
  8.47118   0.00000   0.00000   0.00000   0.00000
  8.52130   0.00000   0.00000   0.00000   0.00000
  8.57143   0.00000   0.00000   0.00000   0.00000
  8.62155   0.00000   0.00000   0.00000   0.00000
  8.67168   0.00000   0.00000   0.00000   0.00000
  8.72180   0.00000   0.00000   0.00000   0.00000
  8.77193   0.00000   0.00000   0.00000   0.00000
  8.82206   0.00000   0.00000   0.00000   0.00000
  8.87218   0.00000   0.00000   0.00000   0.00000
  8.92231   0.00000   0.00000   0.00000   0.00000
  8.97243   0.00000   0.00000   0.00000   0.00000
  9.02256   0.00000   0.00000   0.00000   0.00000
  9.07268   0.00000   0.00000   0.00000   0.00000
  9.12281   0.00000   0.00000   0.00000   0.00000
  9.17293   0.00000   0.00000   0.00000   0.00000
  9.22306   0.00000   0.00000   0.00000   0.00000
  9.27318   0.00000   0.00000   0.00000   0.00000
  9.32331   0.00000   0.00000   0.00000   0.00000
  9.37343   0.00000   0.00000   0.00000   0.00000
  9.42356   0.00000   0.00000   0.00000   0.00000
  9.47368   0.00000   0.00000   0.00000   0.00000
  9.52381   0.00000   0.00000   0.00000   0.00000
  9.57393   0.00000   0.00000   0.00000   0.00000
  9.62406   0.00000   0.00000   0.00000   0.00000
  9.67419   0.00000   0.00000   0.00000   0.00000
  9.72431   0.00000   0.00000   0.00000   0.00000
  9.77444   0.00000   0.00000   0.00000   0.00000
  9.82456   0.00000   0.00000   0.00000   0.00000
  9.87469   0.00000   0.00000   0.00000   0.00000
  9.92481   0.00000   0.00000   0.00000   0.00000
  9.97494   0.00000   0.00000   0.00000   0.00000
 10.02506   0.00000   0.00000   0.00000   0.00000
     10.02506266     -10.02506266   401       0.43334965       1.00000000; Z= 53; 5s 5p_y 5p_z 5p_x 
-10.02506   0.00000   0.00000   0.00000   0.00000
 -9.97494   0.00000   0.00000   0.00000   0.00000
 -9.92481   0.00000   0.00000   0.00000   0.00000
 -9.87469   0.00000   0.00000   0.00000   0.00000
 -9.82456   0.00000   0.00000   0.00000   0.00000
 -9.77444   0.00000   0.00000   0.00000   0.00000
 -9.72431   0.00000   0.00000   0.00000   0.00000
 -9.67419   0.00000   0.00000   0.00000   0.00000
 -9.62406   0.00000   0.00000   0.00000   0.00000
 -9.57393   0.00000   0.00000   0.00000   0.00000
 -9.52381   0.00000   0.00000   0.00000   0.00000
 -9.47368   0.00000   0.00000   0.00000   0.00000
 -9.42356   0.00000   0.00000   0.00000   0.00000
 -9.37343   0.00000   0.00000   0.00000   0.00000
 -9.32331   0.00000   0.00000   0.00000   0.00000
 -9.27318   0.00000   0.00000   0.00000   0.00000
 -9.22306   0.00000   0.00000   0.00000   0.00000
 -9.17293   0.00000   0.00000   0.00000   0.00000
 -9.12281   0.00000   0.00000   0.00000   0.00000
 -9.07268   0.00000   0.00000   0.00000   0.00000
 -9.02256   0.00000   0.00000   0.00000   0.00000
 -8.97243   0.00000   0.00000   0.00000   0.00000
 -8.92231   0.00000   0.00000   0.00000   0.00000
 -8.87218   0.00000   0.00000   0.00000   0.00000
 -8.82206   0.00000   0.00000   0.00000   0.00000
 -8.77193   0.00000   0.00000   0.00000   0.00000
 -8.72180   0.00000   0.00000   0.00000   0.00000
 -8.67168   0.00000   0.00000   0.00000   0.00000
 -8.62155   0.00000   0.00000   0.00000   0.00000
 -8.57143   0.00000   0.00000   0.00000   0.00000
 -8.52130   0.00000   0.00000   0.00000   0.00000
 -8.47118   0.00000   0.00000   0.00000   0.00000
 -8.42105   0.00000   0.00000   0.00000   0.00000
 -8.37093   0.00000   0.00000   0.00000   0.00000
 -8.32080   0.00000   0.00000   0.00000   0.00000
 -8.27068   0.00000   0.00000   0.00000   0.00000
 -8.22055   0.00000   0.00000   0.00000   0.00000
 -8.17043   0.00000   0.00000   0.00000   0.00000
 -8.12030   0.00000   0.00000   0.00000   0.00000
 -8.07018   0.00000   0.00000   0.00000   0.00000
 -8.02005   0.00000   0.00000   0.00000   0.00000
 -7.96992   0.00000   0.00000   0.00000   0.00000
 -7.91980   0.00000   0.00000   0.00000   0.00000
 -7.86967   0.00000   0.00000   0.00000   0.00000
 -7.81955   0.00000   0.00000   0.00000   0.00000
 -7.76942   0.00000   0.00000   0.00000   0.00000
 -7.71930   0.00000   0.00000   0.00000   0.00000
 -7.66917   0.00000   0.00000   0.00000   0.00000
 -7.61905   0.00000   0.00000   0.00000   0.00000
 -7.56892   0.00000   0.00000   0.00000   0.00000
 -7.51880   0.00000   0.00000   0.00000   0.00000
 -7.46867   0.00000   0.00000   0.00000   0.00000
 -7.41855   0.00000   0.00000   0.00000   0.00000
 -7.36842   0.00000   0.00000   0.00000   0.00000
 -7.31830   0.01739   0.01504   0.06679   0.03951
 -7.26817   0.04625   0.01386   0.05200   0.06466
 -7.21805   0.00359   0.00121   0.00059   0.00093
 -7.16792   0.00000   0.00000   0.00000   0.00000
 -7.11779   0.00000   0.00000   0.00000   0.00000
 -7.06767   0.00000   0.00000   0.00000   0.00000
 -7.01754   0.00000   0.00000   0.00000   0.00000
 -6.96742   0.00000   0.00000   0.00000   0.00000
 -6.91729   0.00000   0.00000   0.00000   0.00000
 -6.86717   0.00000   0.00000   0.00000   0.00000
 -6.81704   0.00000   0.00000   0.00000   0.00000
 -6.76692   0.00000   0.00000   0.00000   0.00000
 -6.71679   0.00000   0.00000   0.00000   0.00000
 -6.66667   0.00000   0.00000   0.00000   0.00000
 -6.61654   0.00000   0.00000   0.00000   0.00000
 -6.56642   0.00000   0.00000   0.00000   0.00000
 -6.51629   0.00000   0.00000   0.00000   0.00000
 -6.46617   0.00000   0.00000   0.00000   0.00000
 -6.41604   0.00000   0.00000   0.00000   0.00000
 -6.36591   0.00000   0.00000   0.00000   0.00000
 -6.31579   0.00000   0.00000   0.00000   0.00000
 -6.26566   0.00000   0.00000   0.00000   0.00000
 -6.21554   0.00000   0.00000   0.00000   0.00000
 -6.16541   0.00000   0.00000   0.00000   0.00000
 -6.11529   0.00000   0.00000   0.00000   0.00000
 -6.06516   0.00000   0.00000   0.00000   0.00000
 -6.01504   0.00000   0.00000   0.00000   0.00000
 -5.96491   0.00000   0.00000   0.00000   0.00000
 -5.91479   0.00000   0.00000   0.00000   0.00000
 -5.86466   0.00000   0.00000   0.00000   0.00000
 -5.81454   0.00000   0.00000   0.00000   0.00000
 -5.76441   0.00000   0.00000   0.00000   0.00000
 -5.71429   0.00000   0.00000   0.00000   0.00000
 -5.66416   0.00000   0.00000   0.00000   0.00000
 -5.61404   0.00000   0.00000   0.00000   0.00000
 -5.56391   0.00000   0.00000   0.00000   0.00000
 -5.51378   0.00000   0.00000   0.00000   0.00000
 -5.46366   0.00000   0.00000   0.00000   0.00000
 -5.41353   0.00000   0.00000   0.00000   0.00000
 -5.36341   0.00000   0.00000   0.00000   0.00000
 -5.31328   0.00000   0.00000   0.00000   0.00000
 -5.26316   0.00000   0.00000   0.00000   0.00000
 -5.21303   0.00000   0.00000   0.00000   0.00000
 -5.16291   0.00000   0.00000   0.00000   0.00000
 -5.11278   0.00000   0.00000   0.00000   0.00000
 -5.06266   0.00000   0.00000   0.00000   0.00000
 -5.01253   0.00000   0.00000   0.00000   0.00000
 -4.96241   0.00000   0.00000   0.00000   0.00000
 -4.91228   0.00000   0.00000   0.00000   0.00000
 -4.86216   0.00000   0.00000   0.00000   0.00000
 -4.81203   0.00000   0.00000   0.00000   0.00000
 -4.76190   0.00000   0.00000   0.00000   0.00000
 -4.71178   0.00000   0.00000   0.00000   0.00000
 -4.66165   0.00000   0.00000   0.00000   0.00000
 -4.61153   0.00000   0.00000   0.00000   0.00000
 -4.56140   0.00000   0.00000   0.00000   0.00000
 -4.51128   0.00000   0.00000   0.00000   0.00000
 -4.46115   0.00000   0.00000   0.00000   0.00000
 -4.41103   0.00000   0.00000   0.00000   0.00000
 -4.36090   0.00000   0.00000   0.00000   0.00000
 -4.31078   0.00000   0.00000   0.00000   0.00000
 -4.26065   0.00000   0.00000   0.00000   0.00000
 -4.21053   0.00000   0.00000   0.00000   0.00000
 -4.16040   0.00000   0.00000   0.00000   0.00000
 -4.11028   0.00000   0.00000   0.00000   0.00000
 -4.06015   0.00000   0.00000   0.00000   0.00000
 -4.01003   0.00000   0.00000   0.00000   0.00000
 -3.95990   0.00000   0.00000   0.00000   0.00000
 -3.90977   0.00000   0.00000   0.00000   0.00000
 -3.85965   0.00000   0.00000   0.00000   0.00000
 -3.80952   0.00000   0.00000   0.00000   0.00000
 -3.75940   0.00000   0.00000   0.00000   0.00000
 -3.70927   0.00127   0.00001   0.01232   0.01535
 -3.65915   0.08605   0.00465   0.90241   1.00956
 -3.60902   0.13982   0.00844   1.35715   1.58660
 -3.55890   0.06662   0.00433   0.55878   0.74474
 -3.50877   0.14174   0.00811   1.02118   1.48652
 -3.45865   0.11918   0.00679   0.80772   1.21641
 -3.40852   0.00401   0.00008   0.02875   0.04150
 -3.35840   0.00000   0.00000   0.00000   0.00000
 -3.30827   0.00000   0.00000   0.00000   0.00000
 -3.25815   0.00000   0.00000   0.00000   0.00000
 -3.20802   0.00000   0.00000   0.00000   0.00000
 -3.15789   0.00000   0.00000   0.00000   0.00000
 -3.10777   0.00000   0.00000   0.00000   0.00000
 -3.05764   0.00000   0.00000   0.00000   0.00000
 -3.00752   0.00000   0.00000   0.00000   0.00000
 -2.95739   0.00000   0.00000   0.00000   0.00000
 -2.90727   0.00000   0.00000   0.00000   0.00000
 -2.85714   0.00000   0.00000   0.00000   0.00000
 -2.80702   0.00000   0.00000   0.00000   0.00000
 -2.75689   0.00000   0.00000   0.00000   0.00000
 -2.70677   0.00000   0.00000   0.00000   0.00000
 -2.65664   0.00000   0.00000   0.00000   0.00000
 -2.60652   0.00000   0.00000   0.00000   0.00000
 -2.55639   0.00000   0.00000   0.00000   0.00000
 -2.50627   0.00000   0.00000   0.00000   0.00000
 -2.45614   0.00000   0.00000   0.00000   0.00000
 -2.40602   0.00000   0.00000   0.00000   0.00000
 -2.35589   0.00000   0.00000   0.00000   0.00000
 -2.30576   0.00000   0.00000   0.00000   0.00000
 -2.25564   0.00000   0.00000   0.00000   0.00000
 -2.20551   0.00009   0.02569   0.00745   0.02439
 -2.15539   0.00121   0.32421   0.09774   0.21915
 -2.10526   0.00345   1.21977   0.44244   0.44495
 -2.05514   0.00350   0.89657   0.46264   0.38511
 -2.00501   0.00673   0.88520   0.93369   0.70997
 -1.95489   0.00727   0.85319   1.08737   0.66738
 -1.90476   0.00130   0.24976   0.22389   0.09150
 -1.85464   0.00003   0.02326   0.00539   0.00266
 -1.80451   0.00080   0.00969   0.07277   0.05766
 -1.75439   0.00520   0.17943   0.59297   0.33541
 -1.70426   0.00661   0.48121   0.83822   0.54205
 -1.65414   0.00193   0.36124   0.26848   0.31937
 -1.60401   0.00276   1.00083   0.23369   0.38291
 -1.55388   0.00182   0.87986   0.08180   0.21054
 -1.50376   0.00030   0.60789   0.01846   0.02316
 -1.45363   0.00001   0.05006   0.00118   0.00055
 -1.40351   0.00010   0.09163   0.15895   0.04810
 -1.35338   0.00035   0.32864   0.71195   0.23310
 -1.30326   0.00077   0.91950   1.88869   0.81830
 -1.25313   0.00034   0.64605   1.69133   0.98277
 -1.20301   0.00013   0.53258   0.70779   0.59109
 -1.15288   0.00010   0.79106   0.45122   0.81490
 -1.10276   0.00005   1.55684   1.02204   2.06912
 -1.05263   0.00007   1.10888   0.74470   1.35823
 -1.00251  -0.00009   0.89713   0.64307   0.63338
 -0.95238  -0.00001   1.50694   1.08834   1.13706
 -0.90226   0.00015   0.78849   0.60380   0.70756
 -0.85213   0.00007   1.05453   0.75913   0.91306
 -0.80201   0.00062   0.96694   0.84543   0.83888
 -0.75188   0.00117   0.74663   1.05968   1.69785
 -0.70175   0.00166   1.15343   1.75442   2.05009
 -0.65163   0.00091   1.42252   0.86628   0.84525
 -0.60150   0.00008   0.76458   0.13472   0.27554
 -0.55138  -0.00001   0.16500   0.00918   0.01715
 -0.50125   0.00003   0.00082   0.03999   0.00822
 -0.45113   0.00078   0.08801   1.40111   0.22516
 -0.40100   0.00105   0.35833   1.75460   0.37322
 -0.35088   0.00102   1.94797   1.14086   0.60022
 -0.30075   0.00105   3.23421   0.72263   0.67532
 -0.25063   0.00036   3.73150   0.48398   0.37214
 -0.20050   0.00033   4.20487   0.53249   0.41925
 -0.15038   0.00089   1.97825   0.87557   0.93824
 -0.10025   0.00096   0.44970   1.07534   1.18091
 -0.05013   0.00052   0.07917   0.76222   0.74672
  0.00000   0.00008   0.00595   0.12381   0.10814
  0.05013   0.00000   0.00000   0.00000   0.00000
  0.10025   0.00000   0.00000   0.00000   0.00000
  0.15038   0.00000   0.00000   0.00000   0.00000
  0.20050   0.00000   0.00000   0.00000   0.00000
  0.25063   0.00000   0.00000   0.00000   0.00000
  0.30075   0.00000   0.00000   0.00000   0.00000
  0.35088   0.00000   0.00000   0.00000   0.00000
  0.40100   0.00000   0.00000   0.00000   0.00000
  0.45113   0.00000   0.00000   0.00000   0.00000
  0.50125   0.00000   0.00000   0.00000   0.00000
  0.55138   0.00000   0.00000   0.00000   0.00000
  0.60150   0.00000   0.00000   0.00000   0.00000
  0.65163   0.00000   0.00000   0.00000   0.00000
  0.70175   0.00000   0.00000   0.00000   0.00000
  0.75188   0.00000   0.00000   0.00000   0.00000
  0.80201   0.00000   0.00000   0.00000   0.00000
  0.85213   0.00000   0.00000   0.00000   0.00000
  0.90226   0.00000   0.00000   0.00000   0.00000
  0.95238   0.00000   0.00000   0.00000   0.00000
  1.00251   0.00000   0.00000   0.00000   0.00000
  1.05263   0.00000   0.00000   0.00000   0.00000
  1.10276   0.00000   0.00000   0.00000   0.00000
  1.15288   0.00000   0.00000   0.00000   0.00000
  1.20301   0.00000   0.00000   0.00000   0.00000
  1.25313   0.00000   0.00000   0.00000   0.00000
  1.30326   0.00000   0.00000   0.00000   0.00000
  1.35338   0.00000   0.00000   0.00000   0.00000
  1.40351   0.00000   0.00000   0.00000   0.00000
  1.45363   0.00000   0.00000   0.00000   0.00000
  1.50376   0.00000   0.00000   0.00000   0.00000
  1.55388   0.00000   0.00000   0.00000   0.00000
  1.60401   0.00000   0.00000   0.00000   0.00000
  1.65414   0.00000   0.00000   0.00000   0.00000
  1.70426   0.00000   0.00000   0.00000   0.00000
  1.75439   0.00000   0.00000   0.00000   0.00000
  1.80451   0.00000   0.00000   0.00000   0.00000
  1.85464   0.00000   0.00000   0.00000   0.00000
  1.90476   0.01131   0.00121   0.22146   0.38235
  1.95489   0.08273   0.02772   1.73607   2.67768
  2.00501   0.05997   0.01801   1.48362   1.82090
  2.05514   0.06298   0.01648   1.58997   1.98891
  2.10526   0.00136   0.00021   0.03724   0.04896
  2.15539   0.00000   0.00000   0.00000   0.00000
  2.20551   0.00000   0.00000   0.00000   0.00000
  2.25564   0.00000   0.00000   0.00000   0.00000
  2.30576   0.00000   0.00000   0.00000   0.00000
  2.35589   0.00000   0.00000   0.00000   0.00000
  2.40602   0.00000   0.00000   0.00000   0.00000
  2.45614   0.00000   0.00000   0.00000   0.00000
  2.50627   0.00000   0.00000   0.00000   0.00000
  2.55639   0.00000   0.00000   0.00000   0.00000
  2.60652   0.00000   0.00000   0.00000   0.00000
  2.65664   0.00000   0.00000   0.00000   0.00000
  2.70677   0.00000   0.00000   0.00000   0.00000
  2.75689   0.00000   0.00000   0.00000   0.00000
  2.80702   0.00000   0.00000   0.00000   0.00000
  2.85714   0.00000   0.00000   0.00000   0.00000
  2.90727   0.00000   0.00000   0.00000   0.00000
  2.95739   0.00000   0.00000   0.00000   0.00000
  3.00752   0.00000   0.00000   0.00000   0.00000
  3.05764   0.00000   0.00000   0.00000   0.00000
  3.10777   0.00000   0.00000   0.00000   0.00000
  3.15789   0.00000   0.00000   0.00000   0.00000
  3.20802   0.00000   0.00000   0.00000   0.00000
  3.25815   0.00000   0.00000   0.00000   0.00000
  3.30827   0.00000   0.00000   0.00000   0.00000
  3.35840   0.00000   0.00000   0.00000   0.00000
  3.40852   0.00000   0.00000   0.00000   0.00000
  3.45865   0.00000   0.00000   0.00000   0.00000
  3.50877   0.00000   0.00000   0.00000   0.00000
  3.55890   0.00000   0.00000   0.00000   0.00000
  3.60902   0.00000   0.00000   0.00000   0.00000
  3.65915   0.00000   0.00000   0.00000   0.00000
  3.70927   0.00000   0.00000   0.00000   0.00000
  3.75940   0.00000   0.00000   0.00000   0.00000
  3.80952   0.00000   0.00000   0.00000   0.00000
  3.85965   0.00000   0.00000   0.00000   0.00000
  3.90977   0.00000   0.00000   0.00000   0.00000
  3.95990   0.00000   0.00000   0.00000   0.00000
  4.01003   0.00000   0.00000   0.00000   0.00000
  4.06015   0.00000   0.00000   0.00000   0.00000
  4.11028   0.00000   0.00000   0.00000   0.00000
  4.16040   0.00002   0.00000   0.00003   0.00003
  4.21053   0.00010   0.00002   0.00021   0.00020
  4.26065   0.00025   0.00006   0.00054   0.00052
  4.31078   0.00046   0.00012   0.00110   0.00105
  4.36090   0.00066   0.00022   0.00172   0.00174
  4.41103   0.00078   0.00031   0.00216   0.00233
  4.46115   0.00083   0.00039   0.00242   0.00281
  4.51128   0.00088   0.00048   0.00269   0.00336
  4.56140   0.00097   0.00060   0.00310   0.00408
  4.61153   0.00112   0.00075   0.00384   0.00505
  4.66165   0.00139   0.00094   0.00532   0.00640
  4.71178   0.00152   0.00114   0.00573   0.00741
  4.76190   0.00156   0.00135   0.00527   0.00775
  4.81203   0.00177   0.00162   0.00525   0.00775
  4.86216   0.00219   0.00201   0.00587   0.00794
  4.91228   0.00277   0.00249   0.00680   0.00820
  4.96241   0.00350   0.00307   0.00818   0.00857
  5.01253   0.00505   0.00391   0.01168   0.01038
  5.06266   0.00604   0.00502   0.01186   0.01103
  5.11278   0.00996   0.00903   0.01134   0.01464
  5.16291   0.01859   0.01904   0.01750   0.01914
  5.21303   0.02935   0.03777   0.04936   0.05762
  5.26316   0.03205   0.04340   0.06087   0.04095
  5.31328   0.02889   0.03708   0.05936   0.04582
  5.36341   0.01730   0.02123   0.01968   0.01983
  5.41353   0.01250   0.01079   0.00940   0.00954
  5.46366   0.00039   0.00009   0.00006   0.00019
  5.51378   0.00000   0.00000   0.00000   0.00000
  5.56391   0.00000   0.00000   0.00000   0.00000
  5.61404   0.00000   0.00000   0.00000   0.00000
  5.66416   0.00000   0.00000   0.00000   0.00000
  5.71429   0.00000   0.00000   0.00000   0.00000
  5.76441   0.00000   0.00000   0.00000   0.00000
  5.81454   0.00000   0.00000   0.00000   0.00000
  5.86466   0.00000   0.00000   0.00000   0.00000
  5.91479   0.00000   0.00000   0.00000   0.00000
  5.96491   0.00000   0.00000   0.00000   0.00000
  6.01504   0.00000   0.00000   0.00000   0.00000
  6.06516   0.00000   0.00000   0.00000   0.00000
  6.11529   0.00000   0.00000   0.00000   0.00000
  6.16541   0.00000   0.00000   0.00000   0.00000
  6.21554   0.00000   0.00000   0.00000   0.00000
  6.26566   0.00000   0.00000   0.00000   0.00000
  6.31579   0.00000   0.00000   0.00000   0.00000
  6.36591   0.00000   0.00000   0.00000   0.00000
  6.41604   0.00000   0.00000   0.00000   0.00000
  6.46617   0.00000   0.00000   0.00000   0.00000
  6.51629   0.00000   0.00000   0.00000   0.00000
  6.56642   0.00000   0.00000   0.00000   0.00000
  6.61654   0.00000   0.00000   0.00000   0.00000
  6.66667   0.00000   0.00000   0.00000   0.00000
  6.71679   0.00000   0.00000   0.00000   0.00000
  6.76692   0.00000   0.00000   0.00000   0.00000
  6.81704   0.00000   0.00000   0.00000   0.00000
  6.86717   0.00000   0.00000   0.00000   0.00000
  6.91729   0.00000   0.00000   0.00000   0.00000
  6.96742   0.00000   0.00000   0.00000   0.00000
  7.01754   0.00000   0.00000   0.00000   0.00000
  7.06767   0.00000   0.00000   0.00000   0.00000
  7.11779   0.00000   0.00000   0.00000   0.00000
  7.16792   0.00000   0.00000   0.00000   0.00000
  7.21805   0.00000   0.00000   0.00000   0.00000
  7.26817   0.00000   0.00000   0.00000   0.00000
  7.31830   0.00000   0.00000   0.00000   0.00000
  7.36842   0.00000   0.00000   0.00000   0.00000
  7.41855   0.00000   0.00000   0.00000   0.00000
  7.46867   0.00000   0.00000   0.00000   0.00000
  7.51880   0.00000   0.00000   0.00000   0.00000
  7.56892   0.00000   0.00000   0.00000   0.00000
  7.61905   0.00000   0.00000   0.00000   0.00000
  7.66917   0.00000   0.00000   0.00000   0.00000
  7.71930   0.00000   0.00000   0.00000   0.00000
  7.76942   0.00000   0.00000   0.00000   0.00000
  7.81955   0.00000   0.00000   0.00000   0.00000
  7.86967   0.00000   0.00000   0.00000   0.00000
  7.91980   0.00000   0.00000   0.00000   0.00000
  7.96992   0.00000   0.00000   0.00000   0.00000
  8.02005   0.00000   0.00000   0.00000   0.00000
  8.07018   0.00000   0.00000   0.00000   0.00000
  8.12030   0.00000   0.00000   0.00000   0.00000
  8.17043   0.00000   0.00000   0.00000   0.00000
  8.22055   0.00000   0.00000   0.00000   0.00000
  8.27068   0.00000   0.00000   0.00000   0.00000
  8.32080   0.00000   0.00000   0.00000   0.00000
  8.37093   0.00000   0.00000   0.00000   0.00000
  8.42105   0.00000   0.00000   0.00000   0.00000
  8.47118   0.00000   0.00000   0.00000   0.00000
  8.52130   0.00000   0.00000   0.00000   0.00000
  8.57143   0.00000   0.00000   0.00000   0.00000
  8.62155   0.00000   0.00000   0.00000   0.00000
  8.67168   0.00000   0.00000   0.00000   0.00000
  8.72180   0.00000   0.00000   0.00000   0.00000
  8.77193   0.00000   0.00000   0.00000   0.00000
  8.82206   0.00000   0.00000   0.00000   0.00000
  8.87218   0.00000   0.00000   0.00000   0.00000
  8.92231   0.00000   0.00000   0.00000   0.00000
  8.97243   0.00000   0.00000   0.00000   0.00000
  9.02256   0.00000   0.00000   0.00000   0.00000
  9.07268   0.00000   0.00000   0.00000   0.00000
  9.12281   0.00000   0.00000   0.00000   0.00000
  9.17293   0.00000   0.00000   0.00000   0.00000
  9.22306   0.00000   0.00000   0.00000   0.00000
  9.27318   0.00000   0.00000   0.00000   0.00000
  9.32331   0.00000   0.00000   0.00000   0.00000
  9.37343   0.00000   0.00000   0.00000   0.00000
  9.42356   0.00000   0.00000   0.00000   0.00000
  9.47368   0.00000   0.00000   0.00000   0.00000
  9.52381   0.00000   0.00000   0.00000   0.00000
  9.57393   0.00000   0.00000   0.00000   0.00000
  9.62406   0.00000   0.00000   0.00000   0.00000
  9.67419   0.00000   0.00000   0.00000   0.00000
  9.72431   0.00000   0.00000   0.00000   0.00000
  9.77444   0.00000   0.00000   0.00000   0.00000
  9.82456   0.00000   0.00000   0.00000   0.00000
  9.87469   0.00000   0.00000   0.00000   0.00000
  9.92481   0.00000   0.00000   0.00000   0.00000
  9.97494   0.00000   0.00000   0.00000   0.00000
 10.02506   0.00000   0.00000   0.00000   0.00000
     10.02506266     -10.02506266   401       0.43334965       1.00000000; Z= 53; 5s 5p_y 5p_z 5p_x 
-10.02506   0.00000   0.00000   0.00000   0.00000
 -9.97494   0.00000   0.00000   0.00000   0.00000
 -9.92481   0.00000   0.00000   0.00000   0.00000
 -9.87469   0.00000   0.00000   0.00000   0.00000
 -9.82456   0.00000   0.00000   0.00000   0.00000
 -9.77444   0.00000   0.00000   0.00000   0.00000
 -9.72431   0.00000   0.00000   0.00000   0.00000
 -9.67419   0.00000   0.00000   0.00000   0.00000
 -9.62406   0.00000   0.00000   0.00000   0.00000
 -9.57393   0.00000   0.00000   0.00000   0.00000
 -9.52381   0.00000   0.00000   0.00000   0.00000
 -9.47368   0.00000   0.00000   0.00000   0.00000
 -9.42356   0.00000   0.00000   0.00000   0.00000
 -9.37343   0.00000   0.00000   0.00000   0.00000
 -9.32331   0.00000   0.00000   0.00000   0.00000
 -9.27318   0.00000   0.00000   0.00000   0.00000
 -9.22306   0.00000   0.00000   0.00000   0.00000
 -9.17293   0.00000   0.00000   0.00000   0.00000
 -9.12281   0.00000   0.00000   0.00000   0.00000
 -9.07268   0.00000   0.00000   0.00000   0.00000
 -9.02256   0.00000   0.00000   0.00000   0.00000
 -8.97243   0.00000   0.00000   0.00000   0.00000
 -8.92231   0.00000   0.00000   0.00000   0.00000
 -8.87218   0.00000   0.00000   0.00000   0.00000
 -8.82206   0.00000   0.00000   0.00000   0.00000
 -8.77193   0.00000   0.00000   0.00000   0.00000
 -8.72180   0.00000   0.00000   0.00000   0.00000
 -8.67168   0.00000   0.00000   0.00000   0.00000
 -8.62155   0.00000   0.00000   0.00000   0.00000
 -8.57143   0.00000   0.00000   0.00000   0.00000
 -8.52130   0.00000   0.00000   0.00000   0.00000
 -8.47118   0.00000   0.00000   0.00000   0.00000
 -8.42105   0.00000   0.00000   0.00000   0.00000
 -8.37093   0.00000   0.00000   0.00000   0.00000
 -8.32080   0.00000   0.00000   0.00000   0.00000
 -8.27068   0.00000   0.00000   0.00000   0.00000
 -8.22055   0.00000   0.00000   0.00000   0.00000
 -8.17043   0.00000   0.00000   0.00000   0.00000
 -8.12030   0.00000   0.00000   0.00000   0.00000
 -8.07018   0.00000   0.00000   0.00000   0.00000
 -8.02005   0.00000   0.00000   0.00000   0.00000
 -7.96992   0.00000   0.00000   0.00000   0.00000
 -7.91980   0.00000   0.00000   0.00000   0.00000
 -7.86967   0.00000   0.00000   0.00000   0.00000
 -7.81955   0.00000   0.00000   0.00000   0.00000
 -7.76942   0.00000   0.00000   0.00000   0.00000
 -7.71930   0.00000   0.00000   0.00000   0.00000
 -7.66917   0.00000   0.00000   0.00000   0.00000
 -7.61905   0.00000   0.00000   0.00000   0.00000
 -7.56892   0.00000   0.00000   0.00000   0.00000
 -7.51880   0.00000   0.00000   0.00000   0.00000
 -7.46867   0.00000   0.00000   0.00000   0.00000
 -7.41855   0.00000   0.00000   0.00000   0.00000
 -7.36842   0.00000   0.00000   0.00000   0.00000
 -7.31830   0.01736   0.01510   0.06675   0.03957
 -7.26817   0.04570   0.01390   0.05198   0.06461
 -7.21805   0.00417   0.00110   0.00067   0.00089
 -7.16792   0.00000   0.00000   0.00000   0.00000
 -7.11779   0.00000   0.00000   0.00000   0.00000
 -7.06767   0.00000   0.00000   0.00000   0.00000
 -7.01754   0.00000   0.00000   0.00000   0.00000
 -6.96742   0.00000   0.00000   0.00000   0.00000
 -6.91729   0.00000   0.00000   0.00000   0.00000
 -6.86717   0.00000   0.00000   0.00000   0.00000
 -6.81704   0.00000   0.00000   0.00000   0.00000
 -6.76692   0.00000   0.00000   0.00000   0.00000
 -6.71679   0.00000   0.00000   0.00000   0.00000
 -6.66667   0.00000   0.00000   0.00000   0.00000
 -6.61654   0.00000   0.00000   0.00000   0.00000
 -6.56642   0.00000   0.00000   0.00000   0.00000
 -6.51629   0.00000   0.00000   0.00000   0.00000
 -6.46617   0.00000   0.00000   0.00000   0.00000
 -6.41604   0.00000   0.00000   0.00000   0.00000
 -6.36591   0.00000   0.00000   0.00000   0.00000
 -6.31579   0.00000   0.00000   0.00000   0.00000
 -6.26566   0.00000   0.00000   0.00000   0.00000
 -6.21554   0.00000   0.00000   0.00000   0.00000
 -6.16541   0.00000   0.00000   0.00000   0.00000
 -6.11529   0.00000   0.00000   0.00000   0.00000
 -6.06516   0.00000   0.00000   0.00000   0.00000
 -6.01504   0.00000   0.00000   0.00000   0.00000
 -5.96491   0.00000   0.00000   0.00000   0.00000
 -5.91479   0.00000   0.00000   0.00000   0.00000
 -5.86466   0.00000   0.00000   0.00000   0.00000
 -5.81454   0.00000   0.00000   0.00000   0.00000
 -5.76441   0.00000   0.00000   0.00000   0.00000
 -5.71429   0.00000   0.00000   0.00000   0.00000
 -5.66416   0.00000   0.00000   0.00000   0.00000
 -5.61404   0.00000   0.00000   0.00000   0.00000
 -5.56391   0.00000   0.00000   0.00000   0.00000
 -5.51378   0.00000   0.00000   0.00000   0.00000
 -5.46366   0.00000   0.00000   0.00000   0.00000
 -5.41353   0.00000   0.00000   0.00000   0.00000
 -5.36341   0.00000   0.00000   0.00000   0.00000
 -5.31328   0.00000   0.00000   0.00000   0.00000
 -5.26316   0.00000   0.00000   0.00000   0.00000
 -5.21303   0.00000   0.00000   0.00000   0.00000
 -5.16291   0.00000   0.00000   0.00000   0.00000
 -5.11278   0.00000   0.00000   0.00000   0.00000
 -5.06266   0.00000   0.00000   0.00000   0.00000
 -5.01253   0.00000   0.00000   0.00000   0.00000
 -4.96241   0.00000   0.00000   0.00000   0.00000
 -4.91228   0.00000   0.00000   0.00000   0.00000
 -4.86216   0.00000   0.00000   0.00000   0.00000
 -4.81203   0.00000   0.00000   0.00000   0.00000
 -4.76190   0.00000   0.00000   0.00000   0.00000
 -4.71178   0.00000   0.00000   0.00000   0.00000
 -4.66165   0.00000   0.00000   0.00000   0.00000
 -4.61153   0.00000   0.00000   0.00000   0.00000
 -4.56140   0.00000   0.00000   0.00000   0.00000
 -4.51128   0.00000   0.00000   0.00000   0.00000
 -4.46115   0.00000   0.00000   0.00000   0.00000
 -4.41103   0.00000   0.00000   0.00000   0.00000
 -4.36090   0.00000   0.00000   0.00000   0.00000
 -4.31078   0.00000   0.00000   0.00000   0.00000
 -4.26065   0.00000   0.00000   0.00000   0.00000
 -4.21053   0.00000   0.00000   0.00000   0.00000
 -4.16040   0.00000   0.00000   0.00000   0.00000
 -4.11028   0.00000   0.00000   0.00000   0.00000
 -4.06015   0.00000   0.00000   0.00000   0.00000
 -4.01003   0.00000   0.00000   0.00000   0.00000
 -3.95990   0.00000   0.00000   0.00000   0.00000
 -3.90977   0.00000   0.00000   0.00000   0.00000
 -3.85965   0.00000   0.00000   0.00000   0.00000
 -3.80952   0.00000   0.00000   0.00000   0.00000
 -3.75940   0.00000   0.00000   0.00000   0.00000
 -3.70927   0.00127   0.00001   0.01223   0.01537
 -3.65915   0.09113   0.00464   0.93955   1.06366
 -3.60902   0.14086   0.00851   1.36656   1.59714
 -3.55890   0.06790   0.00459   0.57799   0.75823
 -3.50877   0.13993   0.00798   1.00561   1.46494
 -3.45865   0.11370   0.00650   0.75864   1.15855
 -3.40852   0.00403   0.00009   0.02874   0.04205
 -3.35840   0.00000   0.00000   0.00000   0.00000
 -3.30827   0.00000   0.00000   0.00000   0.00000
 -3.25815   0.00000   0.00000   0.00000   0.00000
 -3.20802   0.00000   0.00000   0.00000   0.00000
 -3.15789   0.00000   0.00000   0.00000   0.00000
 -3.10777   0.00000   0.00000   0.00000   0.00000
 -3.05764   0.00000   0.00000   0.00000   0.00000
 -3.00752   0.00000   0.00000   0.00000   0.00000
 -2.95739   0.00000   0.00000   0.00000   0.00000
 -2.90727   0.00000   0.00000   0.00000   0.00000
 -2.85714   0.00000   0.00000   0.00000   0.00000
 -2.80702   0.00000   0.00000   0.00000   0.00000
 -2.75689   0.00000   0.00000   0.00000   0.00000
 -2.70677   0.00000   0.00000   0.00000   0.00000
 -2.65664   0.00000   0.00000   0.00000   0.00000
 -2.60652   0.00000   0.00000   0.00000   0.00000
 -2.55639   0.00000   0.00000   0.00000   0.00000
 -2.50627   0.00000   0.00000   0.00000   0.00000
 -2.45614   0.00000   0.00000   0.00000   0.00000
 -2.40602   0.00000   0.00000   0.00000   0.00000
 -2.35589   0.00000   0.00000   0.00000   0.00000
 -2.30576   0.00000   0.00000   0.00000   0.00000
 -2.25564   0.00000   0.00000   0.00000   0.00000
 -2.20551   0.00009   0.02865   0.01039   0.02489
 -2.15539   0.00113   0.34259   0.14376   0.23147
 -2.10526   0.00335   1.24057   0.44993   0.45281
 -2.05514   0.00324   0.94705   0.49279   0.39755
 -2.00501   0.00662   0.81967   0.93592   0.71058
 -1.95489   0.00766   0.81789   1.01722   0.64855
 -1.90476   0.00146   0.25615   0.20647   0.07797
 -1.85464   0.00004   0.02418   0.00498   0.00175
 -1.80451   0.00060   0.01511   0.11462   0.06332
 -1.75439   0.00510   0.20329   0.64343   0.34162
 -1.70426   0.00670   0.51771   0.74657   0.57928
 -1.65414   0.00221   0.33005   0.25862   0.27201
 -1.60401   0.00272   1.15114   0.22810   0.39069
 -1.55388   0.00174   0.81502   0.09227   0.20586
 -1.50376   0.00033   0.49228   0.02161   0.01803
 -1.45363   0.00001   0.04476   0.00103   0.00044
 -1.40351   0.00010   0.09397   0.15046   0.04595
 -1.35338   0.00036   0.34034   0.72429   0.24346
 -1.30326   0.00079   0.91028   1.97087   0.84221
 -1.25313   0.00034   0.63055   1.62896   0.94980
 -1.20301   0.00011   0.53102   0.75824   0.60500
 -1.15288   0.00010   0.75205   0.59561   0.81465
 -1.10276   0.00007   1.49497   0.90725   2.04114
 -1.05263   0.00007   1.20477   0.70038   1.33034
 -1.00251   0.00001   1.01961   0.59625   0.57627
 -0.95238  -0.00005   1.48044   1.04509   1.18484
 -0.90226   0.00003   0.67715   0.62938   0.78043
 -0.85213  -0.00001   1.04836   0.80527   0.97480
 -0.80201   0.00065   0.99122   0.85678   0.79046
 -0.75188   0.00130   0.76308   1.05993   1.77428
 -0.70175   0.00176   1.19109   1.77368   1.97295
 -0.65163   0.00080   1.60479   0.82611   0.81320
 -0.60150   0.00009   0.58002   0.10634   0.27203
 -0.55138  -0.00000   0.12868   0.00784   0.01731
 -0.50125   0.00002   0.00245   0.04295   0.00874
 -0.45113   0.00075   0.15004   1.42415   0.23939
 -0.40100   0.00103   0.48559   1.77240   0.40743
 -0.35088   0.00098   1.72668   1.14852   0.59405
 -0.30075   0.00105   3.23018   0.72536   0.68383
 -0.25063   0.00046   4.09601   0.45115   0.34539
 -0.20050   0.00033   4.00125   0.52017   0.40813
 -0.15038   0.00083   1.89665   1.04017   1.04164
 -0.10025   0.00103   0.39836   0.95547   1.09114
 -0.05013   0.00054   0.08517   0.71025   0.71683
  0.00000   0.00007   0.00709   0.12050   0.11056
  0.05013   0.00000   0.00000   0.00000   0.00000
  0.10025   0.00000   0.00000   0.00000   0.00000
  0.15038   0.00000   0.00000   0.00000   0.00000
  0.20050   0.00000   0.00000   0.00000   0.00000
  0.25063   0.00000   0.00000   0.00000   0.00000
  0.30075   0.00000   0.00000   0.00000   0.00000
  0.35088   0.00000   0.00000   0.00000   0.00000
  0.40100   0.00000   0.00000   0.00000   0.00000
  0.45113   0.00000   0.00000   0.00000   0.00000
  0.50125   0.00000   0.00000   0.00000   0.00000
  0.55138   0.00000   0.00000   0.00000   0.00000
  0.60150   0.00000   0.00000   0.00000   0.00000
  0.65163   0.00000   0.00000   0.00000   0.00000
  0.70175   0.00000   0.00000   0.00000   0.00000
  0.75188   0.00000   0.00000   0.00000   0.00000
  0.80201   0.00000   0.00000   0.00000   0.00000
  0.85213   0.00000   0.00000   0.00000   0.00000
  0.90226   0.00000   0.00000   0.00000   0.00000
  0.95238   0.00000   0.00000   0.00000   0.00000
  1.00251   0.00000   0.00000   0.00000   0.00000
  1.05263   0.00000   0.00000   0.00000   0.00000
  1.10276   0.00000   0.00000   0.00000   0.00000
  1.15288   0.00000   0.00000   0.00000   0.00000
  1.20301   0.00000   0.00000   0.00000   0.00000
  1.25313   0.00000   0.00000   0.00000   0.00000
  1.30326   0.00000   0.00000   0.00000   0.00000
  1.35338   0.00000   0.00000   0.00000   0.00000
  1.40351   0.00000   0.00000   0.00000   0.00000
  1.45363   0.00000   0.00000   0.00000   0.00000
  1.50376   0.00000   0.00000   0.00000   0.00000
  1.55388   0.00000   0.00000   0.00000   0.00000
  1.60401   0.00000   0.00000   0.00000   0.00000
  1.65414   0.00000   0.00000   0.00000   0.00000
  1.70426   0.00000   0.00000   0.00000   0.00000
  1.75439   0.00000   0.00000   0.00000   0.00000
  1.80451   0.00000   0.00000   0.00000   0.00000
  1.85464   0.00000   0.00000   0.00000   0.00000
  1.90476   0.01085   0.00173   0.20671   0.36071
  1.95489   0.08327   0.02839   1.75657   2.71049
  2.00501   0.07102   0.01566   1.75331   2.15863
  2.05514   0.05234   0.01754   1.32355   1.64950
  2.10526   0.00101   0.00024   0.02824   0.03830
  2.15539   0.00000   0.00000   0.00000   0.00000
  2.20551   0.00000   0.00000   0.00000   0.00000
  2.25564   0.00000   0.00000   0.00000   0.00000
  2.30576   0.00000   0.00000   0.00000   0.00000
  2.35589   0.00000   0.00000   0.00000   0.00000
  2.40602   0.00000   0.00000   0.00000   0.00000
  2.45614   0.00000   0.00000   0.00000   0.00000
  2.50627   0.00000   0.00000   0.00000   0.00000
  2.55639   0.00000   0.00000   0.00000   0.00000
  2.60652   0.00000   0.00000   0.00000   0.00000
  2.65664   0.00000   0.00000   0.00000   0.00000
  2.70677   0.00000   0.00000   0.00000   0.00000
  2.75689   0.00000   0.00000   0.00000   0.00000
  2.80702   0.00000   0.00000   0.00000   0.00000
  2.85714   0.00000   0.00000   0.00000   0.00000
  2.90727   0.00000   0.00000   0.00000   0.00000
  2.95739   0.00000   0.00000   0.00000   0.00000
  3.00752   0.00000   0.00000   0.00000   0.00000
  3.05764   0.00000   0.00000   0.00000   0.00000
  3.10777   0.00000   0.00000   0.00000   0.00000
  3.15789   0.00000   0.00000   0.00000   0.00000
  3.20802   0.00000   0.00000   0.00000   0.00000
  3.25815   0.00000   0.00000   0.00000   0.00000
  3.30827   0.00000   0.00000   0.00000   0.00000
  3.35840   0.00000   0.00000   0.00000   0.00000
  3.40852   0.00000   0.00000   0.00000   0.00000
  3.45865   0.00000   0.00000   0.00000   0.00000
  3.50877   0.00000   0.00000   0.00000   0.00000
  3.55890   0.00000   0.00000   0.00000   0.00000
  3.60902   0.00000   0.00000   0.00000   0.00000
  3.65915   0.00000   0.00000   0.00000   0.00000
  3.70927   0.00000   0.00000   0.00000   0.00000
  3.75940   0.00000   0.00000   0.00000   0.00000
  3.80952   0.00000   0.00000   0.00000   0.00000
  3.85965   0.00000   0.00000   0.00000   0.00000
  3.90977   0.00000   0.00000   0.00000   0.00000
  3.95990   0.00000   0.00000   0.00000   0.00000
  4.01003   0.00000   0.00000   0.00000   0.00000
  4.06015   0.00000   0.00000   0.00000   0.00000
  4.11028   0.00000   0.00000   0.00000   0.00000
  4.16040   0.00001   0.00000   0.00004   0.00004
  4.21053   0.00008   0.00002   0.00021   0.00022
  4.26065   0.00022   0.00006   0.00056   0.00058
  4.31078   0.00042   0.00013   0.00111   0.00114
  4.36090   0.00063   0.00023   0.00175   0.00178
  4.41103   0.00078   0.00033   0.00224   0.00220
  4.46115   0.00088   0.00041   0.00261   0.00242
  4.51128   0.00101   0.00052   0.00305   0.00265
  4.56140   0.00120   0.00065   0.00366   0.00300
  4.61153   0.00150   0.00083   0.00471   0.00352
  4.66165   0.00195   0.00106   0.00658   0.00437
  4.71178   0.00223   0.00131   0.00742   0.00490
  4.76190   0.00228   0.00155   0.00712   0.00534
  4.81203   0.00225   0.00185   0.00664   0.00634
  4.86216   0.00234   0.00230   0.00658   0.00763
  4.91228   0.00249   0.00280   0.00653   0.00896
  4.96241   0.00281   0.00334   0.00680   0.01039
  5.01253   0.00418   0.00412   0.00990   0.01219
  5.06266   0.00531   0.00510   0.01033   0.01271
  5.11278   0.00964   0.00908   0.00992   0.01794
  5.16291   0.01852   0.01914   0.01718   0.02098
  5.21303   0.02931   0.03961   0.04839   0.05275
  5.26316   0.03134   0.04169   0.05921   0.04805
  5.31328   0.02929   0.03494   0.05887   0.04858
  5.36341   0.01803   0.02083   0.01916   0.02094
  5.41353   0.01248   0.01114   0.00894   0.00962
  5.46366   0.00041   0.00010   0.00008   0.00015
  5.51378   0.00000   0.00000   0.00000   0.00000
  5.56391   0.00000   0.00000   0.00000   0.00000
  5.61404   0.00000   0.00000   0.00000   0.00000
  5.66416   0.00000   0.00000   0.00000   0.00000
  5.71429   0.00000   0.00000   0.00000   0.00000
  5.76441   0.00000   0.00000   0.00000   0.00000
  5.81454   0.00000   0.00000   0.00000   0.00000
  5.86466   0.00000   0.00000   0.00000   0.00000
  5.91479   0.00000   0.00000   0.00000   0.00000
  5.96491   0.00000   0.00000   0.00000   0.00000
  6.01504   0.00000   0.00000   0.00000   0.00000
  6.06516   0.00000   0.00000   0.00000   0.00000
  6.11529   0.00000   0.00000   0.00000   0.00000
  6.16541   0.00000   0.00000   0.00000   0.00000
  6.21554   0.00000   0.00000   0.00000   0.00000
  6.26566   0.00000   0.00000   0.00000   0.00000
  6.31579   0.00000   0.00000   0.00000   0.00000
  6.36591   0.00000   0.00000   0.00000   0.00000
  6.41604   0.00000   0.00000   0.00000   0.00000
  6.46617   0.00000   0.00000   0.00000   0.00000
  6.51629   0.00000   0.00000   0.00000   0.00000
  6.56642   0.00000   0.00000   0.00000   0.00000
  6.61654   0.00000   0.00000   0.00000   0.00000
  6.66667   0.00000   0.00000   0.00000   0.00000
  6.71679   0.00000   0.00000   0.00000   0.00000
  6.76692   0.00000   0.00000   0.00000   0.00000
  6.81704   0.00000   0.00000   0.00000   0.00000
  6.86717   0.00000   0.00000   0.00000   0.00000
  6.91729   0.00000   0.00000   0.00000   0.00000
  6.96742   0.00000   0.00000   0.00000   0.00000
  7.01754   0.00000   0.00000   0.00000   0.00000
  7.06767   0.00000   0.00000   0.00000   0.00000
  7.11779   0.00000   0.00000   0.00000   0.00000
  7.16792   0.00000   0.00000   0.00000   0.00000
  7.21805   0.00000   0.00000   0.00000   0.00000
  7.26817   0.00000   0.00000   0.00000   0.00000
  7.31830   0.00000   0.00000   0.00000   0.00000
  7.36842   0.00000   0.00000   0.00000   0.00000
  7.41855   0.00000   0.00000   0.00000   0.00000
  7.46867   0.00000   0.00000   0.00000   0.00000
  7.51880   0.00000   0.00000   0.00000   0.00000
  7.56892   0.00000   0.00000   0.00000   0.00000
  7.61905   0.00000   0.00000   0.00000   0.00000
  7.66917   0.00000   0.00000   0.00000   0.00000
  7.71930   0.00000   0.00000   0.00000   0.00000
  7.76942   0.00000   0.00000   0.00000   0.00000
  7.81955   0.00000   0.00000   0.00000   0.00000
  7.86967   0.00000   0.00000   0.00000   0.00000
  7.91980   0.00000   0.00000   0.00000   0.00000
  7.96992   0.00000   0.00000   0.00000   0.00000
  8.02005   0.00000   0.00000   0.00000   0.00000
  8.07018   0.00000   0.00000   0.00000   0.00000
  8.12030   0.00000   0.00000   0.00000   0.00000
  8.17043   0.00000   0.00000   0.00000   0.00000
  8.22055   0.00000   0.00000   0.00000   0.00000
  8.27068   0.00000   0.00000   0.00000   0.00000
  8.32080   0.00000   0.00000   0.00000   0.00000
  8.37093   0.00000   0.00000   0.00000   0.00000
  8.42105   0.00000   0.00000   0.00000   0.00000
  8.47118   0.00000   0.00000   0.00000   0.00000
  8.52130   0.00000   0.00000   0.00000   0.00000
  8.57143   0.00000   0.00000   0.00000   0.00000
  8.62155   0.00000   0.00000   0.00000   0.00000
  8.67168   0.00000   0.00000   0.00000   0.00000
  8.72180   0.00000   0.00000   0.00000   0.00000
  8.77193   0.00000   0.00000   0.00000   0.00000
  8.82206   0.00000   0.00000   0.00000   0.00000
  8.87218   0.00000   0.00000   0.00000   0.00000
  8.92231   0.00000   0.00000   0.00000   0.00000
  8.97243   0.00000   0.00000   0.00000   0.00000
  9.02256   0.00000   0.00000   0.00000   0.00000
  9.07268   0.00000   0.00000   0.00000   0.00000
  9.12281   0.00000   0.00000   0.00000   0.00000
  9.17293   0.00000   0.00000   0.00000   0.00000
  9.22306   0.00000   0.00000   0.00000   0.00000
  9.27318   0.00000   0.00000   0.00000   0.00000
  9.32331   0.00000   0.00000   0.00000   0.00000
  9.37343   0.00000   0.00000   0.00000   0.00000
  9.42356   0.00000   0.00000   0.00000   0.00000
  9.47368   0.00000   0.00000   0.00000   0.00000
  9.52381   0.00000   0.00000   0.00000   0.00000
  9.57393   0.00000   0.00000   0.00000   0.00000
  9.62406   0.00000   0.00000   0.00000   0.00000
  9.67419   0.00000   0.00000   0.00000   0.00000
  9.72431   0.00000   0.00000   0.00000   0.00000
  9.77444   0.00000   0.00000   0.00000   0.00000
  9.82456   0.00000   0.00000   0.00000   0.00000
  9.87469   0.00000   0.00000   0.00000   0.00000
  9.92481   0.00000   0.00000   0.00000   0.00000
  9.97494   0.00000   0.00000   0.00000   0.00000
 10.02506   0.00000   0.00000   0.00000   0.00000
     10.02506266     -10.02506266   401       0.43334965       1.00000000; Z= 53; 5s 5p_y 5p_z 5p_x 
-10.02506   0.00000   0.00000   0.00000   0.00000
 -9.97494   0.00000   0.00000   0.00000   0.00000
 -9.92481   0.00000   0.00000   0.00000   0.00000
 -9.87469   0.00000   0.00000   0.00000   0.00000
 -9.82456   0.00000   0.00000   0.00000   0.00000
 -9.77444   0.00000   0.00000   0.00000   0.00000
 -9.72431   0.00000   0.00000   0.00000   0.00000
 -9.67419   0.00000   0.00000   0.00000   0.00000
 -9.62406   0.00000   0.00000   0.00000   0.00000
 -9.57393   0.00000   0.00000   0.00000   0.00000
 -9.52381   0.00000   0.00000   0.00000   0.00000
 -9.47368   0.00000   0.00000   0.00000   0.00000
 -9.42356   0.00000   0.00000   0.00000   0.00000
 -9.37343   0.00000   0.00000   0.00000   0.00000
 -9.32331   0.00000   0.00000   0.00000   0.00000
 -9.27318   0.00000   0.00000   0.00000   0.00000
 -9.22306   0.00000   0.00000   0.00000   0.00000
 -9.17293   0.00000   0.00000   0.00000   0.00000
 -9.12281   0.00000   0.00000   0.00000   0.00000
 -9.07268   0.00000   0.00000   0.00000   0.00000
 -9.02256   0.00000   0.00000   0.00000   0.00000
 -8.97243   0.00000   0.00000   0.00000   0.00000
 -8.92231   0.00000   0.00000   0.00000   0.00000
 -8.87218   0.00000   0.00000   0.00000   0.00000
 -8.82206   0.00000   0.00000   0.00000   0.00000
 -8.77193   0.00000   0.00000   0.00000   0.00000
 -8.72180   0.00000   0.00000   0.00000   0.00000
 -8.67168   0.00000   0.00000   0.00000   0.00000
 -8.62155   0.00000   0.00000   0.00000   0.00000
 -8.57143   0.00000   0.00000   0.00000   0.00000
 -8.52130   0.00000   0.00000   0.00000   0.00000
 -8.47118   0.00000   0.00000   0.00000   0.00000
 -8.42105   0.00000   0.00000   0.00000   0.00000
 -8.37093   0.00000   0.00000   0.00000   0.00000
 -8.32080   0.00000   0.00000   0.00000   0.00000
 -8.27068   0.00000   0.00000   0.00000   0.00000
 -8.22055   0.00000   0.00000   0.00000   0.00000
 -8.17043   0.00000   0.00000   0.00000   0.00000
 -8.12030   0.00000   0.00000   0.00000   0.00000
 -8.07018   0.00000   0.00000   0.00000   0.00000
 -8.02005   0.00000   0.00000   0.00000   0.00000
 -7.96992   0.00000   0.00000   0.00000   0.00000
 -7.91980   0.00000   0.00000   0.00000   0.00000
 -7.86967   0.00000   0.00000   0.00000   0.00000
 -7.81955   0.00000   0.00000   0.00000   0.00000
 -7.76942   0.00000   0.00000   0.00000   0.00000
 -7.71930   0.00000   0.00000   0.00000   0.00000
 -7.66917   0.00000   0.00000   0.00000   0.00000
 -7.61905   0.00000   0.00000   0.00000   0.00000
 -7.56892   0.00000   0.00000   0.00000   0.00000
 -7.51880   0.00000   0.00000   0.00000   0.00000
 -7.46867   0.00000   0.00000   0.00000   0.00000
 -7.41855   0.00000   0.00000   0.00000   0.00000
 -7.36842   0.00000   0.00000   0.00000   0.00000
 -7.31830   0.01736   0.01510   0.06671   0.03956
 -7.26817   0.04567   0.01387   0.05213   0.06463
 -7.21805   0.00420   0.00112   0.00056   0.00089
 -7.16792   0.00000   0.00000   0.00000   0.00000
 -7.11779   0.00000   0.00000   0.00000   0.00000
 -7.06767   0.00000   0.00000   0.00000   0.00000
 -7.01754   0.00000   0.00000   0.00000   0.00000
 -6.96742   0.00000   0.00000   0.00000   0.00000
 -6.91729   0.00000   0.00000   0.00000   0.00000
 -6.86717   0.00000   0.00000   0.00000   0.00000
 -6.81704   0.00000   0.00000   0.00000   0.00000
 -6.76692   0.00000   0.00000   0.00000   0.00000
 -6.71679   0.00000   0.00000   0.00000   0.00000
 -6.66667   0.00000   0.00000   0.00000   0.00000
 -6.61654   0.00000   0.00000   0.00000   0.00000
 -6.56642   0.00000   0.00000   0.00000   0.00000
 -6.51629   0.00000   0.00000   0.00000   0.00000
 -6.46617   0.00000   0.00000   0.00000   0.00000
 -6.41604   0.00000   0.00000   0.00000   0.00000
 -6.36591   0.00000   0.00000   0.00000   0.00000
 -6.31579   0.00000   0.00000   0.00000   0.00000
 -6.26566   0.00000   0.00000   0.00000   0.00000
 -6.21554   0.00000   0.00000   0.00000   0.00000
 -6.16541   0.00000   0.00000   0.00000   0.00000
 -6.11529   0.00000   0.00000   0.00000   0.00000
 -6.06516   0.00000   0.00000   0.00000   0.00000
 -6.01504   0.00000   0.00000   0.00000   0.00000
 -5.96491   0.00000   0.00000   0.00000   0.00000
 -5.91479   0.00000   0.00000   0.00000   0.00000
 -5.86466   0.00000   0.00000   0.00000   0.00000
 -5.81454   0.00000   0.00000   0.00000   0.00000
 -5.76441   0.00000   0.00000   0.00000   0.00000
 -5.71429   0.00000   0.00000   0.00000   0.00000
 -5.66416   0.00000   0.00000   0.00000   0.00000
 -5.61404   0.00000   0.00000   0.00000   0.00000
 -5.56391   0.00000   0.00000   0.00000   0.00000
 -5.51378   0.00000   0.00000   0.00000   0.00000
 -5.46366   0.00000   0.00000   0.00000   0.00000
 -5.41353   0.00000   0.00000   0.00000   0.00000
 -5.36341   0.00000   0.00000   0.00000   0.00000
 -5.31328   0.00000   0.00000   0.00000   0.00000
 -5.26316   0.00000   0.00000   0.00000   0.00000
 -5.21303   0.00000   0.00000   0.00000   0.00000
 -5.16291   0.00000   0.00000   0.00000   0.00000
 -5.11278   0.00000   0.00000   0.00000   0.00000
 -5.06266   0.00000   0.00000   0.00000   0.00000
 -5.01253   0.00000   0.00000   0.00000   0.00000
 -4.96241   0.00000   0.00000   0.00000   0.00000
 -4.91228   0.00000   0.00000   0.00000   0.00000
 -4.86216   0.00000   0.00000   0.00000   0.00000
 -4.81203   0.00000   0.00000   0.00000   0.00000
 -4.76190   0.00000   0.00000   0.00000   0.00000
 -4.71178   0.00000   0.00000   0.00000   0.00000
 -4.66165   0.00000   0.00000   0.00000   0.00000
 -4.61153   0.00000   0.00000   0.00000   0.00000
 -4.56140   0.00000   0.00000   0.00000   0.00000
 -4.51128   0.00000   0.00000   0.00000   0.00000
 -4.46115   0.00000   0.00000   0.00000   0.00000
 -4.41103   0.00000   0.00000   0.00000   0.00000
 -4.36090   0.00000   0.00000   0.00000   0.00000
 -4.31078   0.00000   0.00000   0.00000   0.00000
 -4.26065   0.00000   0.00000   0.00000   0.00000
 -4.21053   0.00000   0.00000   0.00000   0.00000
 -4.16040   0.00000   0.00000   0.00000   0.00000
 -4.11028   0.00000   0.00000   0.00000   0.00000
 -4.06015   0.00000   0.00000   0.00000   0.00000
 -4.01003   0.00000   0.00000   0.00000   0.00000
 -3.95990   0.00000   0.00000   0.00000   0.00000
 -3.90977   0.00000   0.00000   0.00000   0.00000
 -3.85965   0.00000   0.00000   0.00000   0.00000
 -3.80952   0.00000   0.00000   0.00000   0.00000
 -3.75940   0.00000   0.00000   0.00000   0.00000
 -3.70927   0.00127   0.00001   0.01223   0.01537
 -3.65915   0.08630   0.00459   0.90503   1.01305
 -3.60902   0.13978   0.00841   1.35726   1.58539
 -3.55890   0.06691   0.00449   0.56109   0.74656
 -3.50877   0.14178   0.00811   1.02139   1.48546
 -3.45865   0.11875   0.00662   0.80348   1.21230
 -3.40852   0.00403   0.00009   0.02874   0.04205
 -3.35840   0.00000   0.00000   0.00000   0.00000
 -3.30827   0.00000   0.00000   0.00000   0.00000
 -3.25815   0.00000   0.00000   0.00000   0.00000
 -3.20802   0.00000   0.00000   0.00000   0.00000
 -3.15789   0.00000   0.00000   0.00000   0.00000
 -3.10777   0.00000   0.00000   0.00000   0.00000
 -3.05764   0.00000   0.00000   0.00000   0.00000
 -3.00752   0.00000   0.00000   0.00000   0.00000
 -2.95739   0.00000   0.00000   0.00000   0.00000
 -2.90727   0.00000   0.00000   0.00000   0.00000
 -2.85714   0.00000   0.00000   0.00000   0.00000
 -2.80702   0.00000   0.00000   0.00000   0.00000
 -2.75689   0.00000   0.00000   0.00000   0.00000
 -2.70677   0.00000   0.00000   0.00000   0.00000
 -2.65664   0.00000   0.00000   0.00000   0.00000
 -2.60652   0.00000   0.00000   0.00000   0.00000
 -2.55639   0.00000   0.00000   0.00000   0.00000
 -2.50627   0.00000   0.00000   0.00000   0.00000
 -2.45614   0.00000   0.00000   0.00000   0.00000
 -2.40602   0.00000   0.00000   0.00000   0.00000
 -2.35589   0.00000   0.00000   0.00000   0.00000
 -2.30576   0.00000   0.00000   0.00000   0.00000
 -2.25564   0.00000   0.00000   0.00000   0.00000
 -2.20551   0.00009   0.02865   0.01039   0.02489
 -2.15539   0.00121   0.35440   0.12116   0.22686
 -2.10526   0.00342   1.25375   0.43435   0.44714
 -2.05514   0.00332   0.94611   0.48298   0.39550
 -2.00501   0.00668   0.82353   0.92704   0.71544
 -1.95489   0.00736   0.79149   1.07038   0.65616
 -1.90476   0.00145   0.25466   0.21022   0.07775
 -1.85464   0.00004   0.02418   0.00474   0.00185
 -1.80451   0.00057   0.01547   0.09087   0.07300
 -1.75439   0.00513   0.20336   0.60428   0.35363
 -1.70426   0.00685   0.51565   0.78335   0.56026
 -1.65414   0.00206   0.32976   0.28571   0.26908
 -1.60401   0.00272   1.13870   0.22900   0.38789
 -1.55388   0.00174   0.80564   0.09124   0.20709
 -1.50376   0.00034   0.51522   0.02094   0.01981
 -1.45363   0.00001   0.04548   0.00103   0.00047
 -1.40351   0.00010   0.09397   0.15046   0.04595
 -1.35338   0.00035   0.34711   0.70796   0.22400
 -1.30326   0.00081   0.92779   1.92526   0.78661
 -1.25313   0.00034   0.61317   1.67591   1.00886
 -1.20301   0.00009   0.52677   0.71646   0.59689
 -1.15288   0.00008   0.77353   0.46993   0.77487
 -1.10276   0.00009   1.48662   0.98722   2.07693
 -1.05263   0.00005   1.16389   0.75120   1.37513
 -1.00251  -0.00004   0.98296   0.61126   0.59365
 -0.95238  -0.00001   1.50027   1.06657   1.16487
 -0.90226   0.00009   0.70824   0.63430   0.76566
 -0.85213   0.00011   0.98944   0.75685   0.94256
 -0.80201   0.00053   1.03394   0.85412   0.80478
 -0.75188   0.00130   0.78225   1.09549   1.71228
 -0.70175   0.00171   1.11755   1.77650   2.05169
 -0.65163   0.00082   1.43807   0.84386   0.85199
 -0.60150   0.00008   0.79212   0.11141   0.23897
 -0.55138  -0.00000   0.16466   0.00783   0.01374
 -0.50125   0.00002   0.00072   0.04305   0.00880
 -0.45113   0.00075   0.07605   1.42245   0.23486
 -0.40100   0.00105   0.32536   1.75824   0.38911
 -0.35088   0.00105   1.95238   1.11770   0.58099
 -0.30075   0.00103   3.26174   0.73731   0.68411
 -0.25063   0.00039   3.67350   0.47203   0.35833
 -0.20050   0.00032   4.27132   0.52811   0.42692
 -0.15038   0.00087   2.03714   0.90279   0.98569
 -0.10025   0.00100   0.40342   1.05831   1.13294
 -0.05013   0.00053   0.07037   0.75064   0.73499
  0.00000   0.00007   0.00709   0.12050   0.11056
  0.05013   0.00000   0.00000   0.00000   0.00000
  0.10025   0.00000   0.00000   0.00000   0.00000
  0.15038   0.00000   0.00000   0.00000   0.00000
  0.20050   0.00000   0.00000   0.00000   0.00000
  0.25063   0.00000   0.00000   0.00000   0.00000
  0.30075   0.00000   0.00000   0.00000   0.00000
  0.35088   0.00000   0.00000   0.00000   0.00000
  0.40100   0.00000   0.00000   0.00000   0.00000
  0.45113   0.00000   0.00000   0.00000   0.00000
  0.50125   0.00000   0.00000   0.00000   0.00000
  0.55138   0.00000   0.00000   0.00000   0.00000
  0.60150   0.00000   0.00000   0.00000   0.00000
  0.65163   0.00000   0.00000   0.00000   0.00000
  0.70175   0.00000   0.00000   0.00000   0.00000
  0.75188   0.00000   0.00000   0.00000   0.00000
  0.80201   0.00000   0.00000   0.00000   0.00000
  0.85213   0.00000   0.00000   0.00000   0.00000
  0.90226   0.00000   0.00000   0.00000   0.00000
  0.95238   0.00000   0.00000   0.00000   0.00000
  1.00251   0.00000   0.00000   0.00000   0.00000
  1.05263   0.00000   0.00000   0.00000   0.00000
  1.10276   0.00000   0.00000   0.00000   0.00000
  1.15288   0.00000   0.00000   0.00000   0.00000
  1.20301   0.00000   0.00000   0.00000   0.00000
  1.25313   0.00000   0.00000   0.00000   0.00000
  1.30326   0.00000   0.00000   0.00000   0.00000
  1.35338   0.00000   0.00000   0.00000   0.00000
  1.40351   0.00000   0.00000   0.00000   0.00000
  1.45363   0.00000   0.00000   0.00000   0.00000
  1.50376   0.00000   0.00000   0.00000   0.00000
  1.55388   0.00000   0.00000   0.00000   0.00000
  1.60401   0.00000   0.00000   0.00000   0.00000
  1.65414   0.00000   0.00000   0.00000   0.00000
  1.70426   0.00000   0.00000   0.00000   0.00000
  1.75439   0.00000   0.00000   0.00000   0.00000
  1.80451   0.00000   0.00000   0.00000   0.00000
  1.85464   0.00000   0.00000   0.00000   0.00000
  1.90476   0.00943   0.00161   0.18024   0.32160
  1.95489   0.08389   0.02824   1.76603   2.72160
  2.00501   0.06936   0.01548   1.69096   2.07682
  2.05514   0.05476   0.01796   1.40321   1.75912
  2.10526   0.00101   0.00024   0.02825   0.03829
  2.15539   0.00000   0.00000   0.00000   0.00000
  2.20551   0.00000   0.00000   0.00000   0.00000
  2.25564   0.00000   0.00000   0.00000   0.00000
  2.30576   0.00000   0.00000   0.00000   0.00000
  2.35589   0.00000   0.00000   0.00000   0.00000
  2.40602   0.00000   0.00000   0.00000   0.00000
  2.45614   0.00000   0.00000   0.00000   0.00000
  2.50627   0.00000   0.00000   0.00000   0.00000
  2.55639   0.00000   0.00000   0.00000   0.00000
  2.60652   0.00000   0.00000   0.00000   0.00000
  2.65664   0.00000   0.00000   0.00000   0.00000
  2.70677   0.00000   0.00000   0.00000   0.00000
  2.75689   0.00000   0.00000   0.00000   0.00000
  2.80702   0.00000   0.00000   0.00000   0.00000
  2.85714   0.00000   0.00000   0.00000   0.00000
  2.90727   0.00000   0.00000   0.00000   0.00000
  2.95739   0.00000   0.00000   0.00000   0.00000
  3.00752   0.00000   0.00000   0.00000   0.00000
  3.05764   0.00000   0.00000   0.00000   0.00000
  3.10777   0.00000   0.00000   0.00000   0.00000
  3.15789   0.00000   0.00000   0.00000   0.00000
  3.20802   0.00000   0.00000   0.00000   0.00000
  3.25815   0.00000   0.00000   0.00000   0.00000
  3.30827   0.00000   0.00000   0.00000   0.00000
  3.35840   0.00000   0.00000   0.00000   0.00000
  3.40852   0.00000   0.00000   0.00000   0.00000
  3.45865   0.00000   0.00000   0.00000   0.00000
  3.50877   0.00000   0.00000   0.00000   0.00000
  3.55890   0.00000   0.00000   0.00000   0.00000
  3.60902   0.00000   0.00000   0.00000   0.00000
  3.65915   0.00000   0.00000   0.00000   0.00000
  3.70927   0.00000   0.00000   0.00000   0.00000
  3.75940   0.00000   0.00000   0.00000   0.00000
  3.80952   0.00000   0.00000   0.00000   0.00000
  3.85965   0.00000   0.00000   0.00000   0.00000
  3.90977   0.00000   0.00000   0.00000   0.00000
  3.95990   0.00000   0.00000   0.00000   0.00000
  4.01003   0.00000   0.00000   0.00000   0.00000
  4.06015   0.00000   0.00000   0.00000   0.00000
  4.11028   0.00000   0.00000   0.00000   0.00000
  4.16040   0.00001   0.00000   0.00004   0.00004
  4.21053   0.00008   0.00002   0.00021   0.00022
  4.26065   0.00022   0.00006   0.00056   0.00058
  4.31078   0.00042   0.00013   0.00111   0.00114
  4.36090   0.00063   0.00023   0.00175   0.00177
  4.41103   0.00078   0.00032   0.00222   0.00214
  4.46115   0.00088   0.00041   0.00258   0.00228
  4.51128   0.00101   0.00050   0.00300   0.00241
  4.56140   0.00120   0.00064   0.00360   0.00266
  4.61153   0.00150   0.00081   0.00463   0.00307
  4.66165   0.00195   0.00102   0.00648   0.00378
  4.71178   0.00223   0.00126   0.00730   0.00414
  4.76190   0.00228   0.00150   0.00702   0.00459
  4.81203   0.00227   0.00182   0.00661   0.00588
  4.86216   0.00240   0.00228   0.00663   0.00752
  4.91228   0.00259   0.00279   0.00664   0.00929
  4.96241   0.00295   0.00334   0.00697   0.01114
  5.01253   0.00434   0.00412   0.01009   0.01298
  5.06266   0.00547   0.00507   0.01052   0.01337
  5.11278   0.00973   0.00903   0.01007   0.01848
  5.16291   0.01866   0.01889   0.01729   0.02084
  5.21303   0.02881   0.03901   0.04772   0.05508
  5.26316   0.03135   0.04261   0.05915   0.04745
  5.31328   0.02936   0.03543   0.05911   0.04766
  5.36341   0.01795   0.02118   0.01921   0.02055
  5.41353   0.01245   0.01110   0.00899   0.00956
  5.46366   0.00041   0.00010   0.00008   0.00015
  5.51378   0.00000   0.00000   0.00000   0.00000
  5.56391   0.00000   0.00000   0.00000   0.00000
  5.61404   0.00000   0.00000   0.00000   0.00000
  5.66416   0.00000   0.00000   0.00000   0.00000
  5.71429   0.00000   0.00000   0.00000   0.00000
  5.76441   0.00000   0.00000   0.00000   0.00000
  5.81454   0.00000   0.00000   0.00000   0.00000
  5.86466   0.00000   0.00000   0.00000   0.00000
  5.91479   0.00000   0.00000   0.00000   0.00000
  5.96491   0.00000   0.00000   0.00000   0.00000
  6.01504   0.00000   0.00000   0.00000   0.00000
  6.06516   0.00000   0.00000   0.00000   0.00000
  6.11529   0.00000   0.00000   0.00000   0.00000
  6.16541   0.00000   0.00000   0.00000   0.00000
  6.21554   0.00000   0.00000   0.00000   0.00000
  6.26566   0.00000   0.00000   0.00000   0.00000
  6.31579   0.00000   0.00000   0.00000   0.00000
  6.36591   0.00000   0.00000   0.00000   0.00000
  6.41604   0.00000   0.00000   0.00000   0.00000
  6.46617   0.00000   0.00000   0.00000   0.00000
  6.51629   0.00000   0.00000   0.00000   0.00000
  6.56642   0.00000   0.00000   0.00000   0.00000
  6.61654   0.00000   0.00000   0.00000   0.00000
  6.66667   0.00000   0.00000   0.00000   0.00000
  6.71679   0.00000   0.00000   0.00000   0.00000
  6.76692   0.00000   0.00000   0.00000   0.00000
  6.81704   0.00000   0.00000   0.00000   0.00000
  6.86717   0.00000   0.00000   0.00000   0.00000
  6.91729   0.00000   0.00000   0.00000   0.00000
  6.96742   0.00000   0.00000   0.00000   0.00000
  7.01754   0.00000   0.00000   0.00000   0.00000
  7.06767   0.00000   0.00000   0.00000   0.00000
  7.11779   0.00000   0.00000   0.00000   0.00000
  7.16792   0.00000   0.00000   0.00000   0.00000
  7.21805   0.00000   0.00000   0.00000   0.00000
  7.26817   0.00000   0.00000   0.00000   0.00000
  7.31830   0.00000   0.00000   0.00000   0.00000
  7.36842   0.00000   0.00000   0.00000   0.00000
  7.41855   0.00000   0.00000   0.00000   0.00000
  7.46867   0.00000   0.00000   0.00000   0.00000
  7.51880   0.00000   0.00000   0.00000   0.00000
  7.56892   0.00000   0.00000   0.00000   0.00000
  7.61905   0.00000   0.00000   0.00000   0.00000
  7.66917   0.00000   0.00000   0.00000   0.00000
  7.71930   0.00000   0.00000   0.00000   0.00000
  7.76942   0.00000   0.00000   0.00000   0.00000
  7.81955   0.00000   0.00000   0.00000   0.00000
  7.86967   0.00000   0.00000   0.00000   0.00000
  7.91980   0.00000   0.00000   0.00000   0.00000
  7.96992   0.00000   0.00000   0.00000   0.00000
  8.02005   0.00000   0.00000   0.00000   0.00000
  8.07018   0.00000   0.00000   0.00000   0.00000
  8.12030   0.00000   0.00000   0.00000   0.00000
  8.17043   0.00000   0.00000   0.00000   0.00000
  8.22055   0.00000   0.00000   0.00000   0.00000
  8.27068   0.00000   0.00000   0.00000   0.00000
  8.32080   0.00000   0.00000   0.00000   0.00000
  8.37093   0.00000   0.00000   0.00000   0.00000
  8.42105   0.00000   0.00000   0.00000   0.00000
  8.47118   0.00000   0.00000   0.00000   0.00000
  8.52130   0.00000   0.00000   0.00000   0.00000
  8.57143   0.00000   0.00000   0.00000   0.00000
  8.62155   0.00000   0.00000   0.00000   0.00000
  8.67168   0.00000   0.00000   0.00000   0.00000
  8.72180   0.00000   0.00000   0.00000   0.00000
  8.77193   0.00000   0.00000   0.00000   0.00000
  8.82206   0.00000   0.00000   0.00000   0.00000
  8.87218   0.00000   0.00000   0.00000   0.00000
  8.92231   0.00000   0.00000   0.00000   0.00000
  8.97243   0.00000   0.00000   0.00000   0.00000
  9.02256   0.00000   0.00000   0.00000   0.00000
  9.07268   0.00000   0.00000   0.00000   0.00000
  9.12281   0.00000   0.00000   0.00000   0.00000
  9.17293   0.00000   0.00000   0.00000   0.00000
  9.22306   0.00000   0.00000   0.00000   0.00000
  9.27318   0.00000   0.00000   0.00000   0.00000
  9.32331   0.00000   0.00000   0.00000   0.00000
  9.37343   0.00000   0.00000   0.00000   0.00000
  9.42356   0.00000   0.00000   0.00000   0.00000
  9.47368   0.00000   0.00000   0.00000   0.00000
  9.52381   0.00000   0.00000   0.00000   0.00000
  9.57393   0.00000   0.00000   0.00000   0.00000
  9.62406   0.00000   0.00000   0.00000   0.00000
  9.67419   0.00000   0.00000   0.00000   0.00000
  9.72431   0.00000   0.00000   0.00000   0.00000
  9.77444   0.00000   0.00000   0.00000   0.00000
  9.82456   0.00000   0.00000   0.00000   0.00000
  9.87469   0.00000   0.00000   0.00000   0.00000
  9.92481   0.00000   0.00000   0.00000   0.00000
  9.97494   0.00000   0.00000   0.00000   0.00000
 10.02506   0.00000   0.00000   0.00000   0.00000
