 vasp.6.4.2 20Jul23 (build May 01 2025 16:49:15) complex                        
  
 executed on             LinuxIFC date 2026.03.02  16:51:38
 running   12 mpi-ranks, with    1 threads/rank, on    1 nodes
 distrk:  each k-point on   12 cores,    1 groups
 distr:  one band on NCORE=   1 cores,   12 groups


--------------------------------------------------------------------------------------------------------


 INCAR:
   ISTART = 1            (Read existing wavefunction, if there)
   ISPIN = 1            (Non-Spin polarised DFT)
   LREAL = .FALSE.       (Projection operators: automatic)
   ENCUT = 550        (Cut-off energy for plane wave basis set, in eV)
   NCORE = 1
   LWAVE = .TRUE.        (Write WAVECAR or not)
   LCHARG = .TRUE.        (Write CHGCAR or not)
   ADDGRID = .TRUE.        (Increase grid, helps GGA convergence)
   LASPH = .TRUE.        (Give more accurate total energies and band structure calculations)
   PREC = Accurate      (Accurate strictly avoids any aliasing or wrap around errors)
   ISMEAR = 0            (gaussian smearing method)
   SIGMA = 0.05         (please check the width of the smearing)
   LORBIT = 11           (PAW radii for projected DOS)
   NELM = 200           (Max electronic SCF steps)
   EDIFF = 1E-08        (SCF energy convergence, in eV)
   NBANDS = 140
   LWANNIER90 = .TRUE.
   LWRITE_MMN_AMN = .TRUE.
   LWRITE_WANPROJ = .TRUE.
   LWRITE_UNK = .TRUE.
   NUM_WANN = 36
   WANNIER90_WIN = \"\
FERMI_ENERGY \= 0.7121\
DIS_FROZ_MIN \= -5\
DIS_FROZ_MAX \= 3\
DIS_WIN_MIN \= -6\
DIS_WIN_MAX \= 3\
NUM_ITER \= 1000\
WRITE_HR \= TRUE\
begin projections\
I:p\
end projections\
\"

 POTCAR:    PAW_PBE Cs_sv 25Jan2019               
 POTCAR:    PAW_PBE I 08Apr2002                   
 POTCAR:    PAW_PBE Cs_sv 25Jan2019               
   SHA256 =  0e16bce67778f8d3e6a1e8d49098acae95c0f8d441dd09aee70633bcf454619d Cs_sv/POTCAR          
   COPYR  = (c) Copyright 25Jan2019 Georg Kresse                                                    
   COPYR  = This file is part of the software VASP. Any use, copying, and all other rights are regul
   COPYR  = If you do not have a valid VASP license, you may not use, copy or distribute this file. 
   VRHFIN =Cs: 5s5p6s                                                                               
   LEXCH  = PE                                                                                      
   EATOM  =   555.6835 eV,   40.8416 Ry                                                             
                                                                                                    
   TITEL  = PAW_PBE Cs_sv 25Jan2019                                                                 
   LULTRA =        F    use ultrasoft PP ?                                                          
   IUNSCR =        1    unscreen: 0-lin 1-nonlin 2-no                                               
   RPACOR =    1.800    partial core radius                                                         
   POMASS =  132.900; ZVAL   =    9.000    mass and valenz                                          
   RCORE  =    2.500    outmost cutoff radius                                                       
   RWIGS  =    2.500; RWIGS  =    1.323    wigner-seitz radius (au A)                               
   ENMAX  =  220.318; ENMIN  =  165.238 eV                                                          
   RCLOC  =    2.207    cutoff for local pot                                                        
   LCOR   =        T    correct aug charges                                                         
   LPAW   =        T    paw PP                                                                      
   EAUG   =  407.933                                                                                
   DEXC   =   -0.000                                                                                
   RMAX   =    2.554    core radius for proj-oper                                                   
   RAUG   =    1.300    factor for augmentation sphere                                              
   RDEP   =    2.590    radius for radial grids                                                     
   RDEPT  =    2.067    core radius for aug-charge                                                  
                                                                                                    
   Atomic configuration                                                                             
   13 entries                                                                                       
     n  l   j            E        occ.                                                              
     1  0  0.50    -35790.1377   2.0000                                                             
     2  0  0.50     -5613.6201   2.0000                                                             
     2  1  1.50     -5035.0101   6.0000                                                             
     3  0  0.50     -1167.0767   2.0000                                                             
     3  1  1.50      -980.9754   6.0000                                                             
     3  2  2.50      -708.0703  10.0000                                                             
     4  0  0.50      -220.2386   2.0000                                                             
     4  1  1.50      -160.7596   6.0000                                                             
     4  2  2.50       -74.2354  10.0000                                                             
     5  0  0.50       -26.7287   2.0000                                                             
     6  0  0.50        -2.0862   1.0000                                                             
     5  1  1.50       -13.5159   6.0000                                                             
     5  2  2.50        -0.4136   0.0000                                                             
   Description                                                                                      
     l       E           TYP  RCUT    TYP  RCUT                                                     
     0    -26.7287425     23  1.900                                                                 
     0     -2.0862306     23  1.900                                                                 
     1    -13.5158719     23  2.300                                                                 
     1     -2.7211652     23  2.300                                                                 
     2     -0.4136171     23  2.500                                                                 
  local pseudopotential read in
  partial core-charges read in
  partial kinetic energy density read in
  kinetic energy density of atom read in
  atomic valenz-charges read in
  non local Contribution for L=           0  read in
    real space projection operators read in
  non local Contribution for L=           0  read in
    real space projection operators read in
  non local Contribution for L=           1  read in
    real space projection operators read in
  non local Contribution for L=           1  read in
    real space projection operators read in
  non local Contribution for L=           2  read in
    real space projection operators read in
    PAW grid and wavefunctions read in
 
   number of l-projection  operators is LMAX  =           5
   number of lm-projection operators is LMMAX =          13
 
 POTCAR:    PAW_PBE I 08Apr2002                   
   SHA256 =  e40f3f59b681c1fc3e3091736183c4589116986673d2b852a5012aec72758799 I/POTCAR              
   COPYR  = (c) Copyright 08Apr2002 Georg Kresse                                                    
   COPYR  = This file is part of the software VASP. Any use, copying, and all other rights are regul
   COPYR  = If you do not have a valid VASP license, you may not use, copy or distribute this file. 
   VRHFIN =I : s2p5                                                                                 
   LEXCH  = PE                                                                                      
   EATOM  =   315.8678 eV,   23.2156 Ry                                                             
                                                                                                    
   TITEL  = PAW_PBE I 08Apr2002                                                                     
   LULTRA =        F    use ultrasoft PP ?                                                          
   IUNSCR =        1    unscreen: 0-lin 1-nonlin 2-no                                               
   RPACOR =    2.200    partial core radius                                                         
   POMASS =  126.904; ZVAL   =    7.000    mass and valenz                                          
   RCORE  =    2.300    outmost cutoff radius                                                       
   RWIGS  =    2.810; RWIGS  =    1.487    wigner-seitz radius (au A)                               
   ENMAX  =  175.647; ENMIN  =  131.735 eV                                                          
   ICORE  =        3    local potential                                                             
   LCOR   =        T    correct aug charges                                                         
   LPAW   =        T    paw PP                                                                      
   EAUG   =  370.139                                                                                
   DEXC   =    0.000                                                                                
   RMAX   =    2.359    core radius for proj-oper                                                   
   RAUG   =    1.300    factor for augmentation sphere                                              
   RDEP   =    2.392    radius for radial grids                                                     
   RDEPT  =    2.170    core radius for aug-charge                                                  
                                                                                                    
   Atomic configuration                                                                             
   13 entries                                                                                       
     n  l   j            E        occ.                                                              
     1  0  0.50    -32976.3739   2.0000                                                             
     2  0  0.50     -5094.5933   2.0000                                                             
     2  1  1.50     -4572.0131   6.0000                                                             
     3  0  0.50     -1028.2813   2.0000                                                             
     3  1  1.50      -859.0250   6.0000                                                             
     3  2  2.50      -605.7620  10.0000                                                             
     4  0  0.50      -180.5540   2.0000                                                             
     4  1  1.50      -127.5306   6.0000                                                             
     4  2  2.50       -50.2720  10.0000                                                             
     5  0  0.50       -17.4058   2.0000                                                             
     5  1  0.50        -7.0851   5.0000                                                             
     5  2  1.50        -7.0750   0.0000                                                             
     4  3  2.50        -7.0750   0.0000                                                             
   Description                                                                                      
     l       E           TYP  RCUT    TYP  RCUT                                                     
     0    -17.4058016     23  2.300                                                                 
     0    -18.7663842     23  2.300                                                                 
     1     -7.0850686     23  2.300                                                                 
     1     -4.2150896     23  2.300                                                                 
     2     -7.0750295     23  2.300                                                                 
     3     -1.3605826     23  2.300                                                                 
  local pseudopotential read in
  partial core-charges read in
  partial kinetic energy density read in
  atomic valenz-charges read in
  non local Contribution for L=           0  read in
    real space projection operators read in
  non local Contribution for L=           0  read in
    real space projection operators read in
  non local Contribution for L=           1  read in
    real space projection operators read in
  non local Contribution for L=           1  read in
    real space projection operators read in
  non local Contribution for L=           2  read in
    real space projection operators read in
    PAW grid and wavefunctions read in
 
   number of l-projection  operators is LMAX  =           5
   number of lm-projection operators is LMMAX =          13
 
  PAW_PBE Cs_sv 25Jan2019               :
 energy of atom  1       EATOM= -555.6835
 kinetic energy error for atom=    0.0019 (will be added to EATOM!!)
  PAW_PBE I 08Apr2002                   :
 energy of atom  2       EATOM= -315.8678
 kinetic energy error for atom=    0.0007 (will be added to EATOM!!)
 
 
 POSCAR: Generated by VASPKIT code
  positions in direct lattice
  velocities in cartesian coordinates
 exchange correlation table for  LEXCH =        8
   RHO(1)=    0.500       N(1)  =     2000
   RHO(2)=  100.500       N(2)  =     4000
 


--------------------------------------------------------------------------------------------------------


 ion  position               nearest neighbor table
   1  0.819  0.250  0.470-
   2  0.181  0.750  0.530-
   3  0.681  0.750  0.970-
   4  0.319  0.250  0.030-
   5  0.165  0.250  0.368-   9 3.02
   6  0.835  0.750  0.632-  10 3.02
   7  0.335  0.750  0.868-  11 3.02
   8  0.665  0.250  0.132-  12 3.02
   9  0.368  0.250  0.557-  13 2.90   5 3.02
  10  0.632  0.750  0.443-  14 2.90   6 3.02
  11  0.132  0.750  0.057-  15 2.90   7 3.02
  12  0.868  0.250  0.943-  16 2.90   8 3.02
  13  0.562  0.250  0.738-   9 2.90
  14  0.438  0.750  0.262-  10 2.90
  15  0.938  0.750  0.238-  11 2.90
  16  0.062  0.250  0.762-  12 2.90
 
  LATTYP: Found a simple orthorhombic cell.
 ALAT       =     7.2467427229
 B/A-ratio  =     1.4489963871
 C/A-ratio  =     1.5550496731
  
  Lattice vectors:
  
 A1 = (   0.0000000000,   7.2467427229,   0.0000000000)
 A2 = (   0.0000000000,   0.0000000000,  10.5005040234)
 A3 = (  11.2690449021,   0.0000000000,   0.0000000000)


Analysis of symmetry for initial positions (statically):
=====================================================================
 Subroutine PRICEL returns:
 Original cell was already a primitive cell.
 

 Routine SETGRP: Setting up the symmetry group for a 
 simple orthorhombic supercell.


 Subroutine GETGRP returns: Found  8 space group operations
 (whereof  2 operations were pure point group operations)
 out of a pool of  8 trial point group operations.


The static configuration has the point symmetry S_2 .
 The point group associated with its full space group is D_2h.


Analysis of symmetry for dynamics (positions and initial velocities):
=====================================================================
 Subroutine PRICEL returns:
 Original cell was already a primitive cell.
 

 Routine SETGRP: Setting up the symmetry group for a 
 simple orthorhombic supercell.


 Subroutine GETGRP returns: Found  8 space group operations
 (whereof  2 operations were pure point group operations)
 out of a pool of  8 trial point group operations.


The dynamic configuration has the point symmetry S_2 .
 The point group associated with its full space group is D_2h.


 Subroutine INISYM returns: Found  8 space group operations
 (whereof  2 operations are pure point group operations),
 and found     1 'primitive' translations


----------------------------------------------------------------------------------------

                                     Primitive cell                                     

  volume of cell :     857.5118

  direct lattice vectors                    reciprocal lattice vectors
    11.269044902  0.000000000  0.000000000     0.088738665  0.000000000  0.000000000
     0.000000000  7.246742723  0.000000000     0.000000000  0.137993032  0.000000000
     0.000000000  0.000000000 10.500504023     0.000000000  0.000000000  0.095233524

  length of vectors
    11.269044902  7.246742723 10.500504023     0.088738665  0.137993032  0.095233524

  position of ions in fractional coordinates (direct lattice)
     0.819069125  0.250000000  0.469583521
     0.180930875  0.750000000  0.530416479
     0.680930875  0.750000000  0.969583521
     0.319069125  0.250000000  0.030416479
     0.165283316  0.250000000  0.368353051
     0.834716684  0.750000000  0.631646949
     0.334716684  0.750000000  0.868353051
     0.665283316  0.250000000  0.131646949
     0.367579000  0.250000000  0.556695758
     0.632421000  0.750000000  0.443304242
     0.132421000  0.750000000  0.056695758
     0.867579000  0.250000000  0.943304242
     0.561881077  0.250000000  0.738012553
     0.438118923  0.750000000  0.261987447
     0.938118923  0.750000000  0.238012553
     0.061881077  0.250000000  0.761987447

  ion indices of the primitive-cell ions
   primitive index   ion index
                 1           1
                 2           2
                 3           3
                 4           4
                 5           5
                 6           6
                 7           7
                 8           8
                 9           9
                10          10
                11          11
                12          12
                13          13
                14          14
                15          15
                16          16

----------------------------------------------------------------------------------------

 
 
 KPOINTS: K-Spacing Value to Generate K-Mesh: 0.01

Automatic generation of k-mesh.
 Grid dimensions read from file:
 generate k-points for:    6    9    6

 Generating k-lattice:

  Cartesian coordinates                     Fractional coordinates (reciprocal lattice)
     0.014789777  0.000000000  0.000000000     0.166666667  0.000000000  0.000000000
     0.000000000  0.015332559  0.000000000     0.000000000  0.111111111  0.000000000
     0.000000000  0.000000000  0.015872254     0.000000000  0.000000000  0.166666667

  Length of vectors
     0.014789777  0.015332559  0.015872254

  Shift w.r.t. Gamma in fractional coordinates (k-lattice)
     0.000000000  0.000000000  0.000000000

 
 Subroutine IBZKPT returns following result:
 ===========================================
 
 Found     80 irreducible k-points:
 
 Following reciprocal coordinates:
            Coordinates               Weight
  0.000000  0.000000  0.000000      1.000000
  0.166667  0.000000  0.000000      2.000000
  0.333333  0.000000  0.000000      2.000000
  0.500000  0.000000  0.000000      1.000000
  0.000000  0.111111  0.000000      2.000000
  0.166667  0.111111  0.000000      4.000000
  0.333333  0.111111  0.000000      4.000000
  0.500000  0.111111  0.000000      2.000000
  0.000000  0.222222  0.000000      2.000000
  0.166667  0.222222  0.000000      4.000000
  0.333333  0.222222  0.000000      4.000000
  0.500000  0.222222  0.000000      2.000000
  0.000000  0.333333  0.000000      2.000000
  0.166667  0.333333  0.000000      4.000000
  0.333333  0.333333  0.000000      4.000000
  0.500000  0.333333  0.000000      2.000000
  0.000000  0.444444  0.000000      2.000000
  0.166667  0.444444  0.000000      4.000000
  0.333333  0.444444  0.000000      4.000000
  0.500000  0.444444  0.000000      2.000000
  0.000000  0.000000  0.166667      2.000000
  0.166667  0.000000  0.166667      4.000000
  0.333333  0.000000  0.166667      4.000000
  0.500000  0.000000  0.166667      2.000000
  0.000000  0.111111  0.166667      4.000000
  0.166667  0.111111  0.166667      8.000000
  0.333333  0.111111  0.166667      8.000000
  0.500000  0.111111  0.166667      4.000000
  0.000000  0.222222  0.166667      4.000000
  0.166667  0.222222  0.166667      8.000000
  0.333333  0.222222  0.166667      8.000000
  0.500000  0.222222  0.166667      4.000000
  0.000000  0.333333  0.166667      4.000000
  0.166667  0.333333  0.166667      8.000000
  0.333333  0.333333  0.166667      8.000000
  0.500000  0.333333  0.166667      4.000000
  0.000000  0.444444  0.166667      4.000000
  0.166667  0.444444  0.166667      8.000000
  0.333333  0.444444  0.166667      8.000000
  0.500000  0.444444  0.166667      4.000000
  0.000000  0.000000  0.333333      2.000000
  0.166667  0.000000  0.333333      4.000000
  0.333333  0.000000  0.333333      4.000000
  0.500000  0.000000  0.333333      2.000000
  0.000000  0.111111  0.333333      4.000000
  0.166667  0.111111  0.333333      8.000000
  0.333333  0.111111  0.333333      8.000000
  0.500000  0.111111  0.333333      4.000000
  0.000000  0.222222  0.333333      4.000000
  0.166667  0.222222  0.333333      8.000000
  0.333333  0.222222  0.333333      8.000000
  0.500000  0.222222  0.333333      4.000000
  0.000000  0.333333  0.333333      4.000000
  0.166667  0.333333  0.333333      8.000000
  0.333333  0.333333  0.333333      8.000000
  0.500000  0.333333  0.333333      4.000000
  0.000000  0.444444  0.333333      4.000000
  0.166667  0.444444  0.333333      8.000000
  0.333333  0.444444  0.333333      8.000000
  0.500000  0.444444  0.333333      4.000000
  0.000000  0.000000  0.500000      1.000000
  0.166667  0.000000  0.500000      2.000000
  0.333333  0.000000  0.500000      2.000000
  0.500000  0.000000  0.500000      1.000000
  0.000000  0.111111  0.500000      2.000000
  0.166667  0.111111  0.500000      4.000000
  0.333333  0.111111  0.500000      4.000000
  0.500000  0.111111  0.500000      2.000000
  0.000000  0.222222  0.500000      2.000000
  0.166667  0.222222  0.500000      4.000000
  0.333333  0.222222  0.500000      4.000000
  0.500000  0.222222  0.500000      2.000000
  0.000000  0.333333  0.500000      2.000000
  0.166667  0.333333  0.500000      4.000000
  0.333333  0.333333  0.500000      4.000000
  0.500000  0.333333  0.500000      2.000000
  0.000000  0.444444  0.500000      2.000000
  0.166667  0.444444  0.500000      4.000000
  0.333333  0.444444  0.500000      4.000000
  0.500000  0.444444  0.500000      2.000000
 
 Following cartesian coordinates:
            Coordinates               Weight
  0.000000  0.000000  0.000000      1.000000
  0.014790  0.000000  0.000000      2.000000
  0.029580  0.000000  0.000000      2.000000
  0.044369  0.000000  0.000000      1.000000
  0.000000  0.015333  0.000000      2.000000
  0.014790  0.015333  0.000000      4.000000
  0.029580  0.015333  0.000000      4.000000
  0.044369  0.015333  0.000000      2.000000
  0.000000  0.030665  0.000000      2.000000
  0.014790  0.030665  0.000000      4.000000
  0.029580  0.030665  0.000000      4.000000
  0.044369  0.030665  0.000000      2.000000
  0.000000  0.045998  0.000000      2.000000
  0.014790  0.045998  0.000000      4.000000
  0.029580  0.045998  0.000000      4.000000
  0.044369  0.045998  0.000000      2.000000
  0.000000  0.061330  0.000000      2.000000
  0.014790  0.061330  0.000000      4.000000
  0.029580  0.061330  0.000000      4.000000
  0.044369  0.061330  0.000000      2.000000
  0.000000  0.000000  0.015872      2.000000
  0.014790  0.000000  0.015872      4.000000
  0.029580  0.000000  0.015872      4.000000
  0.044369  0.000000  0.015872      2.000000
  0.000000  0.015333  0.015872      4.000000
  0.014790  0.015333  0.015872      8.000000
  0.029580  0.015333  0.015872      8.000000
  0.044369  0.015333  0.015872      4.000000
  0.000000  0.030665  0.015872      4.000000
  0.014790  0.030665  0.015872      8.000000
  0.029580  0.030665  0.015872      8.000000
  0.044369  0.030665  0.015872      4.000000
  0.000000  0.045998  0.015872      4.000000
  0.014790  0.045998  0.015872      8.000000
  0.029580  0.045998  0.015872      8.000000
  0.044369  0.045998  0.015872      4.000000
  0.000000  0.061330  0.015872      4.000000
  0.014790  0.061330  0.015872      8.000000
  0.029580  0.061330  0.015872      8.000000
  0.044369  0.061330  0.015872      4.000000
  0.000000  0.000000  0.031745      2.000000
  0.014790  0.000000  0.031745      4.000000
  0.029580  0.000000  0.031745      4.000000
  0.044369  0.000000  0.031745      2.000000
  0.000000  0.015333  0.031745      4.000000
  0.014790  0.015333  0.031745      8.000000
  0.029580  0.015333  0.031745      8.000000
  0.044369  0.015333  0.031745      4.000000
  0.000000  0.030665  0.031745      4.000000
  0.014790  0.030665  0.031745      8.000000
  0.029580  0.030665  0.031745      8.000000
  0.044369  0.030665  0.031745      4.000000
  0.000000  0.045998  0.031745      4.000000
  0.014790  0.045998  0.031745      8.000000
  0.029580  0.045998  0.031745      8.000000
  0.044369  0.045998  0.031745      4.000000
  0.000000  0.061330  0.031745      4.000000
  0.014790  0.061330  0.031745      8.000000
  0.029580  0.061330  0.031745      8.000000
  0.044369  0.061330  0.031745      4.000000
  0.000000  0.000000  0.047617      1.000000
  0.014790  0.000000  0.047617      2.000000
  0.029580  0.000000  0.047617      2.000000
  0.044369  0.000000  0.047617      1.000000
  0.000000  0.015333  0.047617      2.000000
  0.014790  0.015333  0.047617      4.000000
  0.029580  0.015333  0.047617      4.000000
  0.044369  0.015333  0.047617      2.000000
  0.000000  0.030665  0.047617      2.000000
  0.014790  0.030665  0.047617      4.000000
  0.029580  0.030665  0.047617      4.000000
  0.044369  0.030665  0.047617      2.000000
  0.000000  0.045998  0.047617      2.000000
  0.014790  0.045998  0.047617      4.000000
  0.029580  0.045998  0.047617      4.000000
  0.044369  0.045998  0.047617      2.000000
  0.000000  0.061330  0.047617      2.000000
  0.014790  0.061330  0.047617      4.000000
  0.029580  0.061330  0.047617      4.000000
  0.044369  0.061330  0.047617      2.000000
 
 
 Subroutine IBZKPT_HF returns following result:
 ==============================================
 
 Found    324 k-points in 1st BZ
 the following    324 k-points will be used (e.g. in the exchange kernel)
 Following reciprocal coordinates:   # in IRBZ
  0.000000  0.000000  0.000000    0.00308642   1 t-inv F
  0.166667  0.000000  0.000000    0.00308642   2 t-inv F
  0.333333  0.000000  0.000000    0.00308642   3 t-inv F
  0.500000  0.000000  0.000000    0.00308642   4 t-inv F
  0.000000  0.111111  0.000000    0.00308642   5 t-inv F
  0.166667  0.111111  0.000000    0.00308642   6 t-inv F
  0.333333  0.111111  0.000000    0.00308642   7 t-inv F
  0.500000  0.111111  0.000000    0.00308642   8 t-inv F
  0.000000  0.222222  0.000000    0.00308642   9 t-inv F
  0.166667  0.222222  0.000000    0.00308642  10 t-inv F
  0.333333  0.222222  0.000000    0.00308642  11 t-inv F
  0.500000  0.222222  0.000000    0.00308642  12 t-inv F
  0.000000  0.333333  0.000000    0.00308642  13 t-inv F
  0.166667  0.333333  0.000000    0.00308642  14 t-inv F
  0.333333  0.333333  0.000000    0.00308642  15 t-inv F
  0.500000  0.333333  0.000000    0.00308642  16 t-inv F
  0.000000  0.444444  0.000000    0.00308642  17 t-inv F
  0.166667  0.444444  0.000000    0.00308642  18 t-inv F
  0.333333  0.444444  0.000000    0.00308642  19 t-inv F
  0.500000  0.444444  0.000000    0.00308642  20 t-inv F
  0.000000  0.000000  0.166667    0.00308642  21 t-inv F
  0.166667  0.000000  0.166667    0.00308642  22 t-inv F
  0.333333  0.000000  0.166667    0.00308642  23 t-inv F
  0.500000  0.000000  0.166667    0.00308642  24 t-inv F
  0.000000  0.111111  0.166667    0.00308642  25 t-inv F
  0.166667  0.111111  0.166667    0.00308642  26 t-inv F
  0.333333  0.111111  0.166667    0.00308642  27 t-inv F
  0.500000  0.111111  0.166667    0.00308642  28 t-inv F
  0.000000  0.222222  0.166667    0.00308642  29 t-inv F
  0.166667  0.222222  0.166667    0.00308642  30 t-inv F
  0.333333  0.222222  0.166667    0.00308642  31 t-inv F
  0.500000  0.222222  0.166667    0.00308642  32 t-inv F
  0.000000  0.333333  0.166667    0.00308642  33 t-inv F
  0.166667  0.333333  0.166667    0.00308642  34 t-inv F
  0.333333  0.333333  0.166667    0.00308642  35 t-inv F
  0.500000  0.333333  0.166667    0.00308642  36 t-inv F
  0.000000  0.444444  0.166667    0.00308642  37 t-inv F
  0.166667  0.444444  0.166667    0.00308642  38 t-inv F
  0.333333  0.444444  0.166667    0.00308642  39 t-inv F
  0.500000  0.444444  0.166667    0.00308642  40 t-inv F
  0.000000  0.000000  0.333333    0.00308642  41 t-inv F
  0.166667  0.000000  0.333333    0.00308642  42 t-inv F
  0.333333  0.000000  0.333333    0.00308642  43 t-inv F
  0.500000  0.000000  0.333333    0.00308642  44 t-inv F
  0.000000  0.111111  0.333333    0.00308642  45 t-inv F
  0.166667  0.111111  0.333333    0.00308642  46 t-inv F
  0.333333  0.111111  0.333333    0.00308642  47 t-inv F
  0.500000  0.111111  0.333333    0.00308642  48 t-inv F
  0.000000  0.222222  0.333333    0.00308642  49 t-inv F
  0.166667  0.222222  0.333333    0.00308642  50 t-inv F
  0.333333  0.222222  0.333333    0.00308642  51 t-inv F
  0.500000  0.222222  0.333333    0.00308642  52 t-inv F
  0.000000  0.333333  0.333333    0.00308642  53 t-inv F
  0.166667  0.333333  0.333333    0.00308642  54 t-inv F
  0.333333  0.333333  0.333333    0.00308642  55 t-inv F
  0.500000  0.333333  0.333333    0.00308642  56 t-inv F
  0.000000  0.444444  0.333333    0.00308642  57 t-inv F
  0.166667  0.444444  0.333333    0.00308642  58 t-inv F
  0.333333  0.444444  0.333333    0.00308642  59 t-inv F
  0.500000  0.444444  0.333333    0.00308642  60 t-inv F
  0.000000  0.000000  0.500000    0.00308642  61 t-inv F
  0.166667  0.000000  0.500000    0.00308642  62 t-inv F
  0.333333  0.000000  0.500000    0.00308642  63 t-inv F
  0.500000  0.000000  0.500000    0.00308642  64 t-inv F
  0.000000  0.111111  0.500000    0.00308642  65 t-inv F
  0.166667  0.111111  0.500000    0.00308642  66 t-inv F
  0.333333  0.111111  0.500000    0.00308642  67 t-inv F
  0.500000  0.111111  0.500000    0.00308642  68 t-inv F
  0.000000  0.222222  0.500000    0.00308642  69 t-inv F
  0.166667  0.222222  0.500000    0.00308642  70 t-inv F
  0.333333  0.222222  0.500000    0.00308642  71 t-inv F
  0.500000  0.222222  0.500000    0.00308642  72 t-inv F
  0.000000  0.333333  0.500000    0.00308642  73 t-inv F
  0.166667  0.333333  0.500000    0.00308642  74 t-inv F
  0.333333  0.333333  0.500000    0.00308642  75 t-inv F
  0.500000  0.333333  0.500000    0.00308642  76 t-inv F
  0.000000  0.444444  0.500000    0.00308642  77 t-inv F
  0.166667  0.444444  0.500000    0.00308642  78 t-inv F
  0.333333  0.444444  0.500000    0.00308642  79 t-inv F
  0.500000  0.444444  0.500000    0.00308642  80 t-inv F
 -0.166667 -0.000000 -0.000000    0.00308642   2 t-inv F
 -0.333333 -0.000000 -0.000000    0.00308642   3 t-inv F
 -0.000000 -0.111111 -0.000000    0.00308642   5 t-inv F
 -0.166667 -0.111111 -0.000000    0.00308642   6 t-inv F
  0.166667 -0.111111 -0.000000    0.00308642   6 t-inv F
 -0.166667  0.111111  0.000000    0.00308642   6 t-inv F
 -0.333333 -0.111111 -0.000000    0.00308642   7 t-inv F
  0.333333 -0.111111 -0.000000    0.00308642   7 t-inv F
 -0.333333  0.111111  0.000000    0.00308642   7 t-inv F
 -0.500000 -0.111111 -0.000000    0.00308642   8 t-inv F
 -0.000000 -0.222222 -0.000000    0.00308642   9 t-inv F
 -0.166667 -0.222222 -0.000000    0.00308642  10 t-inv F
  0.166667 -0.222222 -0.000000    0.00308642  10 t-inv F
 -0.166667  0.222222  0.000000    0.00308642  10 t-inv F
 -0.333333 -0.222222 -0.000000    0.00308642  11 t-inv F
  0.333333 -0.222222 -0.000000    0.00308642  11 t-inv F
 -0.333333  0.222222  0.000000    0.00308642  11 t-inv F
 -0.500000 -0.222222 -0.000000    0.00308642  12 t-inv F
 -0.000000 -0.333333 -0.000000    0.00308642  13 t-inv F
 -0.166667 -0.333333 -0.000000    0.00308642  14 t-inv F
  0.166667 -0.333333 -0.000000    0.00308642  14 t-inv F
 -0.166667  0.333333  0.000000    0.00308642  14 t-inv F
 -0.333333 -0.333333 -0.000000    0.00308642  15 t-inv F
  0.333333 -0.333333 -0.000000    0.00308642  15 t-inv F
 -0.333333  0.333333  0.000000    0.00308642  15 t-inv F
 -0.500000 -0.333333 -0.000000    0.00308642  16 t-inv F
 -0.000000 -0.444444 -0.000000    0.00308642  17 t-inv F
 -0.166667 -0.444444 -0.000000    0.00308642  18 t-inv F
  0.166667 -0.444444 -0.000000    0.00308642  18 t-inv F
 -0.166667  0.444444  0.000000    0.00308642  18 t-inv F
 -0.333333 -0.444444 -0.000000    0.00308642  19 t-inv F
  0.333333 -0.444444 -0.000000    0.00308642  19 t-inv F
 -0.333333  0.444444  0.000000    0.00308642  19 t-inv F
 -0.500000 -0.444444 -0.000000    0.00308642  20 t-inv F
 -0.000000 -0.000000 -0.166667    0.00308642  21 t-inv F
 -0.166667 -0.000000 -0.166667    0.00308642  22 t-inv F
  0.166667 -0.000000 -0.166667    0.00308642  22 t-inv F
 -0.166667  0.000000  0.166667    0.00308642  22 t-inv F
 -0.333333 -0.000000 -0.166667    0.00308642  23 t-inv F
  0.333333 -0.000000 -0.166667    0.00308642  23 t-inv F
 -0.333333  0.000000  0.166667    0.00308642  23 t-inv F
 -0.500000 -0.000000 -0.166667    0.00308642  24 t-inv F
 -0.000000 -0.111111 -0.166667    0.00308642  25 t-inv F
 -0.000000 -0.111111  0.166667    0.00308642  25 t-inv F
  0.000000  0.111111 -0.166667    0.00308642  25 t-inv F
 -0.166667 -0.111111 -0.166667    0.00308642  26 t-inv F
  0.166667 -0.111111 -0.166667    0.00308642  26 t-inv F
 -0.166667  0.111111  0.166667    0.00308642  26 t-inv F
 -0.166667 -0.111111  0.166667    0.00308642  26 t-inv F
  0.166667  0.111111 -0.166667    0.00308642  26 t-inv F
 -0.166667  0.111111 -0.166667    0.00308642  26 t-inv F
  0.166667 -0.111111  0.166667    0.00308642  26 t-inv F
 -0.333333 -0.111111 -0.166667    0.00308642  27 t-inv F
  0.333333 -0.111111 -0.166667    0.00308642  27 t-inv F
 -0.333333  0.111111  0.166667    0.00308642  27 t-inv F
 -0.333333 -0.111111  0.166667    0.00308642  27 t-inv F
  0.333333  0.111111 -0.166667    0.00308642  27 t-inv F
 -0.333333  0.111111 -0.166667    0.00308642  27 t-inv F
  0.333333 -0.111111  0.166667    0.00308642  27 t-inv F
 -0.500000 -0.111111 -0.166667    0.00308642  28 t-inv F
 -0.500000 -0.111111  0.166667    0.00308642  28 t-inv F
  0.500000  0.111111 -0.166667    0.00308642  28 t-inv F
 -0.000000 -0.222222 -0.166667    0.00308642  29 t-inv F
 -0.000000 -0.222222  0.166667    0.00308642  29 t-inv F
  0.000000  0.222222 -0.166667    0.00308642  29 t-inv F
 -0.166667 -0.222222 -0.166667    0.00308642  30 t-inv F
  0.166667 -0.222222 -0.166667    0.00308642  30 t-inv F
 -0.166667  0.222222  0.166667    0.00308642  30 t-inv F
 -0.166667 -0.222222  0.166667    0.00308642  30 t-inv F
  0.166667  0.222222 -0.166667    0.00308642  30 t-inv F
 -0.166667  0.222222 -0.166667    0.00308642  30 t-inv F
  0.166667 -0.222222  0.166667    0.00308642  30 t-inv F
 -0.333333 -0.222222 -0.166667    0.00308642  31 t-inv F
  0.333333 -0.222222 -0.166667    0.00308642  31 t-inv F
 -0.333333  0.222222  0.166667    0.00308642  31 t-inv F
 -0.333333 -0.222222  0.166667    0.00308642  31 t-inv F
  0.333333  0.222222 -0.166667    0.00308642  31 t-inv F
 -0.333333  0.222222 -0.166667    0.00308642  31 t-inv F
  0.333333 -0.222222  0.166667    0.00308642  31 t-inv F
 -0.500000 -0.222222 -0.166667    0.00308642  32 t-inv F
 -0.500000 -0.222222  0.166667    0.00308642  32 t-inv F
  0.500000  0.222222 -0.166667    0.00308642  32 t-inv F
 -0.000000 -0.333333 -0.166667    0.00308642  33 t-inv F
 -0.000000 -0.333333  0.166667    0.00308642  33 t-inv F
  0.000000  0.333333 -0.166667    0.00308642  33 t-inv F
 -0.166667 -0.333333 -0.166667    0.00308642  34 t-inv F
  0.166667 -0.333333 -0.166667    0.00308642  34 t-inv F
 -0.166667  0.333333  0.166667    0.00308642  34 t-inv F
 -0.166667 -0.333333  0.166667    0.00308642  34 t-inv F
  0.166667  0.333333 -0.166667    0.00308642  34 t-inv F
 -0.166667  0.333333 -0.166667    0.00308642  34 t-inv F
  0.166667 -0.333333  0.166667    0.00308642  34 t-inv F
 -0.333333 -0.333333 -0.166667    0.00308642  35 t-inv F
  0.333333 -0.333333 -0.166667    0.00308642  35 t-inv F
 -0.333333  0.333333  0.166667    0.00308642  35 t-inv F
 -0.333333 -0.333333  0.166667    0.00308642  35 t-inv F
  0.333333  0.333333 -0.166667    0.00308642  35 t-inv F
 -0.333333  0.333333 -0.166667    0.00308642  35 t-inv F
  0.333333 -0.333333  0.166667    0.00308642  35 t-inv F
 -0.500000 -0.333333 -0.166667    0.00308642  36 t-inv F
 -0.500000 -0.333333  0.166667    0.00308642  36 t-inv F
  0.500000  0.333333 -0.166667    0.00308642  36 t-inv F
 -0.000000 -0.444444 -0.166667    0.00308642  37 t-inv F
 -0.000000 -0.444444  0.166667    0.00308642  37 t-inv F
  0.000000  0.444444 -0.166667    0.00308642  37 t-inv F
 -0.166667 -0.444444 -0.166667    0.00308642  38 t-inv F
  0.166667 -0.444444 -0.166667    0.00308642  38 t-inv F
 -0.166667  0.444444  0.166667    0.00308642  38 t-inv F
 -0.166667 -0.444444  0.166667    0.00308642  38 t-inv F
  0.166667  0.444444 -0.166667    0.00308642  38 t-inv F
 -0.166667  0.444444 -0.166667    0.00308642  38 t-inv F
  0.166667 -0.444444  0.166667    0.00308642  38 t-inv F
 -0.333333 -0.444444 -0.166667    0.00308642  39 t-inv F
  0.333333 -0.444444 -0.166667    0.00308642  39 t-inv F
 -0.333333  0.444444  0.166667    0.00308642  39 t-inv F
 -0.333333 -0.444444  0.166667    0.00308642  39 t-inv F
  0.333333  0.444444 -0.166667    0.00308642  39 t-inv F
 -0.333333  0.444444 -0.166667    0.00308642  39 t-inv F
  0.333333 -0.444444  0.166667    0.00308642  39 t-inv F
 -0.500000 -0.444444 -0.166667    0.00308642  40 t-inv F
 -0.500000 -0.444444  0.166667    0.00308642  40 t-inv F
  0.500000  0.444444 -0.166667    0.00308642  40 t-inv F
 -0.000000 -0.000000 -0.333333    0.00308642  41 t-inv F
 -0.166667 -0.000000 -0.333333    0.00308642  42 t-inv F
  0.166667 -0.000000 -0.333333    0.00308642  42 t-inv F
 -0.166667  0.000000  0.333333    0.00308642  42 t-inv F
 -0.333333 -0.000000 -0.333333    0.00308642  43 t-inv F
  0.333333 -0.000000 -0.333333    0.00308642  43 t-inv F
 -0.333333  0.000000  0.333333    0.00308642  43 t-inv F
 -0.500000 -0.000000 -0.333333    0.00308642  44 t-inv F
 -0.000000 -0.111111 -0.333333    0.00308642  45 t-inv F
 -0.000000 -0.111111  0.333333    0.00308642  45 t-inv F
  0.000000  0.111111 -0.333333    0.00308642  45 t-inv F
 -0.166667 -0.111111 -0.333333    0.00308642  46 t-inv F
  0.166667 -0.111111 -0.333333    0.00308642  46 t-inv F
 -0.166667  0.111111  0.333333    0.00308642  46 t-inv F
 -0.166667 -0.111111  0.333333    0.00308642  46 t-inv F
  0.166667  0.111111 -0.333333    0.00308642  46 t-inv F
 -0.166667  0.111111 -0.333333    0.00308642  46 t-inv F
  0.166667 -0.111111  0.333333    0.00308642  46 t-inv F
 -0.333333 -0.111111 -0.333333    0.00308642  47 t-inv F
  0.333333 -0.111111 -0.333333    0.00308642  47 t-inv F
 -0.333333  0.111111  0.333333    0.00308642  47 t-inv F
 -0.333333 -0.111111  0.333333    0.00308642  47 t-inv F
  0.333333  0.111111 -0.333333    0.00308642  47 t-inv F
 -0.333333  0.111111 -0.333333    0.00308642  47 t-inv F
  0.333333 -0.111111  0.333333    0.00308642  47 t-inv F
 -0.500000 -0.111111 -0.333333    0.00308642  48 t-inv F
 -0.500000 -0.111111  0.333333    0.00308642  48 t-inv F
  0.500000  0.111111 -0.333333    0.00308642  48 t-inv F
 -0.000000 -0.222222 -0.333333    0.00308642  49 t-inv F
 -0.000000 -0.222222  0.333333    0.00308642  49 t-inv F
  0.000000  0.222222 -0.333333    0.00308642  49 t-inv F
 -0.166667 -0.222222 -0.333333    0.00308642  50 t-inv F
  0.166667 -0.222222 -0.333333    0.00308642  50 t-inv F
 -0.166667  0.222222  0.333333    0.00308642  50 t-inv F
 -0.166667 -0.222222  0.333333    0.00308642  50 t-inv F
  0.166667  0.222222 -0.333333    0.00308642  50 t-inv F
 -0.166667  0.222222 -0.333333    0.00308642  50 t-inv F
  0.166667 -0.222222  0.333333    0.00308642  50 t-inv F
 -0.333333 -0.222222 -0.333333    0.00308642  51 t-inv F
  0.333333 -0.222222 -0.333333    0.00308642  51 t-inv F
 -0.333333  0.222222  0.333333    0.00308642  51 t-inv F
 -0.333333 -0.222222  0.333333    0.00308642  51 t-inv F
  0.333333  0.222222 -0.333333    0.00308642  51 t-inv F
 -0.333333  0.222222 -0.333333    0.00308642  51 t-inv F
  0.333333 -0.222222  0.333333    0.00308642  51 t-inv F
 -0.500000 -0.222222 -0.333333    0.00308642  52 t-inv F
 -0.500000 -0.222222  0.333333    0.00308642  52 t-inv F
  0.500000  0.222222 -0.333333    0.00308642  52 t-inv F
 -0.000000 -0.333333 -0.333333    0.00308642  53 t-inv F
 -0.000000 -0.333333  0.333333    0.00308642  53 t-inv F
  0.000000  0.333333 -0.333333    0.00308642  53 t-inv F
 -0.166667 -0.333333 -0.333333    0.00308642  54 t-inv F
  0.166667 -0.333333 -0.333333    0.00308642  54 t-inv F
 -0.166667  0.333333  0.333333    0.00308642  54 t-inv F
 -0.166667 -0.333333  0.333333    0.00308642  54 t-inv F
  0.166667  0.333333 -0.333333    0.00308642  54 t-inv F
 -0.166667  0.333333 -0.333333    0.00308642  54 t-inv F
  0.166667 -0.333333  0.333333    0.00308642  54 t-inv F
 -0.333333 -0.333333 -0.333333    0.00308642  55 t-inv F
  0.333333 -0.333333 -0.333333    0.00308642  55 t-inv F
 -0.333333  0.333333  0.333333    0.00308642  55 t-inv F
 -0.333333 -0.333333  0.333333    0.00308642  55 t-inv F
  0.333333  0.333333 -0.333333    0.00308642  55 t-inv F
 -0.333333  0.333333 -0.333333    0.00308642  55 t-inv F
  0.333333 -0.333333  0.333333    0.00308642  55 t-inv F
 -0.500000 -0.333333 -0.333333    0.00308642  56 t-inv F
 -0.500000 -0.333333  0.333333    0.00308642  56 t-inv F
  0.500000  0.333333 -0.333333    0.00308642  56 t-inv F
 -0.000000 -0.444444 -0.333333    0.00308642  57 t-inv F
 -0.000000 -0.444444  0.333333    0.00308642  57 t-inv F
  0.000000  0.444444 -0.333333    0.00308642  57 t-inv F
 -0.166667 -0.444444 -0.333333    0.00308642  58 t-inv F
  0.166667 -0.444444 -0.333333    0.00308642  58 t-inv F
 -0.166667  0.444444  0.333333    0.00308642  58 t-inv F
 -0.166667 -0.444444  0.333333    0.00308642  58 t-inv F
  0.166667  0.444444 -0.333333    0.00308642  58 t-inv F
 -0.166667  0.444444 -0.333333    0.00308642  58 t-inv F
  0.166667 -0.444444  0.333333    0.00308642  58 t-inv F
 -0.333333 -0.444444 -0.333333    0.00308642  59 t-inv F
  0.333333 -0.444444 -0.333333    0.00308642  59 t-inv F
 -0.333333  0.444444  0.333333    0.00308642  59 t-inv F
 -0.333333 -0.444444  0.333333    0.00308642  59 t-inv F
  0.333333  0.444444 -0.333333    0.00308642  59 t-inv F
 -0.333333  0.444444 -0.333333    0.00308642  59 t-inv F
  0.333333 -0.444444  0.333333    0.00308642  59 t-inv F
 -0.500000 -0.444444 -0.333333    0.00308642  60 t-inv F
 -0.500000 -0.444444  0.333333    0.00308642  60 t-inv F
  0.500000  0.444444 -0.333333    0.00308642  60 t-inv F
 -0.166667 -0.000000 -0.500000    0.00308642  62 t-inv F
 -0.333333 -0.000000 -0.500000    0.00308642  63 t-inv F
 -0.000000 -0.111111 -0.500000    0.00308642  65 t-inv F
 -0.166667 -0.111111 -0.500000    0.00308642  66 t-inv F
  0.166667 -0.111111 -0.500000    0.00308642  66 t-inv F
 -0.166667  0.111111  0.500000    0.00308642  66 t-inv F
 -0.333333 -0.111111 -0.500000    0.00308642  67 t-inv F
  0.333333 -0.111111 -0.500000    0.00308642  67 t-inv F
 -0.333333  0.111111  0.500000    0.00308642  67 t-inv F
 -0.500000 -0.111111 -0.500000    0.00308642  68 t-inv F
 -0.000000 -0.222222 -0.500000    0.00308642  69 t-inv F
 -0.166667 -0.222222 -0.500000    0.00308642  70 t-inv F
  0.166667 -0.222222 -0.500000    0.00308642  70 t-inv F
 -0.166667  0.222222  0.500000    0.00308642  70 t-inv F
 -0.333333 -0.222222 -0.500000    0.00308642  71 t-inv F
  0.333333 -0.222222 -0.500000    0.00308642  71 t-inv F
 -0.333333  0.222222  0.500000    0.00308642  71 t-inv F
 -0.500000 -0.222222 -0.500000    0.00308642  72 t-inv F
 -0.000000 -0.333333 -0.500000    0.00308642  73 t-inv F
 -0.166667 -0.333333 -0.500000    0.00308642  74 t-inv F
  0.166667 -0.333333 -0.500000    0.00308642  74 t-inv F
 -0.166667  0.333333  0.500000    0.00308642  74 t-inv F
 -0.333333 -0.333333 -0.500000    0.00308642  75 t-inv F
  0.333333 -0.333333 -0.500000    0.00308642  75 t-inv F
 -0.333333  0.333333  0.500000    0.00308642  75 t-inv F
 -0.500000 -0.333333 -0.500000    0.00308642  76 t-inv F
 -0.000000 -0.444444 -0.500000    0.00308642  77 t-inv F
 -0.166667 -0.444444 -0.500000    0.00308642  78 t-inv F
  0.166667 -0.444444 -0.500000    0.00308642  78 t-inv F
 -0.166667  0.444444  0.500000    0.00308642  78 t-inv F
 -0.333333 -0.444444 -0.500000    0.00308642  79 t-inv F
  0.333333 -0.444444 -0.500000    0.00308642  79 t-inv F
 -0.333333  0.444444  0.500000    0.00308642  79 t-inv F
 -0.500000 -0.444444 -0.500000    0.00308642  80 t-inv F
 -----------------------------------------------------------------------------
|                                                                             |
|           W    W    AA    RRRRR   N    N  II  N    N   GGGG   !!!           |
|           W    W   A  A   R    R  NN   N  II  NN   N  G    G  !!!           |
|           W    W  A    A  R    R  N N  N  II  N N  N  G       !!!           |
|           W WW W  AAAAAA  RRRRR   N  N N  II  N  N N  G  GGG   !            |
|           WW  WW  A    A  R   R   N   NN  II  N   NN  G    G                |
|           W    W  A    A  R    R  N    N  II  N    N   GGGG   !!!           |
|                                                                             |
|     The number of bands has been changed from the values supplied in        |
|     the INCAR file. This is a result of running the parallel version.       |
|     The orbitals not found in the WAVECAR file will be initialized with     |
|     random numbers, which is usually adequate. For correlated               |
|     calculations, however, you should redo the groundstate calculation.     |
|     I found NBANDS = 140. Now, NBANDS = 144.                                |
|                                                                             |
 -----------------------------------------------------------------------------



--------------------------------------------------------------------------------------------------------




 Dimension of arrays:
   k-points           NKPTS =     80   k-points in BZ     NKDIM =     80   number of bands    NBANDS=    144
   number of dos      NEDOS =    301   number of ions     NIONS =     16
   non local maximal  LDIM  =      5   non local SUM 2l+1 LMDIM =     13
   total plane-waves  NPLWV = 403200
   max r-space proj   IRMAX =      1   max aug-charges    IRDMAX= 217765
   dimension x,y,z NGX =    90 NGY =   56 NGZ =   80
   dimension x,y,z NGXF=   180 NGYF=  112 NGZF=  160
   support grid    NGXF=   360 NGYF=  224 NGZF=  320
   ions per type =               4  12
   NGX,Y,Z   is equivalent  to a cutoff of  13.28, 12.85, 12.67 a.u.
   NGXF,Y,Z  is equivalent  to a cutoff of  26.55, 25.69, 25.33 a.u.

 SYSTEM =  unknown system                          
 POSCAR =  Generated by VASPKIT code               

 Startparameter for this run:
   NWRITE =      2    write-flag & timer
   PREC   = accura    normal or accurate (medium, high low for compatibility)
   ISTART =      1    job   : 0-new  1-cont  2-samecut
   ICHARG =      0    charge: 1-file 2-atom 10-const
   ISPIN  =      1    spin polarized calculation?
   LNONCOLLINEAR =      F non collinear calculations
   LSORBIT =      F    spin-orbit coupling
   INIWAV =      1    electr: 0-lowe 1-rand  2-diag
   LASPH  =      T    aspherical Exc in radial PAW
 Electronic Relaxation 1
   ENCUT  =  550.0 eV  40.42 Ry    6.36 a.u.  21.55 13.86 20.08*2*pi/ulx,y,z
   ENINI  =  550.0     initial cutoff
   ENAUG  =  407.9 eV  augmentation charge cutoff
   NELM   =    200;   NELMIN=  2; NELMDL=  0     # of ELM steps 
   EDIFF  = 0.1E-07   stopping-criterion for ELM
   LREAL  =      F    real-space projection
   NLSPLINE    = F    spline interpolate recip. space projectors
   LCOMPAT=      F    compatible to vasp.4.4
   GGA_COMPAT  = T    GGA compatible to vasp.4.4-vasp.4.6
   LMAXPAW     = -100 max onsite density
   LMAXMIX     =    2 max onsite mixed and CHGCAR
   VOSKOWN=      0    Vosko Wilk Nusair interpolation
   ROPT   =    0.00000   0.00000
 Ionic relaxation
   EDIFFG = 0.1E-06   stopping-criterion for IOM
   NSW    =      0    number of steps for IOM
   NBLOCK =      1;   KBLOCK =      1    inner block; outer block 
   IBRION =     -1    ionic relax: 0-MD 1-quasi-New 2-CG
   NFREE  =      0    steps in history (QN), initial steepest desc. (CG)
   ISIF   =      2    stress and relaxation
   IWAVPR =     10    prediction:  0-non 1-charg 2-wave 3-comb
   ISYM   =      2    0-nonsym 1-usesym 2-fastsym
   LCORR  =      T    Harris-Foulkes like correction to forces

   POTIM  = 0.5000    time-step for ionic-motion
   TEIN   =    0.0    initial temperature
   TEBEG  =    0.0;   TEEND  =   0.0 temperature during run
   SMASS  =  -3.00    Nose mass-parameter (am)
   estimated Nose-frequenzy (Omega)   =  0.10E-29 period in steps = 0.13E+47 mass=  -0.290E-26a.u.
   SCALEE = 1.0000    scale energy and forces
   NPACO  =    256;   APACO  = 10.0  distance and # of slots for P.C.
   PSTRESS=    0.0 pullay stress

  Mass of Ions in am
   POMASS = 132.90126.90
  Ionic Valenz
   ZVAL   =   9.00  7.00
  Atomic Wigner-Seitz radii
   RWIGS  =  -1.00 -1.00
  virtual crystal weights 
   VCA    =   1.00  1.00
   NELECT =     120.0000    total number of electrons
   NUPDOWN=      -1.0000    fix difference up-down

 DOS related values:
   EMIN   =  10.00;   EMAX   =-10.00  energy-range for DOS
   EFERMI =   0.00;   METHOD = LEGACY      
   ISMEAR =     0;   SIGMA  =   0.05  broadening in eV -4-tet -1-fermi 0-gaus

 Electronic relaxation 2 (details)
   IALGO  =     38    algorithm
   LDIAG  =      T    sub-space diagonalisation (order eigenvalues)
   LSUBROT=      F    optimize rotation matrix (better conditioning)
   TURBO    =      0    0=normal 1=particle mesh
   IRESTART =      0    0=no restart 2=restart with 2 vectors
   NREBOOT  =      0    no. of reboots
   NMIN     =      0    reboot dimension
   EREF     =   0.00    reference energy to select bands
   IMIX   =      4    mixing-type and parameters
     AMIX     =   0.40;   BMIX     =  1.00
     AMIX_MAG =   1.60;   BMIX_MAG =  1.00
     AMIN     =   0.10
     WC   =   100.;   INIMIX=   1;  MIXPRE=   1;  MAXMIX= -45

 Intra band minimization:
   WEIMIN = 0.0000     energy-eigenvalue tresh-hold
   EBREAK =  0.17E-10  absolut break condition
   DEPER  =   0.30     relativ break condition  

   TIME   =   0.40     timestep for ELM

  volume/ion in A,a.u.               =      53.59       361.67
  Fermi-wavevector in a.u.,A,eV,Ry     =   0.849941  1.606155  9.828834  0.722399
  Thomas-Fermi vector in A             =   1.965840
 
 Write flags
   LWAVE        =      T    write WAVECAR
   LDOWNSAMPLE  =      F    k-point downsampling of WAVECAR
   LCHARG       =      T    write CHGCAR
   LVTOT        =      F    write LOCPOT, total local potential
   LVHAR        =      F    write LOCPOT, Hartree potential only
   LELF         =      F    write electronic localiz. function (ELF)
   LORBIT       =     11    0 simple, 1 ext, 2 COOP (PROOUT), +10 PAW based schemes


 Dipole corrections
   LMONO  =      F    monopole corrections only (constant potential shift)
   LDIPOL =      F    correct potential (dipole corrections)
   IDIPOL =      0    1-x, 2-y, 3-z, 4-all directions 
   EPSILON=  1.0000000 bulk dielectric constant

 Exchange correlation treatment:
   GGA     =    --    GGA type
   LEXCH   =     8    internal setting for exchange type
   LIBXC   =     F    Libxc                    
   VOSKOWN =     0    Vosko Wilk Nusair interpolation
   LHFCALC =     F    Hartree Fock is set to
   LHFONE  =     F    Hartree Fock one center treatment
   AEXX    =    0.0000 exact exchange contribution

 Linear response parameters
   LEPSILON=     F    determine dielectric tensor
   LRPA    =     F    only Hartree local field effects (RPA)
   LNABLA  =     F    use nabla operator in PAW spheres
   LVEL    =     F    velocity operator in full k-point grid
   CSHIFT  =0.1000    complex shift for real part using Kramers Kronig
   OMEGAMAX=  -1.0    maximum frequency
   DEG_THRESHOLD= 0.2000000E-02 threshold for treating states as degnerate
   RTIME   =   -0.100 relaxation time in fs
  (WPLASMAI=    0.000 imaginary part of plasma frequency in eV, 0.658/RTIME)
   DFIELD  = 0.0000000 0.0000000 0.0000000 field for delta impulse in time
 
  Optional k-point grid parameters
   LKPOINTS_OPT  =     F    use optional k-point grid
   KPOINTS_OPT_MODE=     1    mode for optional k-point grid
 
 Orbital magnetization related:
   ORBITALMAG=     F  switch on orbital magnetization
   LCHIMAG   =     F  perturbation theory with respect to B field
   DQ        =  0.001000  dq finite difference perturbation B field
   LLRAUG    =     F  two centre corrections for induced B field
   LBONE     =     F  B-component reconstruction in AE one-centre
   LVGVCALC  =     T  calculate vGv susceptibility
   LVGVAPPL  =     F  apply vGv susceptibility instead of pGv for G=0

 Random number generation:
   RANDOM_GENERATOR = DEFAULT
   PCG_SEED         = not used


--------------------------------------------------------------------------------------------------------


 Static calculation
 charge density and potential will be updated during run
 non-spin polarized calculation
 Variant of blocked Davidson
 Davidson routine will perform the subspace rotation
 perform sub-space diagonalisation
    after iterative eigenvector-optimisation
 modified Broyden-mixing scheme, WC =      100.0
 initial mixing is a Kerker type mixing with AMIX =  0.4000 and BMIX =      1.0000
 Hartree-type preconditioning will be used
 using additional bands           84
 reciprocal scheme for non local part
 use partial core corrections
 calculate Harris-corrections to forces 
   (improved forces if not selfconsistent)
 use gradient corrections 
 use of overlap-Matrix (Vanderbilt PP)
 Gauss-broadening in eV      SIGMA  =   0.05


--------------------------------------------------------------------------------------------------------


  energy-cutoff  :      550.00
  volume of cell :      857.51
      direct lattice vectors                 reciprocal lattice vectors
    11.269044902  0.000000000  0.000000000     0.088738665  0.000000000  0.000000000
     0.000000000  7.246742723  0.000000000     0.000000000  0.137993032  0.000000000
     0.000000000  0.000000000 10.500504023     0.000000000  0.000000000  0.095233524

  length of vectors
    11.269044902  7.246742723 10.500504023     0.088738665  0.137993032  0.095233524


 
 old parameters found on file WAVECAR:
  energy-cutoff  :      550.00
  volume of cell :      857.51
      direct lattice vectors                 reciprocal lattice vectors
    11.269044902  0.000000000  0.000000000     0.088738665  0.000000000  0.000000000
     0.000000000  7.246742723  0.000000000     0.000000000  0.137993032  0.000000000
     0.000000000  0.000000000 10.500504023     0.000000000  0.000000000  0.095233524

  length of vectors

 
 k-points in units of 2pi/SCALE and weight: K-Spacing Value to Generate K-Mesh: 0.01
   0.00000000  0.00000000  0.00000000       0.003
   0.01478978  0.00000000  0.00000000       0.006
   0.02957955  0.00000000  0.00000000       0.006
   0.04436933  0.00000000  0.00000000       0.003
   0.00000000  0.01533256  0.00000000       0.006
   0.01478978  0.01533256  0.00000000       0.012
   0.02957955  0.01533256  0.00000000       0.012
   0.04436933  0.01533256  0.00000000       0.006
   0.00000000  0.03066512  0.00000000       0.006
   0.01478978  0.03066512  0.00000000       0.012
   0.02957955  0.03066512  0.00000000       0.012
   0.04436933  0.03066512  0.00000000       0.006
   0.00000000  0.04599768  0.00000000       0.006
   0.01478978  0.04599768  0.00000000       0.012
   0.02957955  0.04599768  0.00000000       0.012
   0.04436933  0.04599768  0.00000000       0.006
   0.00000000  0.06133024  0.00000000       0.006
   0.01478978  0.06133024  0.00000000       0.012
   0.02957955  0.06133024  0.00000000       0.012
   0.04436933  0.06133024  0.00000000       0.006
   0.00000000  0.00000000  0.01587225       0.006
   0.01478978  0.00000000  0.01587225       0.012
   0.02957955  0.00000000  0.01587225       0.012
   0.04436933  0.00000000  0.01587225       0.006
   0.00000000  0.01533256  0.01587225       0.012
   0.01478978  0.01533256  0.01587225       0.025
   0.02957955  0.01533256  0.01587225       0.025
   0.04436933  0.01533256  0.01587225       0.012
   0.00000000  0.03066512  0.01587225       0.012
   0.01478978  0.03066512  0.01587225       0.025
   0.02957955  0.03066512  0.01587225       0.025
   0.04436933  0.03066512  0.01587225       0.012
   0.00000000  0.04599768  0.01587225       0.012
   0.01478978  0.04599768  0.01587225       0.025
   0.02957955  0.04599768  0.01587225       0.025
   0.04436933  0.04599768  0.01587225       0.012
   0.00000000  0.06133024  0.01587225       0.012
   0.01478978  0.06133024  0.01587225       0.025
   0.02957955  0.06133024  0.01587225       0.025
   0.04436933  0.06133024  0.01587225       0.012
   0.00000000  0.00000000  0.03174451       0.006
   0.01478978  0.00000000  0.03174451       0.012
   0.02957955  0.00000000  0.03174451       0.012
   0.04436933  0.00000000  0.03174451       0.006
   0.00000000  0.01533256  0.03174451       0.012
   0.01478978  0.01533256  0.03174451       0.025
   0.02957955  0.01533256  0.03174451       0.025
   0.04436933  0.01533256  0.03174451       0.012
   0.00000000  0.03066512  0.03174451       0.012
   0.01478978  0.03066512  0.03174451       0.025
   0.02957955  0.03066512  0.03174451       0.025
   0.04436933  0.03066512  0.03174451       0.012
   0.00000000  0.04599768  0.03174451       0.012
   0.01478978  0.04599768  0.03174451       0.025
   0.02957955  0.04599768  0.03174451       0.025
   0.04436933  0.04599768  0.03174451       0.012
   0.00000000  0.06133024  0.03174451       0.012
   0.01478978  0.06133024  0.03174451       0.025
   0.02957955  0.06133024  0.03174451       0.025
   0.04436933  0.06133024  0.03174451       0.012
   0.00000000  0.00000000  0.04761676       0.003
   0.01478978  0.00000000  0.04761676       0.006
   0.02957955  0.00000000  0.04761676       0.006
   0.04436933  0.00000000  0.04761676       0.003
   0.00000000  0.01533256  0.04761676       0.006
   0.01478978  0.01533256  0.04761676       0.012
   0.02957955  0.01533256  0.04761676       0.012
   0.04436933  0.01533256  0.04761676       0.006
   0.00000000  0.03066512  0.04761676       0.006
   0.01478978  0.03066512  0.04761676       0.012
   0.02957955  0.03066512  0.04761676       0.012
   0.04436933  0.03066512  0.04761676       0.006
   0.00000000  0.04599768  0.04761676       0.006
   0.01478978  0.04599768  0.04761676       0.012
   0.02957955  0.04599768  0.04761676       0.012
   0.04436933  0.04599768  0.04761676       0.006
   0.00000000  0.06133024  0.04761676       0.006
   0.01478978  0.06133024  0.04761676       0.012
   0.02957955  0.06133024  0.04761676       0.012
   0.04436933  0.06133024  0.04761676       0.006
 
 k-points in reciprocal lattice and weights: K-Spacing Value to Generate K-Mesh: 0.01
   0.00000000  0.00000000  0.00000000       0.003
   0.16666667  0.00000000  0.00000000       0.006
   0.33333333  0.00000000  0.00000000       0.006
   0.50000000  0.00000000  0.00000000       0.003
   0.00000000  0.11111111  0.00000000       0.006
   0.16666667  0.11111111  0.00000000       0.012
   0.33333333  0.11111111  0.00000000       0.012
   0.50000000  0.11111111  0.00000000       0.006
   0.00000000  0.22222222  0.00000000       0.006
   0.16666667  0.22222222  0.00000000       0.012
   0.33333333  0.22222222  0.00000000       0.012
   0.50000000  0.22222222  0.00000000       0.006
   0.00000000  0.33333333  0.00000000       0.006
   0.16666667  0.33333333  0.00000000       0.012
   0.33333333  0.33333333  0.00000000       0.012
   0.50000000  0.33333333  0.00000000       0.006
   0.00000000  0.44444444  0.00000000       0.006
   0.16666667  0.44444444  0.00000000       0.012
   0.33333333  0.44444444  0.00000000       0.012
   0.50000000  0.44444444  0.00000000       0.006
   0.00000000  0.00000000  0.16666667       0.006
   0.16666667  0.00000000  0.16666667       0.012
   0.33333333  0.00000000  0.16666667       0.012
   0.50000000  0.00000000  0.16666667       0.006
   0.00000000  0.11111111  0.16666667       0.012
   0.16666667  0.11111111  0.16666667       0.025
   0.33333333  0.11111111  0.16666667       0.025
   0.50000000  0.11111111  0.16666667       0.012
   0.00000000  0.22222222  0.16666667       0.012
   0.16666667  0.22222222  0.16666667       0.025
   0.33333333  0.22222222  0.16666667       0.025
   0.50000000  0.22222222  0.16666667       0.012
   0.00000000  0.33333333  0.16666667       0.012
   0.16666667  0.33333333  0.16666667       0.025
   0.33333333  0.33333333  0.16666667       0.025
   0.50000000  0.33333333  0.16666667       0.012
   0.00000000  0.44444444  0.16666667       0.012
   0.16666667  0.44444444  0.16666667       0.025
   0.33333333  0.44444444  0.16666667       0.025
   0.50000000  0.44444444  0.16666667       0.012
   0.00000000  0.00000000  0.33333333       0.006
   0.16666667  0.00000000  0.33333333       0.012
   0.33333333  0.00000000  0.33333333       0.012
   0.50000000  0.00000000  0.33333333       0.006
   0.00000000  0.11111111  0.33333333       0.012
   0.16666667  0.11111111  0.33333333       0.025
   0.33333333  0.11111111  0.33333333       0.025
   0.50000000  0.11111111  0.33333333       0.012
   0.00000000  0.22222222  0.33333333       0.012
   0.16666667  0.22222222  0.33333333       0.025
   0.33333333  0.22222222  0.33333333       0.025
   0.50000000  0.22222222  0.33333333       0.012
   0.00000000  0.33333333  0.33333333       0.012
   0.16666667  0.33333333  0.33333333       0.025
   0.33333333  0.33333333  0.33333333       0.025
   0.50000000  0.33333333  0.33333333       0.012
   0.00000000  0.44444444  0.33333333       0.012
   0.16666667  0.44444444  0.33333333       0.025
   0.33333333  0.44444444  0.33333333       0.025
   0.50000000  0.44444444  0.33333333       0.012
   0.00000000  0.00000000  0.50000000       0.003
   0.16666667  0.00000000  0.50000000       0.006
   0.33333333  0.00000000  0.50000000       0.006
   0.50000000  0.00000000  0.50000000       0.003
   0.00000000  0.11111111  0.50000000       0.006
   0.16666667  0.11111111  0.50000000       0.012
   0.33333333  0.11111111  0.50000000       0.012
   0.50000000  0.11111111  0.50000000       0.006
   0.00000000  0.22222222  0.50000000       0.006
   0.16666667  0.22222222  0.50000000       0.012
   0.33333333  0.22222222  0.50000000       0.012
   0.50000000  0.22222222  0.50000000       0.006
   0.00000000  0.33333333  0.50000000       0.006
   0.16666667  0.33333333  0.50000000       0.012
   0.33333333  0.33333333  0.50000000       0.012
   0.50000000  0.33333333  0.50000000       0.006
   0.00000000  0.44444444  0.50000000       0.006
   0.16666667  0.44444444  0.50000000       0.012
   0.33333333  0.44444444  0.50000000       0.012
   0.50000000  0.44444444  0.50000000       0.006
 
 position of ions in fractional coordinates (direct lattice) 
   0.81906913  0.25000000  0.46958352
   0.18093087  0.75000000  0.53041648
   0.68093087  0.75000000  0.96958352
   0.31906913  0.25000000  0.03041648
   0.16528332  0.25000000  0.36835305
   0.83471668  0.75000000  0.63164695
   0.33471668  0.75000000  0.86835305
   0.66528332  0.25000000  0.13164695
   0.36757900  0.25000000  0.55669576
   0.63242100  0.75000000  0.44330424
   0.13242100  0.75000000  0.05669576
   0.86757900  0.25000000  0.94330424
   0.56188108  0.25000000  0.73801255
   0.43811892  0.75000000  0.26198745
   0.93811892  0.75000000  0.23801255
   0.06188108  0.25000000  0.76198745
 
 position of ions in cartesian coordinates  (Angst):
   9.23012675  1.81168568  4.93086366
   2.03891815  5.43505704  5.56964037
   7.67344060  5.43505704 10.18111567
   3.59560430  1.81168568  0.31938836
   1.86258511  1.81168568  3.86789269
   9.40645979  5.43505704  6.63261133
   3.77193734  5.43505704  9.11814471
   7.49710756  1.81168568  1.38235932
   4.14226426  1.81168568  5.84558605
   7.12678064  5.43505704  4.65491797
   1.49225819  5.43505704  0.59533404
   9.77678671  1.81168568  9.90516998
   6.33186309  1.81168568  7.74950378
   4.93718181  5.43505704  2.75100024
  10.57170426  5.43505704  2.49925177
   0.69734064  1.81168568  8.00125225
 


--------------------------------------------------------------------------------------------------------


 k-point   1 :   0.0000 0.0000 0.0000  plane waves:   25153
 k-point   2 :   0.1667 0.0000 0.0000  plane waves:   25133
 k-point   3 :   0.3333 0.0000 0.0000  plane waves:   25091
 k-point   4 :   0.5000 0.0000 0.0000  plane waves:   25052
 k-point   5 :   0.0000 0.1111 0.0000  plane waves:   25151
 k-point   6 :   0.1667 0.1111 0.0000  plane waves:   25120
 k-point   7 :   0.3333 0.1111 0.0000  plane waves:   25089
 k-point   8 :   0.5000 0.1111 0.0000  plane waves:   25066
 k-point   9 :   0.0000 0.2222 0.0000  plane waves:   25148
 k-point  10 :   0.1667 0.2222 0.0000  plane waves:   25112
 k-point  11 :   0.3333 0.2222 0.0000  plane waves:   25082
 k-point  12 :   0.5000 0.2222 0.0000  plane waves:   25094
 k-point  13 :   0.0000 0.3333 0.0000  plane waves:   25084
 k-point  14 :   0.1667 0.3333 0.0000  plane waves:   25112
 k-point  15 :   0.3333 0.3333 0.0000  plane waves:   25133
 k-point  16 :   0.5000 0.3333 0.0000  plane waves:   25120
 k-point  17 :   0.0000 0.4444 0.0000  plane waves:   25080
 k-point  18 :   0.1667 0.4444 0.0000  plane waves:   25113
 k-point  19 :   0.3333 0.4444 0.0000  plane waves:   25111
 k-point  20 :   0.5000 0.4444 0.0000  plane waves:   25082
 k-point  21 :   0.0000 0.0000 0.1667  plane waves:   25128
 k-point  22 :   0.1667 0.0000 0.1667  plane waves:   25118
 k-point  23 :   0.3333 0.0000 0.1667  plane waves:   25090
 k-point  24 :   0.5000 0.0000 0.1667  plane waves:   25110
 k-point  25 :   0.0000 0.1111 0.1667  plane waves:   25124
 k-point  26 :   0.1667 0.1111 0.1667  plane waves:   25120
 k-point  27 :   0.3333 0.1111 0.1667  plane waves:   25093
 k-point  28 :   0.5000 0.1111 0.1667  plane waves:   25090
 k-point  29 :   0.0000 0.2222 0.1667  plane waves:   25134
 k-point  30 :   0.1667 0.2222 0.1667  plane waves:   25113
 k-point  31 :   0.3333 0.2222 0.1667  plane waves:   25102
 k-point  32 :   0.5000 0.2222 0.1667  plane waves:   25096
 k-point  33 :   0.0000 0.3333 0.1667  plane waves:   25123
 k-point  34 :   0.1667 0.3333 0.1667  plane waves:   25111
 k-point  35 :   0.3333 0.3333 0.1667  plane waves:   25120
 k-point  36 :   0.5000 0.3333 0.1667  plane waves:   25130
 k-point  37 :   0.0000 0.4444 0.1667  plane waves:   25131
 k-point  38 :   0.1667 0.4444 0.1667  plane waves:   25102
 k-point  39 :   0.3333 0.4444 0.1667  plane waves:   25127
 k-point  40 :   0.5000 0.4444 0.1667  plane waves:   25110
 k-point  41 :   0.0000 0.0000 0.3333  plane waves:   25108
 k-point  42 :   0.1667 0.0000 0.3333  plane waves:   25099
 k-point  43 :   0.3333 0.0000 0.3333  plane waves:   25112
 k-point  44 :   0.5000 0.0000 0.3333  plane waves:   25104
 k-point  45 :   0.0000 0.1111 0.3333  plane waves:   25089
 k-point  46 :   0.1667 0.1111 0.3333  plane waves:   25111
 k-point  47 :   0.3333 0.1111 0.3333  plane waves:   25123
 k-point  48 :   0.5000 0.1111 0.3333  plane waves:   25094
 k-point  49 :   0.0000 0.2222 0.3333  plane waves:   25123
 k-point  50 :   0.1667 0.2222 0.3333  plane waves:   25121
 k-point  51 :   0.3333 0.2222 0.3333  plane waves:   25115
 k-point  52 :   0.5000 0.2222 0.3333  plane waves:   25094
 k-point  53 :   0.0000 0.3333 0.3333  plane waves:   25142
 k-point  54 :   0.1667 0.3333 0.3333  plane waves:   25139
 k-point  55 :   0.3333 0.3333 0.3333  plane waves:   25122
 k-point  56 :   0.5000 0.3333 0.3333  plane waves:   25126
 k-point  57 :   0.0000 0.4444 0.3333  plane waves:   25138
 k-point  58 :   0.1667 0.4444 0.3333  plane waves:   25137
 k-point  59 :   0.3333 0.4444 0.3333  plane waves:   25146
 k-point  60 :   0.5000 0.4444 0.3333  plane waves:   25148
 k-point  61 :   0.0000 0.0000 0.5000  plane waves:   25080
 k-point  62 :   0.1667 0.0000 0.5000  plane waves:   25102
 k-point  63 :   0.3333 0.0000 0.5000  plane waves:   25106
 k-point  64 :   0.5000 0.0000 0.5000  plane waves:   25144
 k-point  65 :   0.0000 0.1111 0.5000  plane waves:   25090
 k-point  66 :   0.1667 0.1111 0.5000  plane waves:   25084
 k-point  67 :   0.3333 0.1111 0.5000  plane waves:   25112
 k-point  68 :   0.5000 0.1111 0.5000  plane waves:   25080
 k-point  69 :   0.0000 0.2222 0.5000  plane waves:   25104
 k-point  70 :   0.1667 0.2222 0.5000  plane waves:   25138
 k-point  71 :   0.3333 0.2222 0.5000  plane waves:   25116
 k-point  72 :   0.5000 0.2222 0.5000  plane waves:   25112
 k-point  73 :   0.0000 0.3333 0.5000  plane waves:   25144
 k-point  74 :   0.1667 0.3333 0.5000  plane waves:   25156
 k-point  75 :   0.3333 0.3333 0.5000  plane waves:   25112
 k-point  76 :   0.5000 0.3333 0.5000  plane waves:   25120
 k-point  77 :   0.0000 0.4444 0.5000  plane waves:   25144
 k-point  78 :   0.1667 0.4444 0.5000  plane waves:   25140
 k-point  79 :   0.3333 0.4444 0.5000  plane waves:   25136
 k-point  80 :   0.5000 0.4444 0.5000  plane waves:   25156

 maximum and minimum number of plane-waves per node :     25156    25052

 maximum number of plane-waves:     25156
 maximum index in each direction: 
   IXMAX=   21   IYMAX=   13   IZMAX=   20
   IXMIN=  -22   IYMIN=  -14   IZMIN=  -20


 serial   3D FFT for wavefunctions
 parallel 3D FFT for charge:
    minimum data exchange during FFTs selected (reduces bandwidth)


 total amount of memory used by VASP MPI-rank0   917589. kBytes
=======================================================================

   base      :      30000. kBytes
   nonl-proj :     425170. kBytes
   fftplans  :      41059. kBytes
   grid      :      31395. kBytes
   one-center:        129. kBytes
   wavefun   :     389836. kBytes
 
     INWAV:  cpu time      7.9585: real time      8.0661
 Broyden mixing: mesh for mixing (old mesh)
   NGX = 43   NGY = 27   NGZ = 41
  (NGX  =180   NGY  =112   NGZ  =160)
  gives a total of  47601 points

 charge density for first step will be calculated from the start-wavefunctions


--------------------------------------------------------------------------------------------------------


 Maximum index for augmentation-charges        17517 (set IRDMAX)


--------------------------------------------------------------------------------------------------------


 initial charge from wavefunction
 First call to EWALD:  gamma=   0.187
 Maximum number of real-space cells 2x 3x 3
 Maximum number of reciprocal cells 3x 2x 3

    FEWALD:  cpu time      0.0022: real time      0.0022


--------------------------------------- Ionic step        1  -------------------------------------------




--------------------------------------- Iteration      1(   1)  ---------------------------------------


    POTLOK:  cpu time      0.2593: real time      0.2680
    SETDIJ:  cpu time      0.3118: real time      0.3145
     EDDAV:  cpu time     75.7378: real time     76.6755
       DOS:  cpu time      0.0015: real time      0.0040
    CHARGE:  cpu time      2.0467: real time      2.0743
    MIXING:  cpu time      0.0035: real time      0.0035
    --------------------------------------------
      LOOP:  cpu time     78.3606: real time     79.3398

 eigenvalue-minimisations  : 23136
 total energy-change (2. order) :-0.3516956E+02  (-0.4748292E-03)
 number of electron     119.9999999 magnetization 
 augmentation part      -28.3412534 magnetization 

 Broyden mixing:
  rms(total) = 0.64885E-02    rms(broyden)= 0.64885E-02
  rms(prec ) = 0.70840E-02
  weight for this iteration     100.00

 Free energy of the ion-electron system (eV)
  ---------------------------------------------------
  alpha Z        PSCENC =       148.31138306
  Ewald energy   TEWEN  =     -4841.88571927
  -Hartree energ DENC   =      -937.86445617
  -exchange      EXHF   =         0.00000000
  -V(xc)+E(xc)   XCENC  =      -360.02042863
  PAW double counting   =      6481.87243856    -5893.15970519
  entropy T*S    EENTRO =        -0.00000000
  eigenvalues    EBANDS =      -645.55434977
  atomic energy  EATOM  =      6013.13127684
  Solvation  Ediel_sol  =         0.00000000
  ---------------------------------------------------
  free energy    TOTEN  =       -35.16956057 eV

  energy without entropy =      -35.16956057  energy(sigma->0) =      -35.16956057


--------------------------------------------------------------------------------------------------------




--------------------------------------- Iteration      1(   2)  ---------------------------------------


    POTLOK:  cpu time      0.0927: real time      0.0936
    SETDIJ:  cpu time      0.2384: real time      0.2407
     EDDAV:  cpu time     79.1623: real time     79.9866
       DOS:  cpu time      0.0009: real time      0.0009
    CHARGE:  cpu time      2.0236: real time      2.0397
    MIXING:  cpu time      0.0040: real time      0.0040
    --------------------------------------------
      LOOP:  cpu time     81.5218: real time     82.3656

 eigenvalue-minimisations  : 24624
 total energy-change (2. order) :-0.1083865E-04  (-0.3985087E-04)
 number of electron     119.9999999 magnetization 
 augmentation part      -28.3410382 magnetization 

 Broyden mixing:
  rms(total) = 0.70032E-02    rms(broyden)= 0.70032E-02
  rms(prec ) = 0.71747E-02
  weight for this iteration     100.00

 eigenvalues of (default mixing * dielectric matrix)
  average eigenvalue GAMMA=   0.2530
  0.2530

 Free energy of the ion-electron system (eV)
  ---------------------------------------------------
  alpha Z        PSCENC =       148.31138306
  Ewald energy   TEWEN  =     -4841.88571927
  -Hartree energ DENC   =      -937.90397029
  -exchange      EXHF   =         0.00000000
  -V(xc)+E(xc)   XCENC  =      -360.01551904
  PAW double counting   =      6482.34098794    -5893.63043011
  entropy T*S    EENTRO =        -0.00000000
  eigenvalues    EBANDS =      -645.51758053
  atomic energy  EATOM  =      6013.13127684
  Solvation  Ediel_sol  =         0.00000000
  ---------------------------------------------------
  free energy    TOTEN  =       -35.16957141 eV

  energy without entropy =      -35.16957141  energy(sigma->0) =      -35.16957141


--------------------------------------------------------------------------------------------------------




--------------------------------------- Iteration      1(   3)  ---------------------------------------


    POTLOK:  cpu time      0.0917: real time      0.0926
    SETDIJ:  cpu time      0.2340: real time      0.2358
     EDDAV:  cpu time     87.0887: real time     88.0122
       DOS:  cpu time      0.0008: real time      0.0008
    CHARGE:  cpu time      2.1571: real time      2.1751
    MIXING:  cpu time      0.0031: real time      0.0031
    --------------------------------------------
      LOOP:  cpu time     89.5753: real time     90.5197

 eigenvalue-minimisations  : 28224
 total energy-change (2. order) : 0.2602817E-05  (-0.1093840E-05)
 number of electron     119.9999999 magnetization 
 augmentation part      -28.3408238 magnetization 

 Broyden mixing:
  rms(total) = 0.62707E-02    rms(broyden)= 0.62707E-02
  rms(prec ) = 0.63897E-02
  weight for this iteration     100.00

 eigenvalues of (default mixing * dielectric matrix)
  average eigenvalue GAMMA=   1.5312
  1.5312  1.5312

 Free energy of the ion-electron system (eV)
  ---------------------------------------------------
  alpha Z        PSCENC =       148.31138306
  Ewald energy   TEWEN  =     -4841.88571927
  -Hartree energ DENC   =      -937.91392767
  -exchange      EXHF   =         0.00000000
  -V(xc)+E(xc)   XCENC  =      -360.01440788
  PAW double counting   =      6482.79342864    -5894.08319355
  entropy T*S    EENTRO =        -0.00000000
  eigenvalues    EBANDS =      -645.50840898
  atomic energy  EATOM  =      6013.13127684
  Solvation  Ediel_sol  =         0.00000000
  ---------------------------------------------------
  free energy    TOTEN  =       -35.16956880 eV

  energy without entropy =      -35.16956880  energy(sigma->0) =      -35.16956880


--------------------------------------------------------------------------------------------------------




--------------------------------------- Iteration      1(   4)  ---------------------------------------


    POTLOK:  cpu time      0.0849: real time      0.0858
    SETDIJ:  cpu time      0.2374: real time      0.2394
     EDDAV:  cpu time     82.4518: real time     83.2117
       DOS:  cpu time      0.0012: real time      0.0012
    CHARGE:  cpu time      2.0456: real time      2.0619
    MIXING:  cpu time      0.0027: real time      0.0027
    --------------------------------------------
      LOOP:  cpu time     84.8236: real time     85.6027

 eigenvalue-minimisations  : 26064
 total energy-change (2. order) : 0.3192429E-05  (-0.4367487E-06)
 number of electron     119.9999999 magnetization 
 augmentation part      -28.3406216 magnetization 

 Broyden mixing:
  rms(total) = 0.19553E-02    rms(broyden)= 0.19553E-02
  rms(prec ) = 0.20298E-02
  weight for this iteration     100.00

 eigenvalues of (default mixing * dielectric matrix)
  average eigenvalue GAMMA=   1.5471
  2.4366  0.9434  1.2614

 Free energy of the ion-electron system (eV)
  ---------------------------------------------------
  alpha Z        PSCENC =       148.31138306
  Ewald energy   TEWEN  =     -4841.88571927
  -Hartree energ DENC   =      -937.93595666
  -exchange      EXHF   =         0.00000000
  -V(xc)+E(xc)   XCENC  =      -360.01157546
  PAW double counting   =      6485.58671060    -5896.87667407
  entropy T*S    EENTRO =        -0.00000000
  eigenvalues    EBANDS =      -645.48901065
  atomic energy  EATOM  =      6013.13127684
  Solvation  Ediel_sol  =         0.00000000
  ---------------------------------------------------
  free energy    TOTEN  =       -35.16956561 eV

  energy without entropy =      -35.16956561  energy(sigma->0) =      -35.16956561


--------------------------------------------------------------------------------------------------------




--------------------------------------- Iteration      1(   5)  ---------------------------------------


    POTLOK:  cpu time      0.0843: real time      0.0852
    SETDIJ:  cpu time      0.2930: real time      0.2952
     EDDAV:  cpu time     86.5554: real time     87.3451
       DOS:  cpu time      0.0012: real time      0.0012
    CHARGE:  cpu time      2.0404: real time      2.0572
    MIXING:  cpu time      0.0043: real time      0.0044
    --------------------------------------------
      LOOP:  cpu time     88.9786: real time     89.7882

 eigenvalue-minimisations  : 28092
 total energy-change (2. order) : 0.1568096E-06  (-0.3182120E-06)
 number of electron     119.9999999 magnetization 
 augmentation part      -28.3404199 magnetization 

 Broyden mixing:
  rms(total) = 0.13843E-02    rms(broyden)= 0.13842E-02
  rms(prec ) = 0.13929E-02
  weight for this iteration     100.00

 eigenvalues of (default mixing * dielectric matrix)
  average eigenvalue GAMMA=   1.2032
  2.4133  1.3096  0.9494  0.1405

 Free energy of the ion-electron system (eV)
  ---------------------------------------------------
  alpha Z        PSCENC =       148.31138306
  Ewald energy   TEWEN  =     -4841.88571927
  -Hartree energ DENC   =      -937.95135070
  -exchange      EXHF   =         0.00000000
  -V(xc)+E(xc)   XCENC  =      -360.00971234
  PAW double counting   =      6486.68382641    -5897.97404528
  entropy T*S    EENTRO =        -0.00000000
  eigenvalues    EBANDS =      -645.47522418
  atomic energy  EATOM  =      6013.13127684
  Solvation  Ediel_sol  =         0.00000000
  ---------------------------------------------------
  free energy    TOTEN  =       -35.16956545 eV

  energy without entropy =      -35.16956545  energy(sigma->0) =      -35.16956545


--------------------------------------------------------------------------------------------------------




--------------------------------------- Iteration      1(   6)  ---------------------------------------


    POTLOK:  cpu time      0.1219: real time      0.1231
    SETDIJ:  cpu time      0.2880: real time      0.2902
     EDDAV:  cpu time     81.6570: real time     82.3866
       DOS:  cpu time      0.0012: real time      0.0012
    CHARGE:  cpu time      1.9482: real time      1.9644
    MIXING:  cpu time      0.0027: real time      0.0027
    --------------------------------------------
      LOOP:  cpu time     84.0190: real time     84.7682

 eigenvalue-minimisations  : 26088
 total energy-change (2. order) :-0.3045898E-08  (-0.2284821E-07)
 number of electron     119.9999999 magnetization 
 augmentation part      -28.3404016 magnetization 

 Broyden mixing:
  rms(total) = 0.13610E-02    rms(broyden)= 0.13610E-02
  rms(prec ) = 0.13683E-02
  weight for this iteration     100.00

 eigenvalues of (default mixing * dielectric matrix)
  average eigenvalue GAMMA=   1.0656
  2.4412  1.1767  1.0340  0.3381  0.3381

 Free energy of the ion-electron system (eV)
  ---------------------------------------------------
  alpha Z        PSCENC =       148.31138306
  Ewald energy   TEWEN  =     -4841.88571927
  -Hartree energ DENC   =      -937.95141713
  -exchange      EXHF   =         0.00000000
  -V(xc)+E(xc)   XCENC  =      -360.00970891
  PAW double counting   =      6486.65344240    -5897.94366356
  entropy T*S    EENTRO =        -0.00000000
  eigenvalues    EBANDS =      -645.47515889
  atomic energy  EATOM  =      6013.13127684
  Solvation  Ediel_sol  =         0.00000000
  ---------------------------------------------------
  free energy    TOTEN  =       -35.16956546 eV

  energy without entropy =      -35.16956546  energy(sigma->0) =      -35.16956546


--------------------------------------------------------------------------------------------------------




--------------------------------------- Iteration      1(   7)  ---------------------------------------


    POTLOK:  cpu time      0.0855: real time      0.0863
    SETDIJ:  cpu time      0.2894: real time      0.2914
     EDDAV:  cpu time     59.1001: real time     59.6323
       DOS:  cpu time      0.0009: real time      0.0009
    CHARGE:  cpu time      2.0257: real time      2.0423
    MIXING:  cpu time      0.0035: real time      0.0035
    --------------------------------------------
      LOOP:  cpu time     61.5050: real time     62.0569

 eigenvalue-minimisations  : 15708
 total energy-change (2. order) :-0.1953595E-07  (-0.3870042E-09)
 number of electron     119.9999999 magnetization 
 augmentation part      -28.3403976 magnetization 

 Broyden mixing:
  rms(total) = 0.12243E-02    rms(broyden)= 0.12242E-02
  rms(prec ) = 0.12316E-02
  weight for this iteration     100.00

 eigenvalues of (default mixing * dielectric matrix)
  average eigenvalue GAMMA=   1.5239
  2.4027  2.0421  2.0421  1.0692  0.7937  0.7937

 Free energy of the ion-electron system (eV)
  ---------------------------------------------------
  alpha Z        PSCENC =       148.31138306
  Ewald energy   TEWEN  =     -4841.88571927
  -Hartree energ DENC   =      -937.95172097
  -exchange      EXHF   =         0.00000000
  -V(xc)+E(xc)   XCENC  =      -360.00967002
  PAW double counting   =      6486.54931838    -5897.83957510
  entropy T*S    EENTRO =        -0.00000000
  eigenvalues    EBANDS =      -645.47485841
  atomic energy  EATOM  =      6013.13127684
  Solvation  Ediel_sol  =         0.00000000
  ---------------------------------------------------
  free energy    TOTEN  =       -35.16956548 eV

  energy without entropy =      -35.16956548  energy(sigma->0) =      -35.16956548


--------------------------------------------------------------------------------------------------------




--------------------------------------- Iteration      1(   8)  ---------------------------------------


    POTLOK:  cpu time      0.0966: real time      0.0976
    SETDIJ:  cpu time      0.3154: real time      0.3178
     EDDAV:  cpu time     81.7330: real time     82.4563
       DOS:  cpu time      0.0111: real time      0.0112
    CHARGE:  cpu time      2.0374: real time      2.0550
    MIXING:  cpu time      0.0067: real time      0.0068
    --------------------------------------------
      LOOP:  cpu time     84.2001: real time     84.9446

 eigenvalue-minimisations  : 25896
 total energy-change (2. order) :-0.1265244E-06  (-0.1156478E-07)
 number of electron     119.9999999 magnetization 
 augmentation part      -28.3403728 magnetization 

 Broyden mixing:
  rms(total) = 0.15703E-02    rms(broyden)= 0.15703E-02
  rms(prec ) = 0.15738E-02
  weight for this iteration     100.00

 eigenvalues of (default mixing * dielectric matrix)
  average eigenvalue GAMMA=   1.3552
  2.4030  1.5285  1.5285  1.5699  1.0273  0.7145  0.7145

 Free energy of the ion-electron system (eV)
  ---------------------------------------------------
  alpha Z        PSCENC =       148.31138306
  Ewald energy   TEWEN  =     -4841.88571927
  -Hartree energ DENC   =      -937.95423655
  -exchange      EXHF   =         0.00000000
  -V(xc)+E(xc)   XCENC  =      -360.00925240
  PAW double counting   =      6485.04252083    -5896.33304660
  entropy T*S    EENTRO =        -0.00000000
  eigenvalues    EBANDS =      -645.47249152
  atomic energy  EATOM  =      6013.13127684
  Solvation  Ediel_sol  =         0.00000000
  ---------------------------------------------------
  free energy    TOTEN  =       -35.16956560 eV

  energy without entropy =      -35.16956560  energy(sigma->0) =      -35.16956560


--------------------------------------------------------------------------------------------------------




--------------------------------------- Iteration      1(   9)  ---------------------------------------


    POTLOK:  cpu time      0.0886: real time      0.0895
    SETDIJ:  cpu time      0.2378: real time      0.2397
     EDDAV:  cpu time     81.0013: real time     81.7202
       DOS:  cpu time      0.0011: real time      0.0011
    CHARGE:  cpu time      2.1634: real time      2.1820
    MIXING:  cpu time      0.0034: real time      0.0034
    --------------------------------------------
      LOOP:  cpu time     83.4956: real time     84.2359

 eigenvalue-minimisations  : 25224
 total energy-change (2. order) : 0.1632816E-06  (-0.7767436E-08)
 number of electron     119.9999999 magnetization 
 augmentation part      -28.3403937 magnetization 

 Broyden mixing:
  rms(total) = 0.93004E-03    rms(broyden)= 0.93003E-03
  rms(prec ) = 0.93281E-03
  weight for this iteration     100.00

 eigenvalues of (default mixing * dielectric matrix)
  average eigenvalue GAMMA=   1.2350
  2.4449  1.5585  1.5585  1.6305  1.0274  0.7164  0.7164  0.2273

 Free energy of the ion-electron system (eV)
  ---------------------------------------------------
  alpha Z        PSCENC =       148.31138306
  Ewald energy   TEWEN  =     -4841.88571927
  -Hartree energ DENC   =      -937.95320919
  -exchange      EXHF   =         0.00000000
  -V(xc)+E(xc)   XCENC  =      -360.00938455
  PAW double counting   =      6485.47326621    -5896.76362380
  entropy T*S    EENTRO =        -0.00000000
  eigenvalues    EBANDS =      -645.47355474
  atomic energy  EATOM  =      6013.13127684
  Solvation  Ediel_sol  =         0.00000000
  ---------------------------------------------------
  free energy    TOTEN  =       -35.16956544 eV

  energy without entropy =      -35.16956544  energy(sigma->0) =      -35.16956544


--------------------------------------------------------------------------------------------------------




--------------------------------------- Iteration      1(  10)  ---------------------------------------


    POTLOK:  cpu time      0.0905: real time      0.0914
    SETDIJ:  cpu time      0.2458: real time      0.2478
     EDDAV:  cpu time     54.9741: real time     55.4596
       DOS:  cpu time      0.0010: real time      0.0010
    CHARGE:  cpu time      1.8706: real time      1.8858
    MIXING:  cpu time      0.0031: real time      0.0031
    --------------------------------------------
      LOOP:  cpu time     57.1851: real time     57.6887

 eigenvalue-minimisations  : 14388
 total energy-change (2. order) :-0.2376146E-07  (-0.1689824E-09)
 number of electron     119.9999999 magnetization 
 augmentation part      -28.3403952 magnetization 

 Broyden mixing:
  rms(total) = 0.10054E-02    rms(broyden)= 0.10054E-02
  rms(prec ) = 0.10082E-02
  weight for this iteration     100.00

 eigenvalues of (default mixing * dielectric matrix)
  average eigenvalue GAMMA=   1.1111
  2.4429  1.5565  1.5565  1.6260  1.0278  0.7173  0.7173  0.2924  0.0635

 Free energy of the ion-electron system (eV)
  ---------------------------------------------------
  alpha Z        PSCENC =       148.31138306
  Ewald energy   TEWEN  =     -4841.88571927
  -Hartree energ DENC   =      -937.95332673
  -exchange      EXHF   =         0.00000000
  -V(xc)+E(xc)   XCENC  =      -360.00936281
  PAW double counting   =      6485.43269668    -5896.72306923
  entropy T*S    EENTRO =        -0.00000000
  eigenvalues    EBANDS =      -645.47344401
  atomic energy  EATOM  =      6013.13127684
  Solvation  Ediel_sol  =         0.00000000
  ---------------------------------------------------
  free energy    TOTEN  =       -35.16956546 eV

  energy without entropy =      -35.16956546  energy(sigma->0) =      -35.16956546


--------------------------------------------------------------------------------------------------------




--------------------------------------- Iteration      1(  11)  ---------------------------------------


    POTLOK:  cpu time      0.1023: real time      0.1033
    SETDIJ:  cpu time      0.2966: real time      0.2990
     EDDAV:  cpu time     56.1659: real time     56.6729
       DOS:  cpu time      0.0011: real time      0.0011
    --------------------------------------------
      LOOP:  cpu time     56.5659: real time     57.0763

 eigenvalue-minimisations  : 14400
 total energy-change (2. order) :-0.3701643E-09  (-0.2946904E-10)
 number of electron     119.9999999 magnetization 
 augmentation part      -28.3403952 magnetization 

 Free energy of the ion-electron system (eV)
  ---------------------------------------------------
  alpha Z        PSCENC =       148.31138306
  Ewald energy   TEWEN  =     -4841.88571927
  -Hartree energ DENC   =      -937.95332304
  -exchange      EXHF   =         0.00000000
  -V(xc)+E(xc)   XCENC  =      -360.00936398
  PAW double counting   =      6485.43610737    -5896.72647991
  entropy T*S    EENTRO =        -0.00000000
  eigenvalues    EBANDS =      -645.47344654
  atomic energy  EATOM  =      6013.13127684
  Solvation  Ediel_sol  =         0.00000000
  ---------------------------------------------------
  free energy    TOTEN  =       -35.16956546 eV

  energy without entropy =      -35.16956546  energy(sigma->0) =      -35.16956546


--------------------------------------------------------------------------------------------------------




 average (electrostatic) potential at core
  the test charge radii are     1.1312  1.1875
  (the norm of the test charge is              1.0000)
       1 -49.8138       2 -49.8138       3 -49.8138       4 -49.8138       5 -94.1652
       6 -94.1652       7 -94.1652       8 -94.1652       9 -94.9436      10 -94.9436
      11 -94.9436      12 -94.9436      13 -94.3312      14 -94.3312      15 -94.3312
      16 -94.3312
 
 
 
 E-fermi :   0.6837     XC(G=0):  -7.0802     alpha+bet : -6.8534

 Fermi energy:         0.6837171941

 k-point     1 :       0.0000    0.0000    0.0000
  band No.  band energies     occupation 
      1     -20.0580      2.00000
      2     -20.0572      2.00000
      3     -20.0555      2.00000
      4     -20.0550      2.00000
      5     -11.9626      2.00000
      6     -11.8729      2.00000
      7     -11.8539      2.00000
      8     -11.8207      2.00000
      9     -10.8650      2.00000
     10     -10.8430      2.00000
     11     -10.8295      2.00000
     12     -10.7061      2.00000
     13     -10.0922      2.00000
     14     -10.0899      2.00000
     15     -10.0669      2.00000
     16     -10.0285      2.00000
     17      -6.9340      2.00000
     18      -6.9188      2.00000
     19      -6.9154      2.00000
     20      -6.8990      2.00000
     21      -6.8949      2.00000
     22      -6.8871      2.00000
     23      -6.8834      2.00000
     24      -6.8751      2.00000
     25      -6.8584      2.00000
     26      -6.8455      2.00000
     27      -6.8438      2.00000
     28      -6.8296      2.00000
     29      -3.2766      2.00000
     30      -3.2196      2.00000
     31      -3.0681      2.00000
     32      -2.9986      2.00000
     33      -1.6981      2.00000
     34      -1.5610      2.00000
     35      -1.5021      2.00000
     36      -1.4313      2.00000
     37      -1.2651      2.00000
     38      -1.2427      2.00000
     39      -1.2137      2.00000
     40      -1.0636      2.00000
     41      -0.9962      2.00000
     42      -0.9719      2.00000
     43      -0.8404      2.00000
     44      -0.7496      2.00000
     45      -0.6258      2.00000
     46      -0.4630      2.00000
     47      -0.4343      2.00000
     48      -0.4162      2.00000
     49      -0.3823      2.00000
     50      -0.3716      2.00000
     51      -0.2664      2.00000
     52      -0.1188      2.00000
     53      -0.0674      2.00000
     54       0.0701      2.00000
     55       0.0843      2.00000
     56       0.1018      2.00000
     57       0.1113      2.00000
     58       0.2770      2.00000
     59       0.3135      2.00000
     60       0.3860      2.00000
     61       2.3754      0.00000
     62       2.4201      0.00000
     63       2.4500      0.00000
     64       2.5260      0.00000
     65       4.5404      0.00000
     66       5.4867      0.00000
     67       5.5664      0.00000
     68       5.7700      0.00000
     69       5.7862      0.00000
     70       5.9125      0.00000
     71       6.0199      0.00000
     72       6.1213      0.00000
     73       6.1778      0.00000
     74       6.4059      0.00000
     75       6.5935      0.00000
     76       6.6093      0.00000
     77       6.6315      0.00000
     78       6.6765      0.00000
     79       6.7013      0.00000
     80       6.7223      0.00000
     81       6.8205      0.00000
     82       6.9861      0.00000
     83       7.0718      0.00000
     84       7.0790      0.00000
     85       7.2183      0.00000
     86       7.2191      0.00000
     87       7.3082      0.00000
     88       7.3361      0.00000
     89       7.3528      0.00000
     90       7.5021      0.00000
     91       7.7351      0.00000
     92       7.8372      0.00000
     93       7.9717      0.00000
     94       7.9945      0.00000
     95       7.9978      0.00000
     96       8.0720      0.00000
     97       8.2124      0.00000
     98       8.3572      0.00000
     99       8.3729      0.00000
    100       8.3938      0.00000
    101       8.4184      0.00000
    102       8.5339      0.00000
    103       8.8114      0.00000
    104       8.8619      0.00000
    105       8.8866      0.00000
    106       8.9045      0.00000
    107       8.9048      0.00000
    108       9.0206      0.00000
    109       9.3290      0.00000
    110       9.3518      0.00000
    111       9.3580      0.00000
    112       9.4798      0.00000
    113       9.5934      0.00000
    114       9.8340      0.00000
    115       9.8725      0.00000
    116       9.9137      0.00000
    117      10.0117      0.00000
    118      10.0945      0.00000
    119      10.1534      0.00000
    120      10.1607      0.00000
    121      10.4373      0.00000
    122      10.5179      0.00000
    123      10.6080      0.00000
    124      10.7864      0.00000
    125      10.9452      0.00000
    126      10.9577      0.00000
    127      11.3830      0.00000
    128      11.5445      0.00000
    129      11.5701      0.00000
    130      11.5973      0.00000
    131      11.6509      0.00000
    132      11.6741      0.00000
    133      11.8546      0.00000
    134      11.8621      0.00000
    135      11.8883      0.00000
    136      11.9099      0.00000
    137      11.9292      0.00000
    138      12.1168      0.00000
    139      12.1207      0.00000
    140      12.2132      0.00000
    141      12.2745      0.00000
    142      12.2906      0.00000
    143      12.3599      0.00000
    144      12.4157      0.00000

 k-point     2 :       0.1667    0.0000    0.0000
  band No.  band energies     occupation 
      1     -20.0579      2.00000
      2     -20.0572      2.00000
      3     -20.0554      2.00000
      4     -20.0550      2.00000
      5     -11.9569      2.00000
      6     -11.8691      2.00000
      7     -11.8642      2.00000
      8     -11.8225      2.00000
      9     -10.8635      2.00000
     10     -10.8313      2.00000
     11     -10.8298      2.00000
     12     -10.7128      2.00000
     13     -10.0940      2.00000
     14     -10.0846      2.00000
     15     -10.0707      2.00000
     16     -10.0328      2.00000
     17      -6.9331      2.00000
     18      -6.9200      2.00000
     19      -6.9124      2.00000
     20      -6.8980      2.00000
     21      -6.8939      2.00000
     22      -6.8878      2.00000
     23      -6.8803      2.00000
     24      -6.8729      2.00000
     25      -6.8600      2.00000
     26      -6.8504      2.00000
     27      -6.8429      2.00000
     28      -6.8317      2.00000
     29      -3.2614      2.00000
     30      -3.2057      2.00000
     31      -3.0812      2.00000
     32      -3.0149      2.00000
     33      -1.6875      2.00000
     34      -1.5578      2.00000
     35      -1.5167      2.00000
     36      -1.4681      2.00000
     37      -1.3047      2.00000
     38      -1.2953      2.00000
     39      -1.1818      2.00000
     40      -1.0629      2.00000
     41      -0.9691      2.00000
     42      -0.9245      2.00000
     43      -0.8359      2.00000
     44      -0.7511      2.00000
     45      -0.6593      2.00000
     46      -0.4398      2.00000
     47      -0.3989      2.00000
     48      -0.3935      2.00000
     49      -0.3826      2.00000
     50      -0.3336      2.00000
     51      -0.2653      2.00000
     52      -0.1174      2.00000
     53      -0.0888      2.00000
     54       0.0759      2.00000
     55       0.0836      2.00000
     56       0.1113      2.00000
     57       0.1192      2.00000
     58       0.2737      2.00000
     59       0.2832      2.00000
     60       0.3792      2.00000
     61       2.3613      0.00000
     62       2.4098      0.00000
     63       2.4301      0.00000
     64       2.4903      0.00000
     65       4.6295      0.00000
     66       5.5538      0.00000
     67       5.5790      0.00000
     68       5.7356      0.00000
     69       5.8070      0.00000
     70       5.9195      0.00000
     71       5.9984      0.00000
     72       6.0420      0.00000
     73       6.1170      0.00000
     74       6.3855      0.00000
     75       6.5288      0.00000
     76       6.5649      0.00000
     77       6.5961      0.00000
     78       6.6805      0.00000
     79       6.7273      0.00000
     80       6.7867      0.00000
     81       6.8079      0.00000
     82       6.9452      0.00000
     83       7.0063      0.00000
     84       7.0887      0.00000
     85       7.1996      0.00000
     86       7.2252      0.00000
     87       7.2683      0.00000
     88       7.4161      0.00000
     89       7.4577      0.00000
     90       7.6476      0.00000
     91       7.7036      0.00000
     92       7.7320      0.00000
     93       7.9704      0.00000
     94       7.9853      0.00000
     95       8.0385      0.00000
     96       8.1871      0.00000
     97       8.2002      0.00000
     98       8.4046      0.00000
     99       8.4262      0.00000
    100       8.4274      0.00000
    101       8.4716      0.00000
    102       8.5768      0.00000
    103       8.7881      0.00000
    104       8.8542      0.00000
    105       8.8857      0.00000
    106       8.9033      0.00000
    107       8.9257      0.00000
    108       9.0443      0.00000
    109       9.1292      0.00000
    110       9.1884      0.00000
    111       9.4320      0.00000
    112       9.6841      0.00000
    113       9.6997      0.00000
    114       9.7298      0.00000
    115       9.8840      0.00000
    116       9.8977      0.00000
    117       9.9236      0.00000
    118      10.0219      0.00000
    119      10.1103      0.00000
    120      10.2739      0.00000
    121      10.3104      0.00000
    122      10.5089      0.00000
    123      10.7054      0.00000
    124      10.8490      0.00000
    125      10.9460      0.00000
    126      10.9934      0.00000
    127      11.1896      0.00000
    128      11.2246      0.00000
    129      11.2904      0.00000
    130      11.5104      0.00000
    131      11.5578      0.00000
    132      11.7443      0.00000
    133      11.7659      0.00000
    134      11.9257      0.00000
    135      11.9287      0.00000
    136      12.0075      0.00000
    137      12.0516      0.00000
    138      12.1816      0.00000
    139      12.2377      0.00000
    140      12.2588      0.00000
    141      12.3221      0.00000
    142      12.3631      0.00000
    143      12.4402      0.00000
    144      12.6224      0.00000

 k-point     3 :       0.3333    0.0000    0.0000
  band No.  band energies     occupation 
      1     -20.0578      2.00000
      2     -20.0574      2.00000
      3     -20.0553      2.00000
      4     -20.0551      2.00000
      5     -11.9405      2.00000
      6     -11.8882      2.00000
      7     -11.8585      2.00000
      8     -11.8307      2.00000
      9     -10.8562      2.00000
     10     -10.8368      2.00000
     11     -10.7994      2.00000
     12     -10.7328      2.00000
     13     -10.0932      2.00000
     14     -10.0795      2.00000
     15     -10.0740      2.00000
     16     -10.0445      2.00000
     17      -6.9306      2.00000
     18      -6.9232      2.00000
     19      -6.9045      2.00000
     20      -6.8955      2.00000
     21      -6.8923      2.00000
     22      -6.8897      2.00000
     23      -6.8742      2.00000
     24      -6.8676      2.00000
     25      -6.8639      2.00000
     26      -6.8569      2.00000
     27      -6.8445      2.00000
     28      -6.8373      2.00000
     29      -3.2203      2.00000
     30      -3.1678      2.00000
     31      -3.1168      2.00000
     32      -3.0584      2.00000
     33      -1.6559      2.00000
     34      -1.5459      2.00000
     35      -1.5381      2.00000
     36      -1.5343      2.00000
     37      -1.3900      2.00000
     38      -1.3866      2.00000
     39      -1.1272      2.00000
     40      -1.0664      2.00000
     41      -0.8908      2.00000
     42      -0.8212      2.00000
     43      -0.8179      2.00000
     44      -0.7675      2.00000
     45      -0.7219      2.00000
     46      -0.5050      2.00000
     47      -0.3807      2.00000
     48      -0.3150      2.00000
     49      -0.3056      2.00000
     50      -0.2781      2.00000
     51      -0.2609      2.00000
     52      -0.1332      2.00000
     53      -0.0550      2.00000
     54       0.0364      2.00000
     55       0.0541      2.00000
     56       0.1630      2.00000
     57       0.1945      2.00000
     58       0.1961      2.00000
     59       0.2542      2.00000
     60       0.3502      2.00000
     61       2.3352      0.00000
     62       2.3773      0.00000
     63       2.3931      0.00000
     64       2.4300      0.00000
     65       4.8521      0.00000
     66       5.4143      0.00000
     67       5.7227      0.00000
     68       5.7456      0.00000
     69       5.8566      0.00000
     70       5.9267      0.00000
     71       5.9330      0.00000
     72       6.0552      0.00000
     73       6.1205      0.00000
     74       6.1798      0.00000
     75       6.4526      0.00000
     76       6.5502      0.00000
     77       6.5619      0.00000
     78       6.5803      0.00000
     79       6.7359      0.00000
     80       6.7457      0.00000
     81       6.7866      0.00000
     82       6.8302      0.00000
     83       7.0298      0.00000
     84       7.0752      0.00000
     85       7.1918      0.00000
     86       7.2624      0.00000
     87       7.3376      0.00000
     88       7.5129      0.00000
     89       7.6280      0.00000
     90       7.6924      0.00000
     91       7.6928      0.00000
     92       7.7396      0.00000
     93       7.9918      0.00000
     94       8.0565      0.00000
     95       8.1085      0.00000
     96       8.1660      0.00000
     97       8.1777      0.00000
     98       8.1911      0.00000
     99       8.4996      0.00000
    100       8.5172      0.00000
    101       8.5869      0.00000
    102       8.7963      0.00000
    103       8.8018      0.00000
    104       8.8273      0.00000
    105       8.8323      0.00000
    106       8.8774      0.00000
    107       9.1107      0.00000
    108       9.1258      0.00000
    109       9.1288      0.00000
    110       9.1741      0.00000
    111       9.4405      0.00000
    112       9.5034      0.00000
    113       9.6969      0.00000
    114       9.8065      0.00000
    115       9.8118      0.00000
    116       9.8222      0.00000
    117       9.9855      0.00000
    118      10.0763      0.00000
    119      10.1441      0.00000
    120      10.1860      0.00000
    121      10.2506      0.00000
    122      10.3453      0.00000
    123      10.7034      0.00000
    124      10.8314      0.00000
    125      10.8469      0.00000
    126      10.8900      0.00000
    127      11.0093      0.00000
    128      11.1247      0.00000
    129      11.1859      0.00000
    130      11.3032      0.00000
    131      11.3083      0.00000
    132      11.5444      0.00000
    133      11.8057      0.00000
    134      11.9701      0.00000
    135      11.9831      0.00000
    136      12.0415      0.00000
    137      12.2105      0.00000
    138      12.2968      0.00000
    139      12.3536      0.00000
    140      12.4095      0.00000
    141      12.5280      0.00000
    142      12.6054      0.00000
    143      12.6740      0.00000
    144      12.6825      0.00000

 k-point     4 :       0.5000    0.0000    0.0000
  band No.  band energies     occupation 
      1     -20.0576      2.00000
      2     -20.0576      2.00000
      3     -20.0552      2.00000
      4     -20.0552      2.00000
      5     -11.9160      2.00000
      6     -11.9160      2.00000
      7     -11.8442      2.00000
      8     -11.8442      2.00000
      9     -10.8458      2.00000
     10     -10.8458      2.00000
     11     -10.7638      2.00000
     12     -10.7638      2.00000
     13     -10.0882      2.00000
     14     -10.0882      2.00000
     15     -10.0597      2.00000
     16     -10.0597      2.00000
     17      -6.9270      2.00000
     18      -6.9270      2.00000
     19      -6.8957      2.00000
     20      -6.8957      2.00000
     21      -6.8925      2.00000
     22      -6.8925      2.00000
     23      -6.8695      2.00000
     24      -6.8695      2.00000
     25      -6.8611      2.00000
     26      -6.8611      2.00000
     27      -6.8436      2.00000
     28      -6.8436      2.00000
     29      -3.1668      2.00000
     30      -3.1668      2.00000
     31      -3.1148      2.00000
     32      -3.1148      2.00000
     33      -1.6047      2.00000
     34      -1.6047      2.00000
     35      -1.5326      2.00000
     36      -1.5326      2.00000
     37      -1.4371      2.00000
     38      -1.4371      2.00000
     39      -1.0859      2.00000
     40      -1.0859      2.00000
     41      -0.8161      2.00000
     42      -0.8161      2.00000
     43      -0.7794      2.00000
     44      -0.7794      2.00000
     45      -0.6664      2.00000
     46      -0.6664      2.00000
     47      -0.3185      2.00000
     48      -0.3185      2.00000
     49      -0.2613      2.00000
     50      -0.2613      2.00000
     51      -0.2055      2.00000
     52      -0.2055      2.00000
     53       0.0311      2.00000
     54       0.0311      2.00000
     55       0.0674      2.00000
     56       0.0674      2.00000
     57       0.2141      2.00000
     58       0.2141      2.00000
     59       0.2858      2.00000
     60       0.2858      2.00000
     61       2.3337      0.00000
     62       2.3337      0.00000
     63       2.3959      0.00000
     64       2.3959      0.00000
     65       5.1301      0.00000
     66       5.1301      0.00000
     67       5.8375      0.00000
     68       5.8375      0.00000
     69       5.9058      0.00000
     70       5.9058      0.00000
     71       5.9434      0.00000
     72       5.9434      0.00000
     73       6.1179      0.00000
     74       6.1179      0.00000
     75       6.4761      0.00000
     76       6.4761      0.00000
     77       6.5919      0.00000
     78       6.5919      0.00000
     79       6.6362      0.00000
     80       6.6362      0.00000
     81       6.8119      0.00000
     82       6.8119      0.00000
     83       7.0444      0.00000
     84       7.0444      0.00000
     85       7.2318      0.00000
     86       7.2318      0.00000
     87       7.4420      0.00000
     88       7.4420      0.00000
     89       7.7149      0.00000
     90       7.7149      0.00000
     91       7.7983      0.00000
     92       7.7983      0.00000
     93       7.9893      0.00000
     94       7.9893      0.00000
     95       8.0242      0.00000
     96       8.0242      0.00000
     97       8.2723      0.00000
     98       8.2723      0.00000
     99       8.5291      0.00000
    100       8.5291      0.00000
    101       8.6958      0.00000
    102       8.6958      0.00000
    103       8.8010      0.00000
    104       8.8010      0.00000
    105       8.8552      0.00000
    106       8.8552      0.00000
    107       9.1753      0.00000
    108       9.1753      0.00000
    109       9.3208      0.00000
    110       9.3208      0.00000
    111       9.4168      0.00000
    112       9.4168      0.00000
    113       9.7032      0.00000
    114       9.7032      0.00000
    115       9.8109      0.00000
    116       9.8109      0.00000
    117      10.0401      0.00000
    118      10.0401      0.00000
    119      10.2207      0.00000
    120      10.2207      0.00000
    121      10.2655      0.00000
    122      10.2655      0.00000
    123      10.6050      0.00000
    124      10.6050      0.00000
    125      10.6604      0.00000
    126      10.6604      0.00000
    127      11.0126      0.00000
    128      11.0126      0.00000
    129      11.3375      0.00000
    130      11.3375      0.00000
    131      11.5923      0.00000
    132      11.5923      0.00000
    133      11.6372      0.00000
    134      11.6372      0.00000
    135      12.0739      0.00000
    136      12.0739      0.00000
    137      12.2377      0.00000
    138      12.2377      0.00000
    139      12.5916      0.00000
    140      12.5916      0.00000
    141      12.6509      0.00000
    142      12.6537      0.00000
    143      12.7038      0.00000
    144      12.7038      0.00000

 k-point     5 :       0.0000    0.1111    0.0000
  band No.  band energies     occupation 
      1     -20.0579      2.00000
      2     -20.0571      2.00000
      3     -20.0555      2.00000
      4     -20.0551      2.00000
      5     -11.9605      2.00000
      6     -11.8762      2.00000
      7     -11.8531      2.00000
      8     -11.8219      2.00000
      9     -10.8654      2.00000
     10     -10.8447      2.00000
     11     -10.8263      2.00000
     12     -10.7103      2.00000
     13     -10.0920      2.00000
     14     -10.0898      2.00000
     15     -10.0657      2.00000
     16     -10.0297      2.00000
     17      -6.9292      2.00000
     18      -6.9170      2.00000
     19      -6.9125      2.00000
     20      -6.9000      2.00000
     21      -6.8891      2.00000
     22      -6.8841      2.00000
     23      -6.8813      2.00000
     24      -6.8765      2.00000
     25      -6.8586      2.00000
     26      -6.8462      2.00000
     27      -6.8450      2.00000
     28      -6.8299      2.00000
     29      -3.2721      2.00000
     30      -3.2197      2.00000
     31      -3.0675      2.00000
     32      -3.0021      2.00000
     33      -1.7003      2.00000
     34      -1.5622      2.00000
     35      -1.5032      2.00000
     36      -1.4529      2.00000
     37      -1.2635      2.00000
     38      -1.2535      2.00000
     39      -1.2352      2.00000
     40      -1.0807      2.00000
     41      -0.9980      2.00000
     42      -0.9355      2.00000
     43      -0.8328      2.00000
     44      -0.7413      2.00000
     45      -0.6438      2.00000
     46      -0.5282      2.00000
     47      -0.4307      2.00000
     48      -0.3840      2.00000
     49      -0.3705      2.00000
     50      -0.3174      2.00000
     51      -0.2695      2.00000
     52      -0.1285      2.00000
     53      -0.0687      2.00000
     54       0.0487      2.00000
     55       0.0932      2.00000
     56       0.0934      2.00000
     57       0.1251      2.00000
     58       0.2696      2.00000
     59       0.3182      2.00000
     60       0.3928      2.00000
     61       2.3767      0.00000
     62       2.4189      0.00000
     63       2.4536      0.00000
     64       2.5245      0.00000
     65       4.6392      0.00000
     66       5.5025      0.00000
     67       5.5941      0.00000
     68       5.7324      0.00000
     69       5.7429      0.00000
     70       5.8793      0.00000
     71       6.1222      0.00000
     72       6.1405      0.00000
     73       6.2780      0.00000
     74       6.3597      0.00000
     75       6.4787      0.00000
     76       6.5205      0.00000
     77       6.5595      0.00000
     78       6.5645      0.00000
     79       6.7346      0.00000
     80       6.7353      0.00000
     81       6.8754      0.00000
     82       6.9822      0.00000
     83       7.0150      0.00000
     84       7.0560      0.00000
     85       7.1630      0.00000
     86       7.1661      0.00000
     87       7.3290      0.00000
     88       7.4550      0.00000
     89       7.5638      0.00000
     90       7.6066      0.00000
     91       7.6390      0.00000
     92       7.7828      0.00000
     93       7.9049      0.00000
     94       7.9526      0.00000
     95       7.9865      0.00000
     96       8.2032      0.00000
     97       8.3148      0.00000
     98       8.3557      0.00000
     99       8.4100      0.00000
    100       8.4291      0.00000
    101       8.4311      0.00000
    102       8.6309      0.00000
    103       8.6415      0.00000
    104       8.7750      0.00000
    105       8.8491      0.00000
    106       8.8555      0.00000
    107       8.8607      0.00000
    108       8.9844      0.00000
    109       9.2594      0.00000
    110       9.2985      0.00000
    111       9.4836      0.00000
    112       9.4877      0.00000
    113       9.5954      0.00000
    114       9.7004      0.00000
    115       9.7008      0.00000
    116       9.9341      0.00000
    117      10.0921      0.00000
    118      10.1945      0.00000
    119      10.2699      0.00000
    120      10.3373      0.00000
    121      10.3551      0.00000
    122      10.5035      0.00000
    123      10.5808      0.00000
    124      10.7668      0.00000
    125      10.9099      0.00000
    126      11.1024      0.00000
    127      11.1525      0.00000
    128      11.3040      0.00000
    129      11.3954      0.00000
    130      11.4269      0.00000
    131      11.5106      0.00000
    132      11.6560      0.00000
    133      11.6879      0.00000
    134      11.8206      0.00000
    135      11.9887      0.00000
    136      12.0329      0.00000
    137      12.0850      0.00000
    138      12.1182      0.00000
    139      12.2031      0.00000
    140      12.2903      0.00000
    141      12.4000      0.00000
    142      12.4442      0.00000
    143      12.4511      0.00000
    144      12.4547      0.00000

 k-point     6 :       0.1667    0.1111    0.0000
  band No.  band energies     occupation 
      1     -20.0578      2.00000
      2     -20.0572      2.00000
      3     -20.0555      2.00000
      4     -20.0551      2.00000
      5     -11.9548      2.00000
      6     -11.8723      2.00000
      7     -11.8632      2.00000
      8     -11.8241      2.00000
      9     -10.8635      2.00000
     10     -10.8318      2.00000
     11     -10.8282      2.00000
     12     -10.7169      2.00000
     13     -10.0936      2.00000
     14     -10.0847      2.00000
     15     -10.0695      2.00000
     16     -10.0340      2.00000
     17      -6.9284      2.00000
     18      -6.9139      2.00000
     19      -6.9139      2.00000
     20      -6.8988      2.00000
     21      -6.8883      2.00000
     22      -6.8820      2.00000
     23      -6.8810      2.00000
     24      -6.8742      2.00000
     25      -6.8603      2.00000
     26      -6.8513      2.00000
     27      -6.8439      2.00000
     28      -6.8319      2.00000
     29      -3.2571      2.00000
     30      -3.2057      2.00000
     31      -3.0803      2.00000
     32      -3.0179      2.00000
     33      -1.6969      2.00000
     34      -1.5611      2.00000
     35      -1.5139      2.00000
     36      -1.5019      2.00000
     37      -1.3040      2.00000
     38      -1.2713      2.00000
     39      -1.2075      2.00000
     40      -1.0730      2.00000
     41      -0.9689      2.00000
     42      -0.9169      2.00000
     43      -0.8330      2.00000
     44      -0.7362      2.00000
     45      -0.6484      2.00000
     46      -0.4877      2.00000
     47      -0.4208      2.00000
     48      -0.4084      2.00000
     49      -0.3330      2.00000
     50      -0.2912      2.00000
     51      -0.2676      2.00000
     52      -0.1387      2.00000
     53      -0.0764      2.00000
     54       0.0698      2.00000
     55       0.0753      2.00000
     56       0.1195      2.00000
     57       0.1201      2.00000
     58       0.2668      2.00000
     59       0.2884      2.00000
     60       0.3842      2.00000
     61       2.3640      0.00000
     62       2.4098      0.00000
     63       2.4343      0.00000
     64       2.4917      0.00000
     65       4.7229      0.00000
     66       5.5578      0.00000
     67       5.6109      0.00000
     68       5.7190      0.00000
     69       5.7523      0.00000
     70       5.8453      0.00000
     71       6.0981      0.00000
     72       6.1233      0.00000
     73       6.1588      0.00000
     74       6.3715      0.00000
     75       6.4744      0.00000
     76       6.4779      0.00000
     77       6.5175      0.00000
     78       6.6006      0.00000
     79       6.7256      0.00000
     80       6.7349      0.00000
     81       6.9441      0.00000
     82       6.9483      0.00000
     83       7.0065      0.00000
     84       7.1238      0.00000
     85       7.1265      0.00000
     86       7.1749      0.00000
     87       7.2840      0.00000
     88       7.4511      0.00000
     89       7.5330      0.00000
     90       7.5662      0.00000
     91       7.7220      0.00000
     92       7.8419      0.00000
     93       7.9168      0.00000
     94       8.0267      0.00000
     95       8.0335      0.00000
     96       8.1297      0.00000
     97       8.2861      0.00000
     98       8.3262      0.00000
     99       8.4035      0.00000
    100       8.4330      0.00000
    101       8.5647      0.00000
    102       8.5942      0.00000
    103       8.7085      0.00000
    104       8.7933      0.00000
    105       8.8452      0.00000
    106       8.8985      0.00000
    107       8.9194      0.00000
    108       9.0176      0.00000
    109       9.1581      0.00000
    110       9.2860      0.00000
    111       9.4410      0.00000
    112       9.4526      0.00000
    113       9.6140      0.00000
    114       9.7789      0.00000
    115       9.8462      0.00000
    116       9.8996      0.00000
    117      10.0147      0.00000
    118      10.0629      0.00000
    119      10.2092      0.00000
    120      10.2800      0.00000
    121      10.3973      0.00000
    122      10.5293      0.00000
    123      10.6275      0.00000
    124      10.8793      0.00000
    125      10.9293      0.00000
    126      11.0010      0.00000
    127      11.1268      0.00000
    128      11.1369      0.00000
    129      11.2484      0.00000
    130      11.3906      0.00000
    131      11.5017      0.00000
    132      11.6629      0.00000
    133      11.6987      0.00000
    134      11.8740      0.00000
    135      11.9144      0.00000
    136      12.0156      0.00000
    137      12.0943      0.00000
    138      12.1091      0.00000
    139      12.1592      0.00000
    140      12.1719      0.00000
    141      12.2937      0.00000
    142      12.4314      0.00000
    143      12.5157      0.00000
    144      12.5356      0.00000

 k-point     7 :       0.3333    0.1111    0.0000
  band No.  band energies     occupation 
      1     -20.0577      2.00000
      2     -20.0573      2.00000
      3     -20.0554      2.00000
      4     -20.0552      2.00000
      5     -11.9385      2.00000
      6     -11.8868      2.00000
      7     -11.8615      2.00000
      8     -11.8328      2.00000
      9     -10.8553      2.00000
     10     -10.8342      2.00000
     11     -10.8020      2.00000
     12     -10.7365      2.00000
     13     -10.0926      2.00000
     14     -10.0785      2.00000
     15     -10.0745      2.00000
     16     -10.0456      2.00000
     17      -6.9257      2.00000
     18      -6.9174      2.00000
     19      -6.9062      2.00000
     20      -6.8968      2.00000
     21      -6.8862      2.00000
     22      -6.8835      2.00000
     23      -6.8749      2.00000
     24      -6.8689      2.00000
     25      -6.8645      2.00000
     26      -6.8579      2.00000
     27      -6.8451      2.00000
     28      -6.8374      2.00000
     29      -3.2166      2.00000
     30      -3.1680      2.00000
     31      -3.1150      2.00000
     32      -3.0603      2.00000
     33      -1.6842      2.00000
     34      -1.5850      2.00000
     35      -1.5546      2.00000
     36      -1.5273      2.00000
     37      -1.3736      2.00000
     38      -1.3424      2.00000
     39      -1.1379      2.00000
     40      -1.0699      2.00000
     41      -0.9107      2.00000
     42      -0.8378      2.00000
     43      -0.8348      2.00000
     44      -0.7270      2.00000
     45      -0.6736      2.00000
     46      -0.5202      2.00000
     47      -0.3984      2.00000
     48      -0.3704      2.00000
     49      -0.2831      2.00000
     50      -0.2657      2.00000
     51      -0.2405      2.00000
     52      -0.1501      2.00000
     53      -0.0445      2.00000
     54       0.0457      2.00000
     55       0.0559      2.00000
     56       0.1607      2.00000
     57       0.1865      2.00000
     58       0.2039      2.00000
     59       0.2495      2.00000
     60       0.3507      2.00000
     61       2.3413      0.00000
     62       2.3847      0.00000
     63       2.3952      0.00000
     64       2.4340      0.00000
     65       4.9331      0.00000
     66       5.4711      0.00000
     67       5.6459      0.00000
     68       5.6806      0.00000
     69       5.8275      0.00000
     70       5.8852      0.00000
     71       6.0564      0.00000
     72       6.1075      0.00000
     73       6.1953      0.00000
     74       6.2569      0.00000
     75       6.3616      0.00000
     76       6.3999      0.00000
     77       6.5107      0.00000
     78       6.5774      0.00000
     79       6.6826      0.00000
     80       6.6858      0.00000
     81       6.9259      0.00000
     82       6.9693      0.00000
     83       7.0713      0.00000
     84       7.1184      0.00000
     85       7.1949      0.00000
     86       7.2008      0.00000
     87       7.3224      0.00000
     88       7.4467      0.00000
     89       7.4767      0.00000
     90       7.6490      0.00000
     91       7.6832      0.00000
     92       7.8418      0.00000
     93       7.8787      0.00000
     94       7.9891      0.00000
     95       8.0914      0.00000
     96       8.1937      0.00000
     97       8.2241      0.00000
     98       8.3127      0.00000
     99       8.4276      0.00000
    100       8.4496      0.00000
    101       8.6249      0.00000
    102       8.6719      0.00000
    103       8.7441      0.00000
    104       8.8685      0.00000
    105       8.8789      0.00000
    106       8.9669      0.00000
    107       9.0539      0.00000
    108       9.1192      0.00000
    109       9.1975      0.00000
    110       9.2858      0.00000
    111       9.3761      0.00000
    112       9.4503      0.00000
    113       9.7126      0.00000
    114       9.7779      0.00000
    115       9.8173      0.00000
    116       9.8555      0.00000
    117       9.9805      0.00000
    118      10.0694      0.00000
    119      10.1559      0.00000
    120      10.2299      0.00000
    121      10.4200      0.00000
    122      10.4291      0.00000
    123      10.6317      0.00000
    124      10.6754      0.00000
    125      10.8272      0.00000
    126      10.8891      0.00000
    127      11.0760      0.00000
    128      11.0842      0.00000
    129      11.2417      0.00000
    130      11.3113      0.00000
    131      11.4421      0.00000
    132      11.5157      0.00000
    133      11.5498      0.00000
    134      11.7107      0.00000
    135      11.8717      0.00000
    136      11.9596      0.00000
    137      12.1181      0.00000
    138      12.1758      0.00000
    139      12.3501      0.00000
    140      12.3577      0.00000
    141      12.4599      0.00000
    142      12.5269      0.00000
    143      12.6021      0.00000
    144      12.6645      0.00000

 k-point     8 :       0.5000    0.1111    0.0000
  band No.  band energies     occupation 
      1     -20.0575      2.00000
      2     -20.0575      2.00000
      3     -20.0553      2.00000
      4     -20.0553      2.00000
      5     -11.9143      2.00000
      6     -11.9143      2.00000
      7     -11.8468      2.00000
      8     -11.8468      2.00000
      9     -10.8440      2.00000
     10     -10.8440      2.00000
     11     -10.7669      2.00000
     12     -10.7669      2.00000
     13     -10.0874      2.00000
     14     -10.0874      2.00000
     15     -10.0605      2.00000
     16     -10.0605      2.00000
     17      -6.9217      2.00000
     18      -6.9217      2.00000
     19      -6.8985      2.00000
     20      -6.8985      2.00000
     21      -6.8849      2.00000
     22      -6.8849      2.00000
     23      -6.8701      2.00000
     24      -6.8701      2.00000
     25      -6.8626      2.00000
     26      -6.8626      2.00000
     27      -6.8437      2.00000
     28      -6.8437      2.00000
     29      -3.1640      2.00000
     30      -3.1640      2.00000
     31      -3.1156      2.00000
     32      -3.1156      2.00000
     33      -1.6498      2.00000
     34      -1.6498      2.00000
     35      -1.5398      2.00000
     36      -1.5398      2.00000
     37      -1.3925      2.00000
     38      -1.3925      2.00000
     39      -1.0894      2.00000
     40      -1.0894      2.00000
     41      -0.8638      2.00000
     42      -0.8638      2.00000
     43      -0.7104      2.00000
     44      -0.7104      2.00000
     45      -0.6795      2.00000
     46      -0.6795      2.00000
     47      -0.3258      2.00000
     48      -0.3258      2.00000
     49      -0.2870      2.00000
     50      -0.2870      2.00000
     51      -0.1932      2.00000
     52      -0.1932      2.00000
     53       0.0389      2.00000
     54       0.0389      2.00000
     55       0.0745      2.00000
     56       0.0745      2.00000
     57       0.2103      2.00000
     58       0.2103      2.00000
     59       0.2818      2.00000
     60       0.2818      2.00000
     61       2.3426      0.00000
     62       2.3426      0.00000
     63       2.3996      0.00000
     64       2.3996      0.00000
     65       5.1978      0.00000
     66       5.1978      0.00000
     67       5.6775      0.00000
     68       5.6775      0.00000
     69       5.9430      0.00000
     70       5.9430      0.00000
     71       6.0462      0.00000
     72       6.0462      0.00000
     73       6.2473      0.00000
     74       6.2473      0.00000
     75       6.2897      0.00000
     76       6.2897      0.00000
     77       6.5654      0.00000
     78       6.5654      0.00000
     79       6.6223      0.00000
     80       6.6223      0.00000
     81       6.9545      0.00000
     82       6.9545      0.00000
     83       7.0907      0.00000
     84       7.0907      0.00000
     85       7.2174      0.00000
     86       7.2174      0.00000
     87       7.4385      0.00000
     88       7.4385      0.00000
     89       7.5246      0.00000
     90       7.5246      0.00000
     91       7.7611      0.00000
     92       7.7611      0.00000
     93       7.8901      0.00000
     94       7.8901      0.00000
     95       8.1103      0.00000
     96       8.1103      0.00000
     97       8.3524      0.00000
     98       8.3524      0.00000
     99       8.4203      0.00000
    100       8.4203      0.00000
    101       8.7124      0.00000
    102       8.7124      0.00000
    103       8.8022      0.00000
    104       8.8022      0.00000
    105       8.9245      0.00000
    106       8.9245      0.00000
    107       9.1027      0.00000
    108       9.1027      0.00000
    109       9.3583      0.00000
    110       9.3583      0.00000
    111       9.4511      0.00000
    112       9.4511      0.00000
    113       9.7153      0.00000
    114       9.7153      0.00000
    115       9.8064      0.00000
    116       9.8064      0.00000
    117      10.1469      0.00000
    118      10.1469      0.00000
    119      10.1836      0.00000
    120      10.1836      0.00000
    121      10.3637      0.00000
    122      10.3637      0.00000
    123      10.5461      0.00000
    124      10.5461      0.00000
    125      10.6490      0.00000
    126      10.6490      0.00000
    127      11.0052      0.00000
    128      11.0052      0.00000
    129      11.4059      0.00000
    130      11.4059      0.00000
    131      11.4850      0.00000
    132      11.4850      0.00000
    133      11.5373      0.00000
    134      11.5373      0.00000
    135      11.9840      0.00000
    136      11.9840      0.00000
    137      12.1273      0.00000
    138      12.1273      0.00000
    139      12.2959      0.00000
    140      12.2959      0.00000
    141      12.5597      0.00000
    142      12.5600      0.00000
    143      12.6220      0.00000
    144      12.6243      0.00000

 k-point     9 :       0.0000    0.2222    0.0000
  band No.  band energies     occupation 
      1     -20.0576      2.00000
      2     -20.0569      2.00000
      3     -20.0556      2.00000
      4     -20.0553      2.00000
      5     -11.9541      2.00000
      6     -11.8855      2.00000
      7     -11.8508      2.00000
      8     -11.8255      2.00000
      9     -10.8661      2.00000
     10     -10.8490      2.00000
     11     -10.8167      2.00000
     12     -10.7222      2.00000
     13     -10.0914      2.00000
     14     -10.0897      2.00000
     15     -10.0625      2.00000
     16     -10.0332      2.00000
     17      -6.9186      2.00000
     18      -6.9183      2.00000
     19      -6.8995      2.00000
     20      -6.8968      2.00000
     21      -6.8856      2.00000
     22      -6.8793      2.00000
     23      -6.8781      2.00000
     24      -6.8706      2.00000
     25      -6.8572      2.00000
     26      -6.8482      2.00000
     27      -6.8473      2.00000
     28      -6.8304      2.00000
     29      -3.2600      2.00000
     30      -3.2198      2.00000
     31      -3.0651      2.00000
     32      -3.0115      2.00000
     33      -1.6985      2.00000
     34      -1.5769      2.00000
     35      -1.5091      2.00000
     36      -1.5032      2.00000
     37      -1.2972      2.00000
     38      -1.2664      2.00000
     39      -1.2116      2.00000
     40      -1.1575      2.00000
     41      -1.0077      2.00000
     42      -0.9000      2.00000
     43      -0.7776      2.00000
     44      -0.7163      2.00000
     45      -0.6683      2.00000
     46      -0.5987      2.00000
     47      -0.4087      2.00000
     48      -0.3653      2.00000
     49      -0.3535      2.00000
     50      -0.2774      2.00000
     51      -0.2295      2.00000
     52      -0.1732      2.00000
     53      -0.0675      2.00000
     54       0.0284      2.00000
     55       0.0793      2.00000
     56       0.1140      2.00000
     57       0.1396      2.00000
     58       0.2528      2.00000
     59       0.3323      2.00000
     60       0.4051      2.00000
     61       2.3807      0.00000
     62       2.4157      0.00000
     63       2.4634      0.00000
     64       2.5202      0.00000
     65       4.9063      0.00000
     66       5.5223      0.00000
     67       5.6521      0.00000
     68       5.6727      0.00000
     69       5.7440      0.00000
     70       5.8680      0.00000
     71       6.0979      0.00000
     72       6.1750      0.00000
     73       6.2135      0.00000
     74       6.3006      0.00000
     75       6.4386      0.00000
     76       6.4452      0.00000
     77       6.5083      0.00000
     78       6.5890      0.00000
     79       6.6665      0.00000
     80       6.7928      0.00000
     81       6.8554      0.00000
     82       6.8665      0.00000
     83       7.0335      0.00000
     84       7.0976      0.00000
     85       7.1395      0.00000
     86       7.2941      0.00000
     87       7.2978      0.00000
     88       7.4503      0.00000
     89       7.5085      0.00000
     90       7.6555      0.00000
     91       7.6745      0.00000
     92       7.8439      0.00000
     93       7.8622      0.00000
     94       7.8967      0.00000
     95       8.1264      0.00000
     96       8.1538      0.00000
     97       8.2102      0.00000
     98       8.3084      0.00000
     99       8.3617      0.00000
    100       8.4633      0.00000
    101       8.5079      0.00000
    102       8.5959      0.00000
    103       8.6745      0.00000
    104       8.8146      0.00000
    105       8.8561      0.00000
    106       8.8786      0.00000
    107       8.9092      0.00000
    108       8.9652      0.00000
    109       9.1130      0.00000
    110       9.1236      0.00000
    111       9.2785      0.00000
    112       9.4431      0.00000
    113       9.5075      0.00000
    114       9.5889      0.00000
    115       9.9148      0.00000
    116      10.0105      0.00000
    117      10.1001      0.00000
    118      10.2200      0.00000
    119      10.2780      0.00000
    120      10.3655      0.00000
    121      10.4543      0.00000
    122      10.5280      0.00000
    123      10.5333      0.00000
    124      10.6719      0.00000
    125      10.9296      0.00000
    126      10.9733      0.00000
    127      11.1739      0.00000
    128      11.2507      0.00000
    129      11.2902      0.00000
    130      11.3599      0.00000
    131      11.3709      0.00000
    132      11.4159      0.00000
    133      11.6380      0.00000
    134      11.7070      0.00000
    135      11.7580      0.00000
    136      11.8821      0.00000
    137      11.9843      0.00000
    138      12.1122      0.00000
    139      12.1903      0.00000
    140      12.3194      0.00000
    141      12.4033      0.00000
    142      12.4466      0.00000
    143      12.4960      0.00000
    144      12.5178      0.00000

 k-point    10 :       0.1667    0.2222    0.0000
  band No.  band energies     occupation 
      1     -20.0575      2.00000
      2     -20.0570      2.00000
      3     -20.0556      2.00000
      4     -20.0553      2.00000
      5     -11.9486      2.00000
      6     -11.8814      2.00000
      7     -11.8602      2.00000
      8     -11.8284      2.00000
      9     -10.8629      2.00000
     10     -10.8371      2.00000
     11     -10.8192      2.00000
     12     -10.7285      2.00000
     13     -10.0925      2.00000
     14     -10.0852      2.00000
     15     -10.0663      2.00000
     16     -10.0374      2.00000
     17      -6.9190      2.00000
     18      -6.9136      2.00000
     19      -6.8987      2.00000
     20      -6.8980      2.00000
     21      -6.8835      2.00000
     22      -6.8781      2.00000
     23      -6.8770      2.00000
     24      -6.8704      2.00000
     25      -6.8590      2.00000
     26      -6.8532      2.00000
     27      -6.8456      2.00000
     28      -6.8323      2.00000
     29      -3.2456      2.00000
     30      -3.2059      2.00000
     31      -3.0771      2.00000
     32      -3.0263      2.00000
     33      -1.7095      2.00000
     34      -1.5801      2.00000
     35      -1.5615      2.00000
     36      -1.5120      2.00000
     37      -1.3090      2.00000
     38      -1.2581      2.00000
     39      -1.2205      2.00000
     40      -1.1259      2.00000
     41      -0.9779      2.00000
     42      -0.9057      2.00000
     43      -0.7956      2.00000
     44      -0.6931      2.00000
     45      -0.6407      2.00000
     46      -0.5552      2.00000
     47      -0.4433      2.00000
     48      -0.3694      2.00000
     49      -0.3268      2.00000
     50      -0.2735      2.00000
     51      -0.2203      2.00000
     52      -0.1814      2.00000
     53      -0.0637      2.00000
     54       0.0539      2.00000
     55       0.0734      2.00000
     56       0.1277      2.00000
     57       0.1289      2.00000
     58       0.2499      2.00000
     59       0.3039      2.00000
     60       0.3925      2.00000
     61       2.3710      0.00000
     62       2.4093      0.00000
     63       2.4456      0.00000
     64       2.4935      0.00000
     65       4.9772      0.00000
     66       5.5391      0.00000
     67       5.6328      0.00000
     68       5.7366      0.00000
     69       5.7738      0.00000
     70       5.8143      0.00000
     71       6.1123      0.00000
     72       6.1584      0.00000
     73       6.1801      0.00000
     74       6.2409      0.00000
     75       6.3373      0.00000
     76       6.4640      0.00000
     77       6.5423      0.00000
     78       6.6192      0.00000
     79       6.6625      0.00000
     80       6.7779      0.00000
     81       6.8798      0.00000
     82       6.8889      0.00000
     83       6.9899      0.00000
     84       7.1383      0.00000
     85       7.1385      0.00000
     86       7.2492      0.00000
     87       7.2873      0.00000
     88       7.4394      0.00000
     89       7.5272      0.00000
     90       7.5844      0.00000
     91       7.6466      0.00000
     92       7.8613      0.00000
     93       7.8693      0.00000
     94       7.9832      0.00000
     95       8.0643      0.00000
     96       8.1451      0.00000
     97       8.2036      0.00000
     98       8.2436      0.00000
     99       8.4258      0.00000
    100       8.4796      0.00000
    101       8.5874      0.00000
    102       8.6063      0.00000
    103       8.6711      0.00000
    104       8.7315      0.00000
    105       8.9014      0.00000
    106       8.9352      0.00000
    107       9.0039      0.00000
    108       9.0200      0.00000
    109       9.1373      0.00000
    110       9.2216      0.00000
    111       9.3309      0.00000
    112       9.4650      0.00000
    113       9.4891      0.00000
    114       9.5643      0.00000
    115       9.9231      0.00000
    116       9.9701      0.00000
    117      10.0754      0.00000
    118      10.1625      0.00000
    119      10.1664      0.00000
    120      10.3035      0.00000
    121      10.5250      0.00000
    122      10.5330      0.00000
    123      10.5715      0.00000
    124      10.7146      0.00000
    125      10.8013      0.00000
    126      11.0195      0.00000
    127      11.0987      0.00000
    128      11.2106      0.00000
    129      11.2366      0.00000
    130      11.3008      0.00000
    131      11.4629      0.00000
    132      11.5456      0.00000
    133      11.6356      0.00000
    134      11.6441      0.00000
    135      11.7307      0.00000
    136      11.9005      0.00000
    137      11.9879      0.00000
    138      12.0385      0.00000
    139      12.1655      0.00000
    140      12.2593      0.00000
    141      12.3525      0.00000
    142      12.3902      0.00000
    143      12.4074      0.00000
    144      12.4676      0.00000

 k-point    11 :       0.3333    0.2222    0.0000
  band No.  band energies     occupation 
      1     -20.0574      2.00000
      2     -20.0571      2.00000
      3     -20.0555      2.00000
      4     -20.0554      2.00000
      5     -11.9327      2.00000
      6     -11.8827      2.00000
      7     -11.8699      2.00000
      8     -11.8386      2.00000
      9     -10.8524      2.00000
     10     -10.8266      2.00000
     11     -10.8091      2.00000
     12     -10.7470      2.00000
     13     -10.0907      2.00000
     14     -10.0759      2.00000
     15     -10.0754      2.00000
     16     -10.0486      2.00000
     17      -6.9155      2.00000
     18      -6.9056      2.00000
     19      -6.9033      2.00000
     20      -6.8958      2.00000
     21      -6.8789      2.00000
     22      -6.8759      2.00000
     23      -6.8744      2.00000
     24      -6.8693      2.00000
     25      -6.8636      2.00000
     26      -6.8599      2.00000
     27      -6.8456      2.00000
     28      -6.8374      2.00000
     29      -3.2068      2.00000
     30      -3.1686      2.00000
     31      -3.1099      2.00000
     32      -3.0658      2.00000
     33      -1.7243      2.00000
     34      -1.6509      2.00000
     35      -1.5804      2.00000
     36      -1.5400      2.00000
     37      -1.3427      2.00000
     38      -1.2803      2.00000
     39      -1.1648      2.00000
     40      -1.1005      2.00000
     41      -0.9174      2.00000
     42      -0.8662      2.00000
     43      -0.8336      2.00000
     44      -0.6513      2.00000
     45      -0.6042      2.00000
     46      -0.5647      2.00000
     47      -0.4537      2.00000
     48      -0.3586      2.00000
     49      -0.2926      2.00000
     50      -0.2751      2.00000
     51      -0.2031      2.00000
     52      -0.1849      2.00000
     53      -0.0256      2.00000
     54       0.0648      2.00000
     55       0.0682      2.00000
     56       0.1544      2.00000
     57       0.1658      2.00000
     58       0.2246      2.00000
     59       0.2363      2.00000
     60       0.3487      2.00000
     61       2.3560      0.00000
     62       2.4001      0.00000
     63       2.4019      0.00000
     64       2.4427      0.00000
     65       5.1556      0.00000
     66       5.5494      0.00000
     67       5.5970      0.00000
     68       5.6313      0.00000
     69       5.8623      0.00000
     70       5.8986      0.00000
     71       6.0934      0.00000
     72       6.1149      0.00000
     73       6.1866      0.00000
     74       6.2454      0.00000
     75       6.3073      0.00000
     76       6.3887      0.00000
     77       6.4666      0.00000
     78       6.5789      0.00000
     79       6.6771      0.00000
     80       6.6943      0.00000
     81       6.9159      0.00000
     82       6.9606      0.00000
     83       7.1053      0.00000
     84       7.1490      0.00000
     85       7.1768      0.00000
     86       7.2090      0.00000
     87       7.2515      0.00000
     88       7.4090      0.00000
     89       7.4319      0.00000
     90       7.4580      0.00000
     91       7.6895      0.00000
     92       7.7667      0.00000
     93       7.9053      0.00000
     94       7.9285      0.00000
     95       8.0753      0.00000
     96       8.1040      0.00000
     97       8.1508      0.00000
     98       8.1760      0.00000
     99       8.4571      0.00000
    100       8.5775      0.00000
    101       8.6159      0.00000
    102       8.7054      0.00000
    103       8.7544      0.00000
    104       8.8143      0.00000
    105       8.9405      0.00000
    106       8.9678      0.00000
    107       9.1043      0.00000
    108       9.2394      0.00000
    109       9.2580      0.00000
    110       9.3837      0.00000
    111       9.4026      0.00000
    112       9.4653      0.00000
    113       9.4829      0.00000
    114       9.6589      0.00000
    115       9.7816      0.00000
    116       9.9930      0.00000
    117       9.9963      0.00000
    118      10.0421      0.00000
    119      10.1334      0.00000
    120      10.2905      0.00000
    121      10.3768      0.00000
    122      10.4695      0.00000
    123      10.6278      0.00000
    124      10.7484      0.00000
    125      10.8154      0.00000
    126      10.9026      0.00000
    127      10.9634      0.00000
    128      11.1418      0.00000
    129      11.2681      0.00000
    130      11.3005      0.00000
    131      11.3798      0.00000
    132      11.4603      0.00000
    133      11.5651      0.00000
    134      11.5672      0.00000
    135      11.7198      0.00000
    136      11.8675      0.00000
    137      11.9340      0.00000
    138      11.9865      0.00000
    139      12.0018      0.00000
    140      12.1590      0.00000
    141      12.3714      0.00000
    142      12.4306      0.00000
    143      12.4863      0.00000
    144      12.6431      0.00000

 k-point    12 :       0.5000    0.2222    0.0000
  band No.  band energies     occupation 
      1     -20.0572      2.00000
      2     -20.0572      2.00000
      3     -20.0554      2.00000
      4     -20.0554      2.00000
      5     -11.9091      2.00000
      6     -11.9091      2.00000
      7     -11.8542      2.00000
      8     -11.8542      2.00000
      9     -10.8386      2.00000
     10     -10.8386      2.00000
     11     -10.7759      2.00000
     12     -10.7759      2.00000
     13     -10.0848      2.00000
     14     -10.0848      2.00000
     15     -10.0629      2.00000
     16     -10.0629      2.00000
     17      -6.9096      2.00000
     18      -6.9096      2.00000
     19      -6.8979      2.00000
     20      -6.8979      2.00000
     21      -6.8759      2.00000
     22      -6.8759      2.00000
     23      -6.8705      2.00000
     24      -6.8705      2.00000
     25      -6.8647      2.00000
     26      -6.8647      2.00000
     27      -6.8432      2.00000
     28      -6.8432      2.00000
     29      -3.1566      2.00000
     30      -3.1566      2.00000
     31      -3.1180      2.00000
     32      -3.1180      2.00000
     33      -1.7094      2.00000
     34      -1.7094      2.00000
     35      -1.5709      2.00000
     36      -1.5709      2.00000
     37      -1.3245      2.00000
     38      -1.3245      2.00000
     39      -1.1124      2.00000
     40      -1.1124      2.00000
     41      -0.8804      2.00000
     42      -0.8804      2.00000
     43      -0.7247      2.00000
     44      -0.7247      2.00000
     45      -0.6132      2.00000
     46      -0.6132      2.00000
     47      -0.3473      2.00000
     48      -0.3473      2.00000
     49      -0.3095      2.00000
     50      -0.3095      2.00000
     51      -0.1936      2.00000
     52      -0.1936      2.00000
     53       0.0584      2.00000
     54       0.0584      2.00000
     55       0.0923      2.00000
     56       0.0923      2.00000
     57       0.1996      2.00000
     58       0.1996      2.00000
     59       0.2698      2.00000
     60       0.2698      2.00000
     61       2.3630      0.00000
     62       2.3630      0.00000
     63       2.4081      0.00000
     64       2.4081      0.00000
     65       5.3813      0.00000
     66       5.3813      0.00000
     67       5.5700      0.00000
     68       5.5700      0.00000
     69       5.9715      0.00000
     70       5.9715      0.00000
     71       6.1356      0.00000
     72       6.1356      0.00000
     73       6.1514      0.00000
     74       6.1514      0.00000
     75       6.3445      0.00000
     76       6.3445      0.00000
     77       6.4721      0.00000
     78       6.4721      0.00000
     79       6.6809      0.00000
     80       6.6809      0.00000
     81       6.9645      0.00000
     82       6.9645      0.00000
     83       7.1630      0.00000
     84       7.1630      0.00000
     85       7.1828      0.00000
     86       7.1828      0.00000
     87       7.3286      0.00000
     88       7.3286      0.00000
     89       7.3906      0.00000
     90       7.3906      0.00000
     91       7.6896      0.00000
     92       7.6896      0.00000
     93       7.9651      0.00000
     94       7.9651      0.00000
     95       8.0070      0.00000
     96       8.0070      0.00000
     97       8.1021      0.00000
     98       8.1021      0.00000
     99       8.6308      0.00000
    100       8.6308      0.00000
    101       8.7048      0.00000
    102       8.7048      0.00000
    103       8.8324      0.00000
    104       8.8324      0.00000
    105       8.9037      0.00000
    106       8.9037      0.00000
    107       9.2324      0.00000
    108       9.2324      0.00000
    109       9.3560      0.00000
    110       9.3560      0.00000
    111       9.5309      0.00000
    112       9.5309      0.00000
    113       9.6618      0.00000
    114       9.6618      0.00000
    115       9.7868      0.00000
    116       9.7868      0.00000
    117      10.0121      0.00000
    118      10.0121      0.00000
    119      10.2658      0.00000
    120      10.2658      0.00000
    121      10.4376      0.00000
    122      10.4376      0.00000
    123      10.5249      0.00000
    124      10.5249      0.00000
    125      10.8210      0.00000
    126      10.8210      0.00000
    127      11.0149      0.00000
    128      11.0149      0.00000
    129      11.1827      0.00000
    130      11.1827      0.00000
    131      11.3616      0.00000
    132      11.3616      0.00000
    133      11.6486      0.00000
    134      11.6486      0.00000
    135      11.8081      0.00000
    136      11.8081      0.00000
    137      11.8930      0.00000
    138      11.8930      0.00000
    139      12.1259      0.00000
    140      12.1259      0.00000
    141      12.3568      0.00000
    142      12.3568      0.00000
    143      12.4838      0.00000
    144      12.4838      0.00000

 k-point    13 :       0.0000    0.3333    0.0000
  band No.  band energies     occupation 
      1     -20.0571      2.00000
      2     -20.0566      2.00000
      3     -20.0558      2.00000
      4     -20.0556      2.00000
      5     -11.9439      2.00000
      6     -11.8991      2.00000
      7     -11.8470      2.00000
      8     -11.8306      2.00000
      9     -10.8660      2.00000
     10     -10.8548      2.00000
     11     -10.8017      2.00000
     12     -10.7400      2.00000
     13     -10.0907      2.00000
     14     -10.0896      2.00000
     15     -10.0575      2.00000
     16     -10.0384      2.00000
     17      -6.9180      2.00000
     18      -6.9105      2.00000
     19      -6.8978      2.00000
     20      -6.8905      2.00000
     21      -6.8793      2.00000
     22      -6.8761      2.00000
     23      -6.8694      2.00000
     24      -6.8679      2.00000
     25      -6.8509      2.00000
     26      -6.8473      2.00000
     27      -6.8462      2.00000
     28      -6.8307      2.00000
     29      -3.2447      2.00000
     30      -3.2203      2.00000
     31      -3.0600      2.00000
     32      -3.0248      2.00000
     33      -1.6757      2.00000
     34      -1.6105      2.00000
     35      -1.5743      2.00000
     36      -1.5058      2.00000
     37      -1.2849      2.00000
     38      -1.2843      2.00000
     39      -1.2677      2.00000
     40      -1.1824      2.00000
     41      -1.0274      2.00000
     42      -0.9237      2.00000
     43      -0.6775      2.00000
     44      -0.6751      2.00000
     45      -0.6722      2.00000
     46      -0.6243      2.00000
     47      -0.4555      2.00000
     48      -0.3257      2.00000
     49      -0.3098      2.00000
     50      -0.2979      2.00000
     51      -0.2358      2.00000
     52      -0.1871      2.00000
     53      -0.0565      2.00000
     54       0.0138      2.00000
     55       0.0837      2.00000
     56       0.1307      2.00000
     57       0.1575      2.00000
     58       0.2330      2.00000
     59       0.3550      2.00000
     60       0.4098      2.00000
     61       2.3870      0.00000
     62       2.4106      0.00000
     63       2.4772      0.00000
     64       2.5135      0.00000
     65       5.2574      0.00000
     66       5.5349      0.00000
     67       5.6211      0.00000
     68       5.7470      0.00000
     69       5.7906      0.00000
     70       5.8047      0.00000
     71       5.9090      0.00000
     72       6.1315      0.00000
     73       6.1999      0.00000
     74       6.2851      0.00000
     75       6.3088      0.00000
     76       6.5776      0.00000
     77       6.5907      0.00000
     78       6.6880      0.00000
     79       6.6991      0.00000
     80       6.7068      0.00000
     81       6.8497      0.00000
     82       6.8589      0.00000
     83       6.9827      0.00000
     84       7.0710      0.00000
     85       7.1406      0.00000
     86       7.1553      0.00000
     87       7.4995      0.00000
     88       7.5121      0.00000
     89       7.5633      0.00000
     90       7.5717      0.00000
     91       7.6409      0.00000
     92       7.7439      0.00000
     93       7.8849      0.00000
     94       7.9283      0.00000
     95       7.9538      0.00000
     96       8.0551      0.00000
     97       8.0594      0.00000
     98       8.1443      0.00000
     99       8.3482      0.00000
    100       8.5205      0.00000
    101       8.5334      0.00000
    102       8.5627      0.00000
    103       8.6113      0.00000
    104       8.7935      0.00000
    105       8.8018      0.00000
    106       8.8696      0.00000
    107       8.8732      0.00000
    108       9.1197      0.00000
    109       9.2000      0.00000
    110       9.2098      0.00000
    111       9.2508      0.00000
    112       9.3482      0.00000
    113       9.3788      0.00000
    114       9.6586      0.00000
    115       9.8101      0.00000
    116       9.9405      0.00000
    117      10.0873      0.00000
    118      10.1475      0.00000
    119      10.1502      0.00000
    120      10.2819      0.00000
    121      10.4668      0.00000
    122      10.5622      0.00000
    123      10.7131      0.00000
    124      10.8806      0.00000
    125      11.0269      0.00000
    126      11.0912      0.00000
    127      11.0950      0.00000
    128      11.1258      0.00000
    129      11.2693      0.00000
    130      11.3003      0.00000
    131      11.3012      0.00000
    132      11.3885      0.00000
    133      11.5703      0.00000
    134      11.6198      0.00000
    135      11.6740      0.00000
    136      11.9203      0.00000
    137      11.9535      0.00000
    138      12.0556      0.00000
    139      12.1773      0.00000
    140      12.2870      0.00000
    141      12.3629      0.00000
    142      12.3929      0.00000
    143      12.3970      0.00000
    144      12.5477      0.00000

 k-point    14 :       0.1667    0.3333    0.0000
  band No.  band energies     occupation 
      1     -20.0571      2.00000
      2     -20.0566      2.00000
      3     -20.0558      2.00000
      4     -20.0556      2.00000
      5     -11.9385      2.00000
      6     -11.8947      2.00000
      7     -11.8554      2.00000
      8     -11.8347      2.00000
      9     -10.8612      2.00000
     10     -10.8443      2.00000
     11     -10.8048      2.00000
     12     -10.7457      2.00000
     13     -10.0909      2.00000
     14     -10.0861      2.00000
     15     -10.0614      2.00000
     16     -10.0426      2.00000
     17      -6.9158      2.00000
     18      -6.9076      2.00000
     19      -6.8960      2.00000
     20      -6.8880      2.00000
     21      -6.8801      2.00000
     22      -6.8786      2.00000
     23      -6.8689      2.00000
     24      -6.8682      2.00000
     25      -6.8537      2.00000
     26      -6.8488      2.00000
     27      -6.8448      2.00000
     28      -6.8324      2.00000
     29      -3.2309      2.00000
     30      -3.2066      2.00000
     31      -3.0713      2.00000
     32      -3.0381      2.00000
     33      -1.7003      2.00000
     34      -1.6264      2.00000
     35      -1.6006      2.00000
     36      -1.5289      2.00000
     37      -1.3227      2.00000
     38      -1.2740      2.00000
     39      -1.2028      2.00000
     40      -1.1850      2.00000
     41      -0.9961      2.00000
     42      -0.9151      2.00000
     43      -0.7338      2.00000
     44      -0.6404      2.00000
     45      -0.6195      2.00000
     46      -0.5802      2.00000
     47      -0.4969      2.00000
     48      -0.3190      2.00000
     49      -0.3044      2.00000
     50      -0.2843      2.00000
     51      -0.2358      2.00000
     52      -0.1916      2.00000
     53      -0.0493      2.00000
     54       0.0353      2.00000
     55       0.0834      2.00000
     56       0.1344      2.00000
     57       0.1468      2.00000
     58       0.2285      2.00000
     59       0.3284      2.00000
     60       0.3930      2.00000
     61       2.3806      0.00000
     62       2.4067      0.00000
     63       2.4605      0.00000
     64       2.4922      0.00000
     65       5.3127      0.00000
     66       5.5349      0.00000
     67       5.6420      0.00000
     68       5.7696      0.00000
     69       5.7820      0.00000
     70       5.8689      0.00000
     71       5.9232      0.00000
     72       6.1405      0.00000
     73       6.1441      0.00000
     74       6.2846      0.00000
     75       6.2964      0.00000
     76       6.4947      0.00000
     77       6.5669      0.00000
     78       6.5899      0.00000
     79       6.7260      0.00000
     80       6.8024      0.00000
     81       6.8555      0.00000
     82       6.8842      0.00000
     83       6.9069      0.00000
     84       7.0636      0.00000
     85       7.0657      0.00000
     86       7.2354      0.00000
     87       7.3526      0.00000
     88       7.4236      0.00000
     89       7.4374      0.00000
     90       7.7038      0.00000
     91       7.7332      0.00000
     92       7.7684      0.00000
     93       7.8142      0.00000
     94       7.9124      0.00000
     95       8.0049      0.00000
     96       8.0287      0.00000
     97       8.0588      0.00000
     98       8.1605      0.00000
     99       8.4763      0.00000
    100       8.5083      0.00000
    101       8.5296      0.00000
    102       8.6006      0.00000
    103       8.6799      0.00000
    104       8.7881      0.00000
    105       8.8578      0.00000
    106       8.8916      0.00000
    107       8.9362      0.00000
    108       9.1772      0.00000
    109       9.2112      0.00000
    110       9.2857      0.00000
    111       9.3073      0.00000
    112       9.3512      0.00000
    113       9.4615      0.00000
    114       9.6051      0.00000
    115       9.8069      0.00000
    116       9.9302      0.00000
    117      10.0640      0.00000
    118      10.0716      0.00000
    119      10.1001      0.00000
    120      10.2651      0.00000
    121      10.4945      0.00000
    122      10.5368      0.00000
    123      10.6253      0.00000
    124      10.8394      0.00000
    125      10.8904      0.00000
    126      10.9995      0.00000
    127      11.0986      0.00000
    128      11.1376      0.00000
    129      11.2459      0.00000
    130      11.3139      0.00000
    131      11.4198      0.00000
    132      11.4335      0.00000
    133      11.5259      0.00000
    134      11.7054      0.00000
    135      11.7719      0.00000
    136      11.7951      0.00000
    137      11.8602      0.00000
    138      11.9778      0.00000
    139      12.1182      0.00000
    140      12.2479      0.00000
    141      12.2740      0.00000
    142      12.4274      0.00000
    143      12.5444      0.00000
    144      12.5803      0.00000

 k-point    15 :       0.3333    0.3333    0.0000
  band No.  band energies     occupation 
      1     -20.0570      2.00000
      2     -20.0567      2.00000
      3     -20.0557      2.00000
      4     -20.0556      2.00000
      5     -11.9232      2.00000
      6     -11.8823      2.00000
      7     -11.8760      2.00000
      8     -11.8473      2.00000
      9     -10.8472      2.00000
     10     -10.8190      2.00000
     11     -10.8144      2.00000
     12     -10.7625      2.00000
     13     -10.0879      2.00000
     14     -10.0783      2.00000
     15     -10.0708      2.00000
     16     -10.0533      2.00000
     17      -6.9095      2.00000
     18      -6.9002      2.00000
     19      -6.8928      2.00000
     20      -6.8890      2.00000
     21      -6.8809      2.00000
     22      -6.8772      2.00000
     23      -6.8719      2.00000
     24      -6.8699      2.00000
     25      -6.8560      2.00000
     26      -6.8522      2.00000
     27      -6.8435      2.00000
     28      -6.8366      2.00000
     29      -3.1941      2.00000
     30      -3.1701      2.00000
     31      -3.1023      2.00000
     32      -3.0738      2.00000
     33      -1.7368      2.00000
     34      -1.6911      2.00000
     35      -1.6203      2.00000
     36      -1.5849      2.00000
     37      -1.3105      2.00000
     38      -1.2609      2.00000
     39      -1.1731      2.00000
     40      -1.1552      2.00000
     41      -0.9107      2.00000
     42      -0.8987      2.00000
     43      -0.7999      2.00000
     44      -0.6385      2.00000
     45      -0.5613      2.00000
     46      -0.5396      2.00000
     47      -0.4765      2.00000
     48      -0.3222      2.00000
     49      -0.2968      2.00000
     50      -0.2818      2.00000
     51      -0.2357      2.00000
     52      -0.2010      2.00000
     53      -0.0021      2.00000
     54       0.0829      2.00000
     55       0.0839      2.00000
     56       0.1434      2.00000
     57       0.1484      2.00000
     58       0.2161      2.00000
     59       0.2533      2.00000
     60       0.3381      2.00000
     61       2.3730      0.00000
     62       2.4029      0.00000
     63       2.4211      0.00000
     64       2.4485      0.00000
     65       5.4321      0.00000
     66       5.5642      0.00000
     67       5.6221      0.00000
     68       5.7619      0.00000
     69       5.8650      0.00000
     70       5.9031      0.00000
     71       6.0202      0.00000
     72       6.0657      0.00000
     73       6.1706      0.00000
     74       6.2878      0.00000
     75       6.3168      0.00000
     76       6.3912      0.00000
     77       6.4748      0.00000
     78       6.4829      0.00000
     79       6.7349      0.00000
     80       6.7641      0.00000
     81       6.8572      0.00000
     82       6.8589      0.00000
     83       6.9652      0.00000
     84       7.0551      0.00000
     85       7.0960      0.00000
     86       7.1862      0.00000
     87       7.2385      0.00000
     88       7.2991      0.00000
     89       7.3980      0.00000
     90       7.5962      0.00000
     91       7.6929      0.00000
     92       7.7601      0.00000
     93       7.7982      0.00000
     94       7.8535      0.00000
     95       7.9971      0.00000
     96       8.0989      0.00000
     97       8.1000      0.00000
     98       8.1699      0.00000
     99       8.4827      0.00000
    100       8.5691      0.00000
    101       8.6520      0.00000
    102       8.7014      0.00000
    103       8.7464      0.00000
    104       8.8909      0.00000
    105       8.9550      0.00000
    106       8.9610      0.00000
    107       9.1551      0.00000
    108       9.2316      0.00000
    109       9.2874      0.00000
    110       9.4140      0.00000
    111       9.4421      0.00000
    112       9.4777      0.00000
    113       9.5079      0.00000
    114       9.6150      0.00000
    115       9.7805      0.00000
    116       9.9395      0.00000
    117       9.9609      0.00000
    118       9.9641      0.00000
    119      10.0410      0.00000
    120      10.2349      0.00000
    121      10.3511      0.00000
    122      10.4573      0.00000
    123      10.6290      0.00000
    124      10.6538      0.00000
    125      10.7650      0.00000
    126      10.9111      0.00000
    127      11.0031      0.00000
    128      11.1436      0.00000
    129      11.2952      0.00000
    130      11.3148      0.00000
    131      11.3445      0.00000
    132      11.5042      0.00000
    133      11.5372      0.00000
    134      11.5399      0.00000
    135      11.7281      0.00000
    136      11.7795      0.00000
    137      11.7938      0.00000
    138      11.9783      0.00000
    139      12.0980      0.00000
    140      12.1867      0.00000
    141      12.1883      0.00000
    142      12.2716      0.00000
    143      12.3754      0.00000
    144      12.5084      0.00000

 k-point    16 :       0.5000    0.3333    0.0000
  band No.  band energies     occupation 
      1     -20.0569      2.00000
      2     -20.0569      2.00000
      3     -20.0557      2.00000
      4     -20.0557      2.00000
      5     -11.9008      2.00000
      6     -11.9008      2.00000
      7     -11.8650      2.00000
      8     -11.8650      2.00000
      9     -10.8296      2.00000
     10     -10.8296      2.00000
     11     -10.7888      2.00000
     12     -10.7888      2.00000
     13     -10.0809      2.00000
     14     -10.0809      2.00000
     15     -10.0666      2.00000
     16     -10.0666      2.00000
     17      -6.9003      2.00000
     18      -6.9003      2.00000
     19      -6.8923      2.00000
     20      -6.8923      2.00000
     21      -6.8764      2.00000
     22      -6.8764      2.00000
     23      -6.8739      2.00000
     24      -6.8739      2.00000
     25      -6.8551      2.00000
     26      -6.8551      2.00000
     27      -6.8411      2.00000
     28      -6.8411      2.00000
     29      -3.1465      2.00000
     30      -3.1465      2.00000
     31      -3.1219      2.00000
     32      -3.1219      2.00000
     33      -1.7379      2.00000
     34      -1.7379      2.00000
     35      -1.6209      2.00000
     36      -1.6209      2.00000
     37      -1.2789      2.00000
     38      -1.2789      2.00000
     39      -1.1478      2.00000
     40      -1.1478      2.00000
     41      -0.8644      2.00000
     42      -0.8644      2.00000
     43      -0.7790      2.00000
     44      -0.7790      2.00000
     45      -0.5153      2.00000
     46      -0.5153      2.00000
     47      -0.3577      2.00000
     48      -0.3577      2.00000
     49      -0.3211      2.00000
     50      -0.3211      2.00000
     51      -0.2167      2.00000
     52      -0.2167      2.00000
     53       0.0798      2.00000
     54       0.0798      2.00000
     55       0.1127      2.00000
     56       0.1127      2.00000
     57       0.1881      2.00000
     58       0.1881      2.00000
     59       0.2496      2.00000
     60       0.2496      2.00000
     61       2.3849      0.00000
     62       2.3849      0.00000
     63       2.4146      0.00000
     64       2.4146      0.00000
     65       5.5319      0.00000
     66       5.5319      0.00000
     67       5.6773      0.00000
     68       5.6773      0.00000
     69       5.8918      0.00000
     70       5.8918      0.00000
     71       6.1220      0.00000
     72       6.1220      0.00000
     73       6.2122      0.00000
     74       6.2122      0.00000
     75       6.3565      0.00000
     76       6.3565      0.00000
     77       6.4048      0.00000
     78       6.4048      0.00000
     79       6.7455      0.00000
     80       6.7455      0.00000
     81       6.8428      0.00000
     82       6.8428      0.00000
     83       7.0211      0.00000
     84       7.0211      0.00000
     85       7.1436      0.00000
     86       7.1436      0.00000
     87       7.2208      0.00000
     88       7.2208      0.00000
     89       7.4548      0.00000
     90       7.4548      0.00000
     91       7.6720      0.00000
     92       7.6720      0.00000
     93       7.8519      0.00000
     94       7.8519      0.00000
     95       8.0071      0.00000
     96       8.0071      0.00000
     97       8.1331      0.00000
     98       8.1331      0.00000
     99       8.6554      0.00000
    100       8.6554      0.00000
    101       8.6754      0.00000
    102       8.6754      0.00000
    103       8.8571      0.00000
    104       8.8571      0.00000
    105       8.9602      0.00000
    106       8.9602      0.00000
    107       9.3108      0.00000
    108       9.3108      0.00000
    109       9.3318      0.00000
    110       9.3318      0.00000
    111       9.5719      0.00000
    112       9.5719      0.00000
    113       9.6690      0.00000
    114       9.6690      0.00000
    115       9.8497      0.00000
    116       9.8497      0.00000
    117       9.9281      0.00000
    118       9.9281      0.00000
    119      10.0776      0.00000
    120      10.0776      0.00000
    121      10.3416      0.00000
    122      10.3416      0.00000
    123      10.5279      0.00000
    124      10.5279      0.00000
    125      10.9101      0.00000
    126      10.9101      0.00000
    127      10.9722      0.00000
    128      10.9722      0.00000
    129      11.2888      0.00000
    130      11.2888      0.00000
    131      11.3943      0.00000
    132      11.3943      0.00000
    133      11.4450      0.00000
    134      11.4450      0.00000
    135      11.7357      0.00000
    136      11.7357      0.00000
    137      11.9195      0.00000
    138      11.9195      0.00000
    139      12.0893      0.00000
    140      12.0893      0.00000
    141      12.1866      0.00000
    142      12.1866      0.00000
    143      12.4040      0.00000
    144      12.4040      0.00000

 k-point    17 :       0.0000    0.4444    0.0000
  band No.  band energies     occupation 
      1     -20.0566      2.00000
      2     -20.0563      2.00000
      3     -20.0561      2.00000
      4     -20.0560      2.00000
      5     -11.9304      2.00000
      6     -11.9148      2.00000
      7     -11.8421      2.00000
      8     -11.8364      2.00000
      9     -10.8642      2.00000
     10     -10.8603      2.00000
     11     -10.7824      2.00000
     12     -10.7610      2.00000
     13     -10.0901      2.00000
     14     -10.0897      2.00000
     15     -10.0513      2.00000
     16     -10.0447      2.00000
     17      -6.9151      2.00000
     18      -6.9112      2.00000
     19      -6.8955      2.00000
     20      -6.8930      2.00000
     21      -6.8747      2.00000
     22      -6.8703      2.00000
     23      -6.8666      2.00000
     24      -6.8663      2.00000
     25      -6.8485      2.00000
     26      -6.8448      2.00000
     27      -6.8370      2.00000
     28      -6.8319      2.00000
     29      -3.2313      2.00000
     30      -3.2232      2.00000
     31      -3.0512      2.00000
     32      -3.0389      2.00000
     33      -1.6331      2.00000
     34      -1.6212      2.00000
     35      -1.6210      2.00000
     36      -1.5465      2.00000
     37      -1.3264      2.00000
     38      -1.3137      2.00000
     39      -1.2343      2.00000
     40      -1.1853      2.00000
     41      -1.0258      2.00000
     42      -0.9798      2.00000
     43      -0.6560      2.00000
     44      -0.6366      2.00000
     45      -0.6217      2.00000
     46      -0.5923      2.00000
     47      -0.4843      2.00000
     48      -0.4016      2.00000
     49      -0.2941      2.00000
     50      -0.2663      2.00000
     51      -0.2394      2.00000
     52      -0.1972      2.00000
     53      -0.0354      2.00000
     54      -0.0092      2.00000
     55       0.1090      2.00000
     56       0.1299      2.00000
     57       0.1835      2.00000
     58       0.2102      2.00000
     59       0.3807      2.00000
     60       0.4011      2.00000
     61       2.3951      0.00000
     62       2.4035      0.00000
     63       2.4918      0.00000
     64       2.5042      0.00000
     65       5.5507      0.00000
     66       5.5520      0.00000
     67       5.6224      0.00000
     68       5.6881      0.00000
     69       5.7042      0.00000
     70       5.8957      0.00000
     71       5.9318      0.00000
     72       5.9541      0.00000
     73       6.2186      0.00000
     74       6.2924      0.00000
     75       6.3743      0.00000
     76       6.5363      0.00000
     77       6.6906      0.00000
     78       6.6919      0.00000
     79       6.7051      0.00000
     80       6.7278      0.00000
     81       6.8553      0.00000
     82       6.8926      0.00000
     83       6.9621      0.00000
     84       6.9745      0.00000
     85       7.2026      0.00000
     86       7.2242      0.00000
     87       7.4429      0.00000
     88       7.4516      0.00000
     89       7.4614      0.00000
     90       7.4707      0.00000
     91       7.5767      0.00000
     92       7.7018      0.00000
     93       7.8899      0.00000
     94       7.8946      0.00000
     95       7.9571      0.00000
     96       7.9726      0.00000
     97       8.1750      0.00000
     98       8.2808      0.00000
     99       8.3959      0.00000
    100       8.4023      0.00000
    101       8.4566      0.00000
    102       8.4947      0.00000
    103       8.5418      0.00000
    104       8.6563      0.00000
    105       8.6890      0.00000
    106       8.8472      0.00000
    107       8.8993      0.00000
    108       9.0425      0.00000
    109       9.1074      0.00000
    110       9.1239      0.00000
    111       9.2797      0.00000
    112       9.3712      0.00000
    113       9.6492      0.00000
    114       9.7299      0.00000
    115       9.8475      0.00000
    116       9.8568      0.00000
    117       9.9755      0.00000
    118      10.1762      0.00000
    119      10.2247      0.00000
    120      10.2829      0.00000
    121      10.3256      0.00000
    122      10.5904      0.00000
    123      10.7070      0.00000
    124      10.9823      0.00000
    125      11.0338      0.00000
    126      11.0720      0.00000
    127      11.1587      0.00000
    128      11.2071      0.00000
    129      11.2724      0.00000
    130      11.2744      0.00000
    131      11.2958      0.00000
    132      11.3390      0.00000
    133      11.6602      0.00000
    134      11.7213      0.00000
    135      11.8767      0.00000
    136      11.9280      0.00000
    137      12.0251      0.00000
    138      12.1039      0.00000
    139      12.1511      0.00000
    140      12.1595      0.00000
    141      12.2323      0.00000
    142      12.3538      0.00000
    143      12.4937      0.00000
    144      12.5689      0.00000

 k-point    18 :       0.1667    0.4444    0.0000
  band No.  band energies     occupation 
      1     -20.0566      2.00000
      2     -20.0563      2.00000
      3     -20.0561      2.00000
      4     -20.0560      2.00000
      5     -11.9253      2.00000
      6     -11.9100      2.00000
      7     -11.8492      2.00000
      8     -11.8420      2.00000
      9     -10.8574      2.00000
     10     -10.8516      2.00000
     11     -10.7864      2.00000
     12     -10.7659      2.00000
     13     -10.0891      2.00000
     14     -10.0874      2.00000
     15     -10.0553      2.00000
     16     -10.0488      2.00000
     17      -6.9125      2.00000
     18      -6.9084      2.00000
     19      -6.8932      2.00000
     20      -6.8903      2.00000
     21      -6.8745      2.00000
     22      -6.8720      2.00000
     23      -6.8705      2.00000
     24      -6.8684      2.00000
     25      -6.8481      2.00000
     26      -6.8436      2.00000
     27      -6.8384      2.00000
     28      -6.8333      2.00000
     29      -3.2178      2.00000
     30      -3.2097      2.00000
     31      -3.0624      2.00000
     32      -3.0509      2.00000
     33      -1.6567      2.00000
     34      -1.6488      2.00000
     35      -1.6361      2.00000
     36      -1.5869      2.00000
     37      -1.3124      2.00000
     38      -1.2676      2.00000
     39      -1.2459      2.00000
     40      -1.1996      2.00000
     41      -0.9855      2.00000
     42      -0.9474      2.00000
     43      -0.6695      2.00000
     44      -0.6230      2.00000
     45      -0.6065      2.00000
     46      -0.5989      2.00000
     47      -0.4735      2.00000
     48      -0.3746      2.00000
     49      -0.2814      2.00000
     50      -0.2649      2.00000
     51      -0.2461      2.00000
     52      -0.2050      2.00000
     53      -0.0247      2.00000
     54       0.0064      2.00000
     55       0.1074      2.00000
     56       0.1282      2.00000
     57       0.1747      2.00000
     58       0.2034      2.00000
     59       0.3565      2.00000
     60       0.3803      2.00000
     61       2.3912      0.00000
     62       2.4006      0.00000
     63       2.4751      0.00000
     64       2.4861      0.00000
     65       5.5513      0.00000
     66       5.6125      0.00000
     67       5.6535      0.00000
     68       5.7325      0.00000
     69       5.7403      0.00000
     70       5.8697      0.00000
     71       5.9174      0.00000
     72       5.9813      0.00000
     73       6.2439      0.00000
     74       6.3132      0.00000
     75       6.3492      0.00000
     76       6.5086      0.00000
     77       6.6036      0.00000
     78       6.6449      0.00000
     79       6.6935      0.00000
     80       6.7247      0.00000
     81       6.7820      0.00000
     82       6.8819      0.00000
     83       6.9299      0.00000
     84       6.9893      0.00000
     85       7.1685      0.00000
     86       7.2281      0.00000
     87       7.3464      0.00000
     88       7.3720      0.00000
     89       7.4045      0.00000
     90       7.4810      0.00000
     91       7.5384      0.00000
     92       7.6578      0.00000
     93       7.9408      0.00000
     94       7.9978      0.00000
     95       8.0088      0.00000
     96       8.0364      0.00000
     97       8.1630      0.00000
     98       8.2832      0.00000
     99       8.3510      0.00000
    100       8.4820      0.00000
    101       8.5525      0.00000
    102       8.6053      0.00000
    103       8.6106      0.00000
    104       8.6886      0.00000
    105       8.7806      0.00000
    106       8.8073      0.00000
    107       8.9799      0.00000
    108       9.0665      0.00000
    109       9.0816      0.00000
    110       9.2540      0.00000
    111       9.3527      0.00000
    112       9.4215      0.00000
    113       9.6370      0.00000
    114       9.6406      0.00000
    115       9.7159      0.00000
    116       9.8834      0.00000
    117       9.9222      0.00000
    118      10.2283      0.00000
    119      10.2283      0.00000
    120      10.2817      0.00000
    121      10.2893      0.00000
    122      10.5785      0.00000
    123      10.6263      0.00000
    124      10.8230      0.00000
    125      10.8416      0.00000
    126      11.0900      0.00000
    127      11.1095      0.00000
    128      11.1591      0.00000
    129      11.2642      0.00000
    130      11.2902      0.00000
    131      11.3916      0.00000
    132      11.4015      0.00000
    133      11.6269      0.00000
    134      11.6558      0.00000
    135      11.7392      0.00000
    136      11.8966      0.00000
    137      11.9707      0.00000
    138      12.1164      0.00000
    139      12.1475      0.00000
    140      12.2155      0.00000
    141      12.2978      0.00000
    142      12.4386      0.00000
    143      12.4527      0.00000
    144      12.5692      0.00000

 k-point    19 :       0.3333    0.4444    0.0000
  band No.  band energies     occupation 
      1     -20.0565      2.00000
      2     -20.0564      2.00000
      3     -20.0560      2.00000
      4     -20.0560      2.00000
      5     -11.9109      2.00000
      6     -11.8966      2.00000
      7     -11.8673      2.00000
      8     -11.8573      2.00000
      9     -10.8395      2.00000
     10     -10.8297      2.00000
     11     -10.7985      2.00000
     12     -10.7805      2.00000
     13     -10.0846      2.00000
     14     -10.0813      2.00000
     15     -10.0651      2.00000
     16     -10.0590      2.00000
     17      -6.9051      2.00000
     18      -6.9006      2.00000
     19      -6.8884      2.00000
     20      -6.8842      2.00000
     21      -6.8812      2.00000
     22      -6.8763      2.00000
     23      -6.8751      2.00000
     24      -6.8722      2.00000
     25      -6.8467      2.00000
     26      -6.8420      2.00000
     27      -6.8416      2.00000
     28      -6.8368      2.00000
     29      -3.1822      2.00000
     30      -3.1742      2.00000
     31      -3.0931      2.00000
     32      -3.0833      2.00000
     33      -1.7100      2.00000
     34      -1.6946      2.00000
     35      -1.6653      2.00000
     36      -1.6510      2.00000
     37      -1.2697      2.00000
     38      -1.2408      2.00000
     39      -1.2149      2.00000
     40      -1.1999      2.00000
     41      -0.9121      2.00000
     42      -0.9023      2.00000
     43      -0.7545      2.00000
     44      -0.7004      2.00000
     45      -0.5292      2.00000
     46      -0.4987      2.00000
     47      -0.4274      2.00000
     48      -0.3273      2.00000
     49      -0.2846      2.00000
     50      -0.2820      2.00000
     51      -0.2702      2.00000
     52      -0.2259      2.00000
     53       0.0290      2.00000
     54       0.0638      2.00000
     55       0.1053      2.00000
     56       0.1267      2.00000
     57       0.1627      2.00000
     58       0.1903      2.00000
     59       0.2855      2.00000
     60       0.3160      2.00000
     61       2.3885      0.00000
     62       2.3993      0.00000
     63       2.4372      0.00000
     64       2.4469      0.00000
     65       5.5811      0.00000
     66       5.7095      0.00000
     67       5.7496      0.00000
     68       5.7623      0.00000
     69       5.8146      0.00000
     70       5.8571      0.00000
     71       5.9384      0.00000
     72       5.9707      0.00000
     73       6.2789      0.00000
     74       6.2953      0.00000
     75       6.3833      0.00000
     76       6.4647      0.00000
     77       6.5246      0.00000
     78       6.5678      0.00000
     79       6.6074      0.00000
     80       6.6082      0.00000
     81       6.8255      0.00000
     82       6.8497      0.00000
     83       6.8873      0.00000
     84       6.9539      0.00000
     85       7.1646      0.00000
     86       7.1802      0.00000
     87       7.1933      0.00000
     88       7.2261      0.00000
     89       7.3780      0.00000
     90       7.4532      0.00000
     91       7.4798      0.00000
     92       7.5726      0.00000
     93       7.9680      0.00000
     94       7.9992      0.00000
     95       8.0430      0.00000
     96       8.1252      0.00000
     97       8.1482      0.00000
     98       8.2985      0.00000
     99       8.3287      0.00000
    100       8.5838      0.00000
    101       8.7095      0.00000
    102       8.7206      0.00000
    103       8.8240      0.00000
    104       8.8350      0.00000
    105       8.9507      0.00000
    106       8.9521      0.00000
    107       9.1278      0.00000
    108       9.1491      0.00000
    109       9.1956      0.00000
    110       9.3498      0.00000
    111       9.3965      0.00000
    112       9.5091      0.00000
    113       9.6485      0.00000
    114       9.6592      0.00000
    115       9.7503      0.00000
    116       9.8319      0.00000
    117       9.8658      0.00000
    118      10.0909      0.00000
    119      10.1029      0.00000
    120      10.2229      0.00000
    121      10.3314      0.00000
    122      10.4241      0.00000
    123      10.5062      0.00000
    124      10.5352      0.00000
    125      10.7543      0.00000
    126      10.8041      0.00000
    127      10.9638      0.00000
    128      10.9987      0.00000
    129      11.2724      0.00000
    130      11.4189      0.00000
    131      11.4452      0.00000
    132      11.5096      0.00000
    133      11.5299      0.00000
    134      11.5626      0.00000
    135      11.7100      0.00000
    136      11.8856      0.00000
    137      11.9804      0.00000
    138      12.0689      0.00000
    139      12.1684      0.00000
    140      12.1887      0.00000
    141      12.2765      0.00000
    142      12.2949      0.00000
    143      12.5157      0.00000
    144      12.5818      0.00000

 k-point    20 :       0.5000    0.4444    0.0000
  band No.  band energies     occupation 
      1     -20.0564      2.00000
      2     -20.0564      2.00000
      3     -20.0560      2.00000
      4     -20.0560      2.00000
      5     -11.8899      2.00000
      6     -11.8899      2.00000
      7     -11.8775      2.00000
      8     -11.8775      2.00000
      9     -10.8175      2.00000
     10     -10.8175      2.00000
     11     -10.8034      2.00000
     12     -10.8034      2.00000
     13     -10.0762      2.00000
     14     -10.0762      2.00000
     15     -10.0712      2.00000
     16     -10.0712      2.00000
     17      -6.8946      2.00000
     18      -6.8946      2.00000
     19      -6.8902      2.00000
     20      -6.8902      2.00000
     21      -6.8780      2.00000
     22      -6.8780      2.00000
     23      -6.8767      2.00000
     24      -6.8767      2.00000
     25      -6.8447      2.00000
     26      -6.8447      2.00000
     27      -6.8400      2.00000
     28      -6.8400      2.00000
     29      -3.1363      2.00000
     30      -3.1363      2.00000
     31      -3.1279      2.00000
     32      -3.1279      2.00000
     33      -1.7256      2.00000
     34      -1.7256      2.00000
     35      -1.6798      2.00000
     36      -1.6798      2.00000
     37      -1.2404      2.00000
     38      -1.2404      2.00000
     39      -1.1923      2.00000
     40      -1.1923      2.00000
     41      -0.8419      2.00000
     42      -0.8419      2.00000
     43      -0.8170      2.00000
     44      -0.8170      2.00000
     45      -0.4323      2.00000
     46      -0.4323      2.00000
     47      -0.3799      2.00000
     48      -0.3799      2.00000
     49      -0.3027      2.00000
     50      -0.3027      2.00000
     51      -0.2582      2.00000
     52      -0.2582      2.00000
     53       0.0998      2.00000
     54       0.0998      2.00000
     55       0.1160      2.00000
     56       0.1160      2.00000
     57       0.1952      2.00000
     58       0.1952      2.00000
     59       0.2222      2.00000
     60       0.2222      2.00000
     61       2.4027      0.00000
     62       2.4027      0.00000
     63       2.4133      0.00000
     64       2.4133      0.00000
     65       5.6515      0.00000
     66       5.6515      0.00000
     67       5.7922      0.00000
     68       5.7922      0.00000
     69       5.8869      0.00000
     70       5.8869      0.00000
     71       5.9531      0.00000
     72       5.9531      0.00000
     73       6.2499      0.00000
     74       6.2499      0.00000
     75       6.4538      0.00000
     76       6.4538      0.00000
     77       6.5251      0.00000
     78       6.5251      0.00000
     79       6.5693      0.00000
     80       6.5693      0.00000
     81       6.8606      0.00000
     82       6.8606      0.00000
     83       6.8783      0.00000
     84       6.8783      0.00000
     85       7.1369      0.00000
     86       7.1369      0.00000
     87       7.1529      0.00000
     88       7.1529      0.00000
     89       7.3997      0.00000
     90       7.3997      0.00000
     91       7.5001      0.00000
     92       7.5001      0.00000
     93       7.9424      0.00000
     94       7.9424      0.00000
     95       8.0524      0.00000
     96       8.0524      0.00000
     97       8.2558      0.00000
     98       8.2558      0.00000
     99       8.5133      0.00000
    100       8.5133      0.00000
    101       8.7706      0.00000
    102       8.7706      0.00000
    103       8.9494      0.00000
    104       8.9494      0.00000
    105       8.9780      0.00000
    106       8.9780      0.00000
    107       9.2199      0.00000
    108       9.2199      0.00000
    109       9.3353      0.00000
    110       9.3353      0.00000
    111       9.5051      0.00000
    112       9.5051      0.00000
    113       9.7795      0.00000
    114       9.7795      0.00000
    115       9.8298      0.00000
    116       9.8298      0.00000
    117       9.9509      0.00000
    118       9.9509      0.00000
    119      10.0240      0.00000
    120      10.0240      0.00000
    121      10.3229      0.00000
    122      10.3229      0.00000
    123      10.3558      0.00000
    124      10.3558      0.00000
    125      10.7417      0.00000
    126      10.7417      0.00000
    127      10.8573      0.00000
    128      10.8573      0.00000
    129      11.3043      0.00000
    130      11.3043      0.00000
    131      11.4974      0.00000
    132      11.4974      0.00000
    133      11.6532      0.00000
    134      11.6532      0.00000
    135      11.7323      0.00000
    136      11.7323      0.00000
    137      11.9384      0.00000
    138      11.9384      0.00000
    139      12.0961      0.00000
    140      12.0961      0.00000
    141      12.3718      0.00000
    142      12.3718      0.00000
    143      12.5515      0.00000
    144      12.5523      0.00000

 k-point    21 :       0.0000    0.0000    0.1667
  band No.  band energies     occupation 
      1     -20.0579      2.00000
      2     -20.0572      2.00000
      3     -20.0555      2.00000
      4     -20.0551      2.00000
      5     -11.9586      2.00000
      6     -11.8861      2.00000
      7     -11.8452      2.00000
      8     -11.8215      2.00000
      9     -10.8663      2.00000
     10     -10.8448      2.00000
     11     -10.8166      2.00000
     12     -10.7120      2.00000
     13     -10.0926      2.00000
     14     -10.0899      2.00000
     15     -10.0660      2.00000
     16     -10.0319      2.00000
     17      -6.9330      2.00000
     18      -6.9198      2.00000
     19      -6.9129      2.00000
     20      -6.8982      2.00000
     21      -6.8954      2.00000
     22      -6.8879      2.00000
     23      -6.8792      2.00000
     24      -6.8731      2.00000
     25      -6.8609      2.00000
     26      -6.8487      2.00000
     27      -6.8437      2.00000
     28      -6.8312      2.00000
     29      -3.2739      2.00000
     30      -3.2240      2.00000
     31      -3.0621      2.00000
     32      -3.0023      2.00000
     33      -1.6865      2.00000
     34      -1.5655      2.00000
     35      -1.5082      2.00000
     36      -1.4619      2.00000
     37      -1.2922      2.00000
     38      -1.2820      2.00000
     39      -1.2059      2.00000
     40      -1.0720      2.00000
     41      -0.9669      2.00000
     42      -0.9498      2.00000
     43      -0.8187      2.00000
     44      -0.7384      2.00000
     45      -0.5796      2.00000
     46      -0.5093      2.00000
     47      -0.4674      2.00000
     48      -0.3887      2.00000
     49      -0.3641      2.00000
     50      -0.3393      2.00000
     51      -0.2545      2.00000
     52      -0.1284      2.00000
     53      -0.0404      2.00000
     54       0.0364      2.00000
     55       0.0578      2.00000
     56       0.0799      2.00000
     57       0.1770      2.00000
     58       0.2761      2.00000
     59       0.3086      2.00000
     60       0.3723      2.00000
     61       2.3620      0.00000
     62       2.3862      0.00000
     63       2.4452      0.00000
     64       2.5055      0.00000
     65       4.6403      0.00000
     66       5.5333      0.00000
     67       5.6023      0.00000
     68       5.7713      0.00000
     69       5.7996      0.00000
     70       5.8826      0.00000
     71       6.0332      0.00000
     72       6.1421      0.00000
     73       6.1701      0.00000
     74       6.2358      0.00000
     75       6.4649      0.00000
     76       6.5373      0.00000
     77       6.6081      0.00000
     78       6.7069      0.00000
     79       6.7856      0.00000
     80       6.7912      0.00000
     81       6.8535      0.00000
     82       7.0080      0.00000
     83       7.0516      0.00000
     84       7.1115      0.00000
     85       7.1742      0.00000
     86       7.3114      0.00000
     87       7.3409      0.00000
     88       7.3486      0.00000
     89       7.4352      0.00000
     90       7.5444      0.00000
     91       7.6710      0.00000
     92       7.7550      0.00000
     93       7.7902      0.00000
     94       7.8980      0.00000
     95       8.0310      0.00000
     96       8.0512      0.00000
     97       8.0994      0.00000
     98       8.3582      0.00000
     99       8.3851      0.00000
    100       8.4452      0.00000
    101       8.5173      0.00000
    102       8.5601      0.00000
    103       8.7152      0.00000
    104       8.8605      0.00000
    105       8.9572      0.00000
    106       8.9771      0.00000
    107       9.0584      0.00000
    108       9.1294      0.00000
    109       9.2423      0.00000
    110       9.2504      0.00000
    111       9.3348      0.00000
    112       9.4846      0.00000
    113       9.5814      0.00000
    114       9.6002      0.00000
    115       9.7798      0.00000
    116       9.9227      0.00000
    117      10.0886      0.00000
    118      10.1255      0.00000
    119      10.1260      0.00000
    120      10.2183      0.00000
    121      10.5420      0.00000
    122      10.5920      0.00000
    123      10.6681      0.00000
    124      10.7923      0.00000
    125      10.8362      0.00000
    126      11.2084      0.00000
    127      11.2708      0.00000
    128      11.4056      0.00000
    129      11.5096      0.00000
    130      11.6190      0.00000
    131      11.6362      0.00000
    132      11.6484      0.00000
    133      11.6990      0.00000
    134      11.8235      0.00000
    135      11.8652      0.00000
    136      11.8967      0.00000
    137      11.9250      0.00000
    138      11.9660      0.00000
    139      12.0999      0.00000
    140      12.1204      0.00000
    141      12.3377      0.00000
    142      12.4152      0.00000
    143      12.5072      0.00000
    144      12.5530      0.00000

 k-point    22 :       0.1667    0.0000    0.1667
  band No.  band energies     occupation 
      1     -20.0579      2.00000
      2     -20.0573      2.00000
      3     -20.0554      2.00000
      4     -20.0551      2.00000
      5     -11.9532      2.00000
      6     -11.8852      2.00000
      7     -11.8520      2.00000
      8     -11.8238      2.00000
      9     -10.8632      2.00000
     10     -10.8357      2.00000
     11     -10.8162      2.00000
     12     -10.7185      2.00000
     13     -10.0936      2.00000
     14     -10.0857      2.00000
     15     -10.0696      2.00000
     16     -10.0362      2.00000
     17      -6.9322      2.00000
     18      -6.9208      2.00000
     19      -6.9109      2.00000
     20      -6.8974      2.00000
     21      -6.8940      2.00000
     22      -6.8886      2.00000
     23      -6.8795      2.00000
     24      -6.8690      2.00000
     25      -6.8621      2.00000
     26      -6.8532      2.00000
     27      -6.8425      2.00000
     28      -6.8322      2.00000
     29      -3.2590      2.00000
     30      -3.2105      2.00000
     31      -3.0763      2.00000
     32      -3.0192      2.00000
     33      -1.6767      2.00000
     34      -1.5670      2.00000
     35      -1.5171      2.00000
     36      -1.4877      2.00000
     37      -1.3625      2.00000
     38      -1.2753      2.00000
     39      -1.1894      2.00000
     40      -1.0747      2.00000
     41      -0.9391      2.00000
     42      -0.9137      2.00000
     43      -0.8084      2.00000
     44      -0.7305      2.00000
     45      -0.6158      2.00000
     46      -0.4803      2.00000
     47      -0.4204      2.00000
     48      -0.3882      2.00000
     49      -0.3651      2.00000
     50      -0.3153      2.00000
     51      -0.2565      2.00000
     52      -0.1336      2.00000
     53      -0.0726      2.00000
     54       0.0257      2.00000
     55       0.0996      2.00000
     56       0.1016      2.00000
     57       0.1548      2.00000
     58       0.2709      2.00000
     59       0.2790      2.00000
     60       0.3625      2.00000
     61       2.3481      0.00000
     62       2.3797      0.00000
     63       2.4352      0.00000
     64       2.4950      0.00000
     65       4.7121      0.00000
     66       5.5733      0.00000
     67       5.6114      0.00000
     68       5.7514      0.00000
     69       5.7937      0.00000
     70       5.8927      0.00000
     71       5.9993      0.00000
     72       6.0640      0.00000
     73       6.1711      0.00000
     74       6.2210      0.00000
     75       6.5076      0.00000
     76       6.5126      0.00000
     77       6.5753      0.00000
     78       6.7037      0.00000
     79       6.7277      0.00000
     80       6.7619      0.00000
     81       6.8970      0.00000
     82       6.9528      0.00000
     83       7.0136      0.00000
     84       7.0921      0.00000
     85       7.1791      0.00000
     86       7.2599      0.00000
     87       7.2758      0.00000
     88       7.3973      0.00000
     89       7.5217      0.00000
     90       7.6136      0.00000
     91       7.6431      0.00000
     92       7.7515      0.00000
     93       7.7729      0.00000
     94       8.0316      0.00000
     95       8.0728      0.00000
     96       8.0899      0.00000
     97       8.1684      0.00000
     98       8.2427      0.00000
     99       8.4218      0.00000
    100       8.4420      0.00000
    101       8.5585      0.00000
    102       8.6271      0.00000
    103       8.7602      0.00000
    104       8.8932      0.00000
    105       8.8986      0.00000
    106       9.0071      0.00000
    107       9.0077      0.00000
    108       9.1000      0.00000
    109       9.1078      0.00000
    110       9.2296      0.00000
    111       9.4200      0.00000
    112       9.5367      0.00000
    113       9.7105      0.00000
    114       9.7566      0.00000
    115       9.7962      0.00000
    116       9.8300      0.00000
    117      10.0532      0.00000
    118      10.0547      0.00000
    119      10.1792      0.00000
    120      10.2910      0.00000
    121      10.4592      0.00000
    122      10.5439      0.00000
    123      10.6690      0.00000
    124      10.7165      0.00000
    125      10.9075      0.00000
    126      11.2093      0.00000
    127      11.2314      0.00000
    128      11.2488      0.00000
    129      11.4158      0.00000
    130      11.4561      0.00000
    131      11.4864      0.00000
    132      11.5956      0.00000
    133      11.7201      0.00000
    134      11.7560      0.00000
    135      11.9180      0.00000
    136      11.9184      0.00000
    137      12.0793      0.00000
    138      12.1185      0.00000
    139      12.2267      0.00000
    140      12.2827      0.00000
    141      12.3420      0.00000
    142      12.3705      0.00000
    143      12.4018      0.00000
    144      12.5293      0.00000

 k-point    23 :       0.3333    0.0000    0.1667
  band No.  band energies     occupation 
      1     -20.0578      2.00000
      2     -20.0574      2.00000
      3     -20.0553      2.00000
      4     -20.0551      2.00000
      5     -11.9376      2.00000
      6     -11.8929      2.00000
      7     -11.8563      2.00000
      8     -11.8326      2.00000
      9     -10.8535      2.00000
     10     -10.8316      2.00000
     11     -10.7988      2.00000
     12     -10.7374      2.00000
     13     -10.0924      2.00000
     14     -10.0802      2.00000
     15     -10.0741      2.00000
     16     -10.0475      2.00000
     17      -6.9299      2.00000
     18      -6.9234      2.00000
     19      -6.9053      2.00000
     20      -6.8954      2.00000
     21      -6.8932      2.00000
     22      -6.8903      2.00000
     23      -6.8769      2.00000
     24      -6.8656      2.00000
     25      -6.8631      2.00000
     26      -6.8575      2.00000
     27      -6.8429      2.00000
     28      -6.8355      2.00000
     29      -3.2187      2.00000
     30      -3.1734      2.00000
     31      -3.1141      2.00000
     32      -3.0638      2.00000
     33      -1.6476      2.00000
     34      -1.5750      2.00000
     35      -1.5434      2.00000
     36      -1.5316      2.00000
     37      -1.4237      2.00000
     38      -1.3320      2.00000
     39      -1.1545      2.00000
     40      -1.0888      2.00000
     41      -0.8680      2.00000
     42      -0.8293      2.00000
     43      -0.7770      2.00000
     44      -0.7179      2.00000
     45      -0.6737      2.00000
     46      -0.4834      2.00000
     47      -0.3977      2.00000
     48      -0.3440      2.00000
     49      -0.3326      2.00000
     50      -0.2802      2.00000
     51      -0.2622      2.00000
     52      -0.1652      2.00000
     53      -0.0540      2.00000
     54       0.0239      2.00000
     55       0.0980      2.00000
     56       0.1545      2.00000
     57       0.1722      2.00000
     58       0.1941      2.00000
     59       0.2476      2.00000
     60       0.3269      2.00000
     61       2.3382      0.00000
     62       2.3733      0.00000
     63       2.4073      0.00000
     64       2.4588      0.00000
     65       4.9019      0.00000
     66       5.4198      0.00000
     67       5.7131      0.00000
     68       5.7588      0.00000
     69       5.8470      0.00000
     70       5.9088      0.00000
     71       5.9540      0.00000
     72       6.0540      0.00000
     73       6.1174      0.00000
     74       6.1919      0.00000
     75       6.4309      0.00000
     76       6.4668      0.00000
     77       6.5927      0.00000
     78       6.6316      0.00000
     79       6.7008      0.00000
     80       6.7650      0.00000
     81       6.7810      0.00000
     82       6.8706      0.00000
     83       6.9649      0.00000
     84       7.0132      0.00000
     85       7.2073      0.00000
     86       7.2499      0.00000
     87       7.3118      0.00000
     88       7.4984      0.00000
     89       7.5349      0.00000
     90       7.6165      0.00000
     91       7.6623      0.00000
     92       7.8290      0.00000
     93       7.9144      0.00000
     94       7.9564      0.00000
     95       8.0610      0.00000
     96       8.1696      0.00000
     97       8.1865      0.00000
     98       8.2885      0.00000
     99       8.4091      0.00000
    100       8.5348      0.00000
    101       8.5434      0.00000
    102       8.7116      0.00000
    103       8.8231      0.00000
    104       8.8516      0.00000
    105       8.8775      0.00000
    106       8.9288      0.00000
    107       9.0555      0.00000
    108       9.1937      0.00000
    109       9.2582      0.00000
    110       9.3384      0.00000
    111       9.4705      0.00000
    112       9.5591      0.00000
    113       9.7109      0.00000
    114       9.7578      0.00000
    115       9.8830      0.00000
    116       9.9512      0.00000
    117       9.9945      0.00000
    118      10.0784      0.00000
    119      10.1523      0.00000
    120      10.2941      0.00000
    121      10.3407      0.00000
    122      10.4905      0.00000
    123      10.5670      0.00000
    124      10.7666      0.00000
    125      10.8921      0.00000
    126      10.9126      0.00000
    127      11.0237      0.00000
    128      11.0867      0.00000
    129      11.2273      0.00000
    130      11.2994      0.00000
    131      11.4444      0.00000
    132      11.6191      0.00000
    133      11.6672      0.00000
    134      11.7678      0.00000
    135      11.9833      0.00000
    136      12.0819      0.00000
    137      12.1299      0.00000
    138      12.1461      0.00000
    139      12.2444      0.00000
    140      12.3420      0.00000
    141      12.4094      0.00000
    142      12.4482      0.00000
    143      12.4781      0.00000
    144      12.5389      0.00000

 k-point    24 :       0.5000    0.0000    0.1667
  band No.  band energies     occupation 
      1     -20.0576      2.00000
      2     -20.0576      2.00000
      3     -20.0552      2.00000
      4     -20.0552      2.00000
      5     -11.9151      2.00000
      6     -11.9151      2.00000
      7     -11.8458      2.00000
      8     -11.8458      2.00000
      9     -10.8411      2.00000
     10     -10.8411      2.00000
     11     -10.7665      2.00000
     12     -10.7665      2.00000
     13     -10.0875      2.00000
     14     -10.0875      2.00000
     15     -10.0620      2.00000
     16     -10.0620      2.00000
     17      -6.9267      2.00000
     18      -6.9267      2.00000
     19      -6.8979      2.00000
     20      -6.8979      2.00000
     21      -6.8928      2.00000
     22      -6.8928      2.00000
     23      -6.8716      2.00000
     24      -6.8716      2.00000
     25      -6.8591      2.00000
     26      -6.8591      2.00000
     27      -6.8405      2.00000
     28      -6.8405      2.00000
     29      -3.1655      2.00000
     30      -3.1655      2.00000
     31      -3.1207      2.00000
     32      -3.1207      2.00000
     33      -1.6013      2.00000
     34      -1.6013      2.00000
     35      -1.5640      2.00000
     36      -1.5640      2.00000
     37      -1.4005      2.00000
     38      -1.4005      2.00000
     39      -1.1177      2.00000
     40      -1.1177      2.00000
     41      -0.8068      2.00000
     42      -0.8068      2.00000
     43      -0.7294      2.00000
     44      -0.7294      2.00000
     45      -0.6273      2.00000
     46      -0.6273      2.00000
     47      -0.3347      2.00000
     48      -0.3347      2.00000
     49      -0.2836      2.00000
     50      -0.2836      2.00000
     51      -0.2386      2.00000
     52      -0.2386      2.00000
     53       0.0514      2.00000
     54       0.0514      2.00000
     55       0.0634      2.00000
     56       0.0634      2.00000
     57       0.2048      2.00000
     58       0.2048      2.00000
     59       0.2592      2.00000
     60       0.2592      2.00000
     61       2.3565      0.00000
     62       2.3565      0.00000
     63       2.4126      0.00000
     64       2.4126      0.00000
     65       5.1539      0.00000
     66       5.1539      0.00000
     67       5.8051      0.00000
     68       5.8051      0.00000
     69       5.8964      0.00000
     70       5.8964      0.00000
     71       5.9604      0.00000
     72       5.9604      0.00000
     73       6.1426      0.00000
     74       6.1426      0.00000
     75       6.4925      0.00000
     76       6.4925      0.00000
     77       6.5024      0.00000
     78       6.5024      0.00000
     79       6.7156      0.00000
     80       6.7156      0.00000
     81       6.8189      0.00000
     82       6.8189      0.00000
     83       6.9506      0.00000
     84       6.9506      0.00000
     85       7.2334      0.00000
     86       7.2334      0.00000
     87       7.4037      0.00000
     88       7.4037      0.00000
     89       7.6593      0.00000
     90       7.6593      0.00000
     91       7.7225      0.00000
     92       7.7225      0.00000
     93       7.8994      0.00000
     94       7.8994      0.00000
     95       8.1124      0.00000
     96       8.1124      0.00000
     97       8.3329      0.00000
     98       8.3329      0.00000
     99       8.4527      0.00000
    100       8.4527      0.00000
    101       8.6487      0.00000
    102       8.6487      0.00000
    103       8.7987      0.00000
    104       8.7987      0.00000
    105       8.9132      0.00000
    106       8.9132      0.00000
    107       9.2654      0.00000
    108       9.2654      0.00000
    109       9.2927      0.00000
    110       9.2927      0.00000
    111       9.5889      0.00000
    112       9.5889      0.00000
    113       9.7953      0.00000
    114       9.7953      0.00000
    115       9.8256      0.00000
    116       9.8256      0.00000
    117      10.1648      0.00000
    118      10.1648      0.00000
    119      10.1729      0.00000
    120      10.1729      0.00000
    121      10.3527      0.00000
    122      10.3527      0.00000
    123      10.6040      0.00000
    124      10.6040      0.00000
    125      10.7029      0.00000
    126      10.7029      0.00000
    127      11.0300      0.00000
    128      11.0300      0.00000
    129      11.3488      0.00000
    130      11.3488      0.00000
    131      11.5151      0.00000
    132      11.5151      0.00000
    133      11.5795      0.00000
    134      11.5795      0.00000
    135      11.9420      0.00000
    136      11.9420      0.00000
    137      12.1929      0.00000
    138      12.1929      0.00000
    139      12.4494      0.00000
    140      12.4494      0.00000
    141      12.4988      0.00000
    142      12.4989      0.00000
    143      12.5709      0.00000
    144      12.5710      0.00000

 k-point    25 :       0.0000    0.1111    0.1667
  band No.  band energies     occupation 
      1     -20.0578      2.00000
      2     -20.0572      2.00000
      3     -20.0555      2.00000
      4     -20.0551      2.00000
      5     -11.9567      2.00000
      6     -11.8877      2.00000
      7     -11.8458      2.00000
      8     -11.8228      2.00000
      9     -10.8662      2.00000
     10     -10.8463      2.00000
     11     -10.8144      2.00000
     12     -10.7159      2.00000
     13     -10.0924      2.00000
     14     -10.0897      2.00000
     15     -10.0652      2.00000
     16     -10.0331      2.00000
     17      -6.9282      2.00000
     18      -6.9154      2.00000
     19      -6.9126      2.00000
     20      -6.8995      2.00000
     21      -6.8892      2.00000
     22      -6.8823      2.00000
     23      -6.8796      2.00000
     24      -6.8743      2.00000
     25      -6.8613      2.00000
     26      -6.8493      2.00000
     27      -6.8449      2.00000
     28      -6.8316      2.00000
     29      -3.2696      2.00000
     30      -3.2236      2.00000
     31      -3.0615      2.00000
     32      -3.0053      2.00000
     33      -1.6984      2.00000
     34      -1.5586      2.00000
     35      -1.5159      2.00000
     36      -1.4836      2.00000
     37      -1.2921      2.00000
     38      -1.2699      2.00000
     39      -1.2389      2.00000
     40      -1.0821      2.00000
     41      -0.9718      2.00000
     42      -0.9211      2.00000
     43      -0.8049      2.00000
     44      -0.7303      2.00000
     45      -0.6158      2.00000
     46      -0.5167      2.00000
     47      -0.4678      2.00000
     48      -0.3619      2.00000
     49      -0.3427      2.00000
     50      -0.3342      2.00000
     51      -0.2602      2.00000
     52      -0.1423      2.00000
     53      -0.0424      2.00000
     54       0.0426      2.00000
     55       0.0477      2.00000
     56       0.0907      2.00000
     57       0.1760      2.00000
     58       0.2678      2.00000
     59       0.3131      2.00000
     60       0.3780      2.00000
     61       2.3639      0.00000
     62       2.3888      0.00000
     63       2.4483      0.00000
     64       2.5054      0.00000
     65       4.7337      0.00000
     66       5.5475      0.00000
     67       5.6267      0.00000
     68       5.7542      0.00000
     69       5.7593      0.00000
     70       5.8455      0.00000
     71       6.1028      0.00000
     72       6.1816      0.00000
     73       6.2418      0.00000
     74       6.2545      0.00000
     75       6.3592      0.00000
     76       6.3998      0.00000
     77       6.6050      0.00000
     78       6.6778      0.00000
     79       6.7866      0.00000
     80       6.8114      0.00000
     81       6.8435      0.00000
     82       6.9772      0.00000
     83       7.0231      0.00000
     84       7.0270      0.00000
     85       7.1762      0.00000
     86       7.2737      0.00000
     87       7.3416      0.00000
     88       7.4782      0.00000
     89       7.5401      0.00000
     90       7.5503      0.00000
     91       7.6393      0.00000
     92       7.7547      0.00000
     93       7.7971      0.00000
     94       7.8940      0.00000
     95       8.0433      0.00000
     96       8.0717      0.00000
     97       8.2054      0.00000
     98       8.3218      0.00000
     99       8.4257      0.00000
    100       8.4428      0.00000
    101       8.5064      0.00000
    102       8.6510      0.00000
    103       8.6916      0.00000
    104       8.7345      0.00000
    105       8.7995      0.00000
    106       8.9112      0.00000
    107       9.0843      0.00000
    108       9.0895      0.00000
    109       9.2305      0.00000
    110       9.2663      0.00000
    111       9.3399      0.00000
    112       9.5051      0.00000
    113       9.5332      0.00000
    114       9.6332      0.00000
    115       9.7236      0.00000
    116       9.8409      0.00000
    117      10.1379      0.00000
    118      10.1876      0.00000
    119      10.2036      0.00000
    120      10.2674      0.00000
    121      10.5304      0.00000
    122      10.5881      0.00000
    123      10.7250      0.00000
    124      10.7410      0.00000
    125      10.7974      0.00000
    126      11.0873      0.00000
    127      11.1873      0.00000
    128      11.2271      0.00000
    129      11.3772      0.00000
    130      11.4786      0.00000
    131      11.5198      0.00000
    132      11.5983      0.00000
    133      11.7935      0.00000
    134      11.8631      0.00000
    135      11.8650      0.00000
    136      11.8739      0.00000
    137      11.9950      0.00000
    138      12.1910      0.00000
    139      12.1956      0.00000
    140      12.2811      0.00000
    141      12.3721      0.00000
    142      12.4341      0.00000
    143      12.4557      0.00000
    144      12.4839      0.00000

 k-point    26 :       0.1667    0.1111    0.1667
  band No.  band energies     occupation 
      1     -20.0578      2.00000
      2     -20.0572      2.00000
      3     -20.0555      2.00000
      4     -20.0551      2.00000
      5     -11.9512      2.00000
      6     -11.8861      2.00000
      7     -11.8530      2.00000
      8     -11.8254      2.00000
      9     -10.8629      2.00000
     10     -10.8365      2.00000
     11     -10.8149      2.00000
     12     -10.7222      2.00000
     13     -10.0932      2.00000
     14     -10.0857      2.00000
     15     -10.0688      2.00000
     16     -10.0373      2.00000
     17      -6.9273      2.00000
     18      -6.9150      2.00000
     19      -6.9123      2.00000
     20      -6.8983      2.00000
     21      -6.8882      2.00000
     22      -6.8827      2.00000
     23      -6.8804      2.00000
     24      -6.8701      2.00000
     25      -6.8625      2.00000
     26      -6.8539      2.00000
     27      -6.8435      2.00000
     28      -6.8326      2.00000
     29      -3.2549      2.00000
     30      -3.2101      2.00000
     31      -3.0755      2.00000
     32      -3.0218      2.00000
     33      -1.6914      2.00000
     34      -1.5666      2.00000
     35      -1.5319      2.00000
     36      -1.5066      2.00000
     37      -1.3426      2.00000
     38      -1.2666      2.00000
     39      -1.2137      2.00000
     40      -1.0837      2.00000
     41      -0.9437      2.00000
     42      -0.9006      2.00000
     43      -0.8000      2.00000
     44      -0.7181      2.00000
     45      -0.6203      2.00000
     46      -0.4955      2.00000
     47      -0.4510      2.00000
     48      -0.3736      2.00000
     49      -0.3281      2.00000
     50      -0.3085      2.00000
     51      -0.2609      2.00000
     52      -0.1524      2.00000
     53      -0.0681      2.00000
     54       0.0395      2.00000
     55       0.0793      2.00000
     56       0.1121      2.00000
     57       0.1578      2.00000
     58       0.2626      2.00000
     59       0.2845      2.00000
     60       0.3670      2.00000
     61       2.3517      0.00000
     62       2.3835      0.00000
     63       2.4389      0.00000
     64       2.4947      0.00000
     65       4.8017      0.00000
     66       5.5798      0.00000
     67       5.6336      0.00000
     68       5.7398      0.00000
     69       5.7736      0.00000
     70       5.8200      0.00000
     71       6.0491      0.00000
     72       6.1465      0.00000
     73       6.2169      0.00000
     74       6.2619      0.00000
     75       6.3311      0.00000
     76       6.4793      0.00000
     77       6.5662      0.00000
     78       6.6244      0.00000
     79       6.7415      0.00000
     80       6.8165      0.00000
     81       6.8970      0.00000
     82       6.9341      0.00000
     83       7.0234      0.00000
     84       7.0560      0.00000
     85       7.1697      0.00000
     86       7.2252      0.00000
     87       7.2759      0.00000
     88       7.4485      0.00000
     89       7.5275      0.00000
     90       7.5965      0.00000
     91       7.6243      0.00000
     92       7.7835      0.00000
     93       7.8891      0.00000
     94       7.9636      0.00000
     95       7.9938      0.00000
     96       8.1397      0.00000
     97       8.2219      0.00000
     98       8.2701      0.00000
     99       8.4218      0.00000
    100       8.4600      0.00000
    101       8.5736      0.00000
    102       8.6168      0.00000
    103       8.6904      0.00000
    104       8.7904      0.00000
    105       8.8055      0.00000
    106       8.9739      0.00000
    107       9.0361      0.00000
    108       9.1196      0.00000
    109       9.1467      0.00000
    110       9.3418      0.00000
    111       9.3574      0.00000
    112       9.4859      0.00000
    113       9.6107      0.00000
    114       9.7033      0.00000
    115       9.8041      0.00000
    116       9.8501      0.00000
    117      10.0188      0.00000
    118      10.1522      0.00000
    119      10.2095      0.00000
    120      10.3474      0.00000
    121      10.4623      0.00000
    122      10.6250      0.00000
    123      10.6630      0.00000
    124      10.7050      0.00000
    125      10.9159      0.00000
    126      11.0431      0.00000
    127      11.1984      0.00000
    128      11.2222      0.00000
    129      11.3347      0.00000
    130      11.3725      0.00000
    131      11.4625      0.00000
    132      11.5638      0.00000
    133      11.7018      0.00000
    134      11.7920      0.00000
    135      11.8391      0.00000
    136      11.9395      0.00000
    137      12.0130      0.00000
    138      12.1317      0.00000
    139      12.1694      0.00000
    140      12.2120      0.00000
    141      12.3580      0.00000
    142      12.3739      0.00000
    143      12.4837      0.00000
    144      12.5625      0.00000

 k-point    27 :       0.3333    0.1111    0.1667
  band No.  band energies     occupation 
      1     -20.0577      2.00000
      2     -20.0573      2.00000
      3     -20.0554      2.00000
      4     -20.0552      2.00000
      5     -11.9358      2.00000
      6     -11.8918      2.00000
      7     -11.8588      2.00000
      8     -11.8346      2.00000
      9     -10.8526      2.00000
     10     -10.8297      2.00000
     11     -10.8010      2.00000
     12     -10.7408      2.00000
     13     -10.0918      2.00000
     14     -10.0795      2.00000
     15     -10.0743      2.00000
     16     -10.0485      2.00000
     17      -6.9249      2.00000
     18      -6.9175      2.00000
     19      -6.9073      2.00000
     20      -6.8972      2.00000
     21      -6.8865      2.00000
     22      -6.8840      2.00000
     23      -6.8780      2.00000
     24      -6.8665      2.00000
     25      -6.8637      2.00000
     26      -6.8583      2.00000
     27      -6.8435      2.00000
     28      -6.8359      2.00000
     29      -3.2154      2.00000
     30      -3.1734      2.00000
     31      -3.1125      2.00000
     32      -3.0655      2.00000
     33      -1.6730      2.00000
     34      -1.5913      2.00000
     35      -1.5750      2.00000
     36      -1.5291      2.00000
     37      -1.3869      2.00000
     38      -1.3144      2.00000
     39      -1.1653      2.00000
     40      -1.0941      2.00000
     41      -0.8820      2.00000
     42      -0.8323      2.00000
     43      -0.7891      2.00000
     44      -0.6911      2.00000
     45      -0.6452      2.00000
     46      -0.4982      2.00000
     47      -0.4140      2.00000
     48      -0.3876      2.00000
     49      -0.2890      2.00000
     50      -0.2768      2.00000
     51      -0.2608      2.00000
     52      -0.1765      2.00000
     53      -0.0479      2.00000
     54       0.0375      2.00000
     55       0.0927      2.00000
     56       0.1527      2.00000
     57       0.1724      2.00000
     58       0.1980      2.00000
     59       0.2448      2.00000
     60       0.3288      2.00000
     61       2.3437      0.00000
     62       2.3803      0.00000
     63       2.4105      0.00000
     64       2.4598      0.00000
     65       4.9815      0.00000
     66       5.4751      0.00000
     67       5.6442      0.00000
     68       5.6941      0.00000
     69       5.8520      0.00000
     70       5.8835      0.00000
     71       6.0005      0.00000
     72       6.1484      0.00000
     73       6.1872      0.00000
     74       6.2502      0.00000
     75       6.2758      0.00000
     76       6.4878      0.00000
     77       6.5227      0.00000
     78       6.5553      0.00000
     79       6.6702      0.00000
     80       6.7229      0.00000
     81       6.8791      0.00000
     82       6.9669      0.00000
     83       7.0339      0.00000
     84       7.0577      0.00000
     85       7.1649      0.00000
     86       7.1904      0.00000
     87       7.3332      0.00000
     88       7.4135      0.00000
     89       7.4693      0.00000
     90       7.6020      0.00000
     91       7.6866      0.00000
     92       7.7434      0.00000
     93       7.8556      0.00000
     94       7.9861      0.00000
     95       8.0224      0.00000
     96       8.2249      0.00000
     97       8.2554      0.00000
     98       8.3285      0.00000
     99       8.3958      0.00000
    100       8.5027      0.00000
    101       8.5187      0.00000
    102       8.6174      0.00000
    103       8.7186      0.00000
    104       8.8177      0.00000
    105       8.9445      0.00000
    106       9.0134      0.00000
    107       9.0768      0.00000
    108       9.1495      0.00000
    109       9.3072      0.00000
    110       9.3807      0.00000
    111       9.4218      0.00000
    112       9.5382      0.00000
    113       9.7158      0.00000
    114       9.7591      0.00000
    115       9.8291      0.00000
    116       9.8919      0.00000
    117      10.0247      0.00000
    118      10.0835      0.00000
    119      10.2198      0.00000
    120      10.2983      0.00000
    121      10.4695      0.00000
    122      10.5706      0.00000
    123      10.6218      0.00000
    124      10.6904      0.00000
    125      10.8439      0.00000
    126      10.9139      0.00000
    127      11.0497      0.00000
    128      11.0553      0.00000
    129      11.2538      0.00000
    130      11.3325      0.00000
    131      11.4361      0.00000
    132      11.4908      0.00000
    133      11.5954      0.00000
    134      11.7175      0.00000
    135      11.8356      0.00000
    136      11.8974      0.00000
    137      12.0820      0.00000
    138      12.0874      0.00000
    139      12.1979      0.00000
    140      12.2709      0.00000
    141      12.3476      0.00000
    142      12.5056      0.00000
    143      12.5262      0.00000
    144      12.5985      0.00000

 k-point    28 :       0.5000    0.1111    0.1667
  band No.  band energies     occupation 
      1     -20.0575      2.00000
      2     -20.0575      2.00000
      3     -20.0553      2.00000
      4     -20.0553      2.00000
      5     -11.9135      2.00000
      6     -11.9135      2.00000
      7     -11.8483      2.00000
      8     -11.8483      2.00000
      9     -10.8395      2.00000
     10     -10.8395      2.00000
     11     -10.7695      2.00000
     12     -10.7695      2.00000
     13     -10.0867      2.00000
     14     -10.0867      2.00000
     15     -10.0627      2.00000
     16     -10.0627      2.00000
     17      -6.9213      2.00000
     18      -6.9213      2.00000
     19      -6.9006      2.00000
     20      -6.9006      2.00000
     21      -6.8855      2.00000
     22      -6.8855      2.00000
     23      -6.8726      2.00000
     24      -6.8726      2.00000
     25      -6.8599      2.00000
     26      -6.8599      2.00000
     27      -6.8409      2.00000
     28      -6.8409      2.00000
     29      -3.1630      2.00000
     30      -3.1630      2.00000
     31      -3.1213      2.00000
     32      -3.1213      2.00000
     33      -1.6421      2.00000
     34      -1.6421      2.00000
     35      -1.5607      2.00000
     36      -1.5607      2.00000
     37      -1.3707      2.00000
     38      -1.3707      2.00000
     39      -1.1222      2.00000
     40      -1.1222      2.00000
     41      -0.8316      2.00000
     42      -0.8316      2.00000
     43      -0.7016      2.00000
     44      -0.7016      2.00000
     45      -0.6257      2.00000
     46      -0.6257      2.00000
     47      -0.3483      2.00000
     48      -0.3483      2.00000
     49      -0.3022      2.00000
     50      -0.3022      2.00000
     51      -0.2208      2.00000
     52      -0.2208      2.00000
     53       0.0545      2.00000
     54       0.0545      2.00000
     55       0.0719      2.00000
     56       0.0719      2.00000
     57       0.1987      2.00000
     58       0.1987      2.00000
     59       0.2612      2.00000
     60       0.2612      2.00000
     61       2.3635      0.00000
     62       2.3635      0.00000
     63       2.4154      0.00000
     64       2.4154      0.00000
     65       5.2213      0.00000
     66       5.2213      0.00000
     67       5.6767      0.00000
     68       5.6767      0.00000
     69       5.9594      0.00000
     70       5.9594      0.00000
     71       6.0055      0.00000
     72       6.0055      0.00000
     73       6.2309      0.00000
     74       6.2309      0.00000
     75       6.3306      0.00000
     76       6.3306      0.00000
     77       6.5453      0.00000
     78       6.5453      0.00000
     79       6.6534      0.00000
     80       6.6534      0.00000
     81       6.9165      0.00000
     82       6.9165      0.00000
     83       7.0442      0.00000
     84       7.0442      0.00000
     85       7.1880      0.00000
     86       7.1880      0.00000
     87       7.4195      0.00000
     88       7.4195      0.00000
     89       7.4654      0.00000
     90       7.4654      0.00000
     91       7.7706      0.00000
     92       7.7706      0.00000
     93       7.8374      0.00000
     94       7.8374      0.00000
     95       8.0980      0.00000
     96       8.0980      0.00000
     97       8.3767      0.00000
     98       8.3767      0.00000
     99       8.4547      0.00000
    100       8.4547      0.00000
    101       8.6060      0.00000
    102       8.6060      0.00000
    103       8.7766      0.00000
    104       8.7766      0.00000
    105       8.9517      0.00000
    106       8.9517      0.00000
    107       9.1473      0.00000
    108       9.1473      0.00000
    109       9.4184      0.00000
    110       9.4184      0.00000
    111       9.5941      0.00000
    112       9.5941      0.00000
    113       9.7615      0.00000
    114       9.7615      0.00000
    115       9.8584      0.00000
    116       9.8584      0.00000
    117      10.1204      0.00000
    118      10.1204      0.00000
    119      10.2765      0.00000
    120      10.2765      0.00000
    121      10.4096      0.00000
    122      10.4096      0.00000
    123      10.5682      0.00000
    124      10.5682      0.00000
    125      10.7498      0.00000
    126      10.7498      0.00000
    127      11.0173      0.00000
    128      11.0173      0.00000
    129      11.3105      0.00000
    130      11.3105      0.00000
    131      11.4245      0.00000
    132      11.4245      0.00000
    133      11.6026      0.00000
    134      11.6026      0.00000
    135      11.8633      0.00000
    136      11.8633      0.00000
    137      12.0959      0.00000
    138      12.0959      0.00000
    139      12.3326      0.00000
    140      12.3326      0.00000
    141      12.4092      0.00000
    142      12.4092      0.00000
    143      12.5812      0.00000
    144      12.5813      0.00000

 k-point    29 :       0.0000    0.2222    0.1667
  band No.  band energies     occupation 
      1     -20.0575      2.00000
      2     -20.0569      2.00000
      3     -20.0556      2.00000
      4     -20.0553      2.00000
      5     -11.9509      2.00000
      6     -11.8933      2.00000
      7     -11.8465      2.00000
      8     -11.8265      2.00000
      9     -10.8660      2.00000
     10     -10.8501      2.00000
     11     -10.8074      2.00000
     12     -10.7266      2.00000
     13     -10.0916      2.00000
     14     -10.0893      2.00000
     15     -10.0627      2.00000
     16     -10.0364      2.00000
     17      -6.9173      2.00000
     18      -6.9163      2.00000
     19      -6.8986      2.00000
     20      -6.8976      2.00000
     21      -6.8819      2.00000
     22      -6.8798      2.00000
     23      -6.8758      2.00000
     24      -6.8713      2.00000
     25      -6.8600      2.00000
     26      -6.8502      2.00000
     27      -6.8477      2.00000
     28      -6.8325      2.00000
     29      -3.2581      2.00000
     30      -3.2226      2.00000
     31      -3.0594      2.00000
     32      -3.0135      2.00000
     33      -1.7168      2.00000
     34      -1.5620      2.00000
     35      -1.5569      2.00000
     36      -1.5055      2.00000
     37      -1.3027      2.00000
     38      -1.2715      2.00000
     39      -1.2460      2.00000
     40      -1.1262      2.00000
     41      -0.9834      2.00000
     42      -0.8880      2.00000
     43      -0.7694      2.00000
     44      -0.7075      2.00000
     45      -0.6358      2.00000
     46      -0.5700      2.00000
     47      -0.4285      2.00000
     48      -0.3581      2.00000
     49      -0.3355      2.00000
     50      -0.2789      2.00000
     51      -0.2653      2.00000
     52      -0.1854      2.00000
     53      -0.0451      2.00000
     54       0.0120      2.00000
     55       0.0817      2.00000
     56       0.1153      2.00000
     57       0.1695      2.00000
     58       0.2491      2.00000
     59       0.3266      2.00000
     60       0.3893      2.00000
     61       2.3693      0.00000
     62       2.3938      0.00000
     63       2.4571      0.00000
     64       2.5045      0.00000
     65       4.9884      0.00000
     66       5.5667      0.00000
     67       5.6618      0.00000
     68       5.6929      0.00000
     69       5.7784      0.00000
     70       5.8403      0.00000
     71       6.1481      0.00000
     72       6.1693      0.00000
     73       6.2228      0.00000
     74       6.2366      0.00000
     75       6.3281      0.00000
     76       6.4106      0.00000
     77       6.5272      0.00000
     78       6.5950      0.00000
     79       6.7116      0.00000
     80       6.8095      0.00000
     81       6.8397      0.00000
     82       6.9526      0.00000
     83       6.9780      0.00000
     84       7.0728      0.00000
     85       7.1634      0.00000
     86       7.2549      0.00000
     87       7.3167      0.00000
     88       7.4396      0.00000
     89       7.4655      0.00000
     90       7.6664      0.00000
     91       7.7028      0.00000
     92       7.7230      0.00000
     93       7.7591      0.00000
     94       7.9581      0.00000
     95       8.1492      0.00000
     96       8.1919      0.00000
     97       8.2005      0.00000
     98       8.2521      0.00000
     99       8.3940      0.00000
    100       8.4256      0.00000
    101       8.4976      0.00000
    102       8.5896      0.00000
    103       8.6355      0.00000
    104       8.7146      0.00000
    105       8.7246      0.00000
    106       8.8649      0.00000
    107       8.9837      0.00000
    108       9.1256      0.00000
    109       9.1881      0.00000
    110       9.2255      0.00000
    111       9.2914      0.00000
    112       9.4400      0.00000
    113       9.5041      0.00000
    114       9.5446      0.00000
    115       9.8964      0.00000
    116       9.9467      0.00000
    117      10.0566      0.00000
    118      10.1536      0.00000
    119      10.2283      0.00000
    120      10.3433      0.00000
    121      10.4828      0.00000
    122      10.5074      0.00000
    123      10.6945      0.00000
    124      10.7155      0.00000
    125      10.8472      0.00000
    126      10.9032      0.00000
    127      11.1522      0.00000
    128      11.2502      0.00000
    129      11.3221      0.00000
    130      11.4051      0.00000
    131      11.4739      0.00000
    132      11.5351      0.00000
    133      11.5444      0.00000
    134      11.6484      0.00000
    135      11.8406      0.00000
    136      11.9590      0.00000
    137      11.9633      0.00000
    138      12.1694      0.00000
    139      12.1933      0.00000
    140      12.3041      0.00000
    141      12.3191      0.00000
    142      12.4266      0.00000
    143      12.5383      0.00000
    144      12.5491      0.00000

 k-point    30 :       0.1667    0.2222    0.1667
  band No.  band energies     occupation 
      1     -20.0575      2.00000
      2     -20.0570      2.00000
      3     -20.0556      2.00000
      4     -20.0553      2.00000
      5     -11.9455      2.00000
      6     -11.8902      2.00000
      7     -11.8544      2.00000
      8     -11.8297      2.00000
      9     -10.8619      2.00000
     10     -10.8397      2.00000
     11     -10.8095      2.00000
     12     -10.7326      2.00000
     13     -10.0920      2.00000
     14     -10.0858      2.00000
     15     -10.0663      2.00000
     16     -10.0405      2.00000
     17      -6.9172      2.00000
     18      -6.9134      2.00000
     19      -6.8992      2.00000
     20      -6.8971      2.00000
     21      -6.8827      2.00000
     22      -6.8778      2.00000
     23      -6.8740      2.00000
     24      -6.8708      2.00000
     25      -6.8611      2.00000
     26      -6.8552      2.00000
     27      -6.8453      2.00000
     28      -6.8334      2.00000
     29      -3.2441      2.00000
     30      -3.2093      2.00000
     31      -3.0727      2.00000
     32      -3.0291      2.00000
     33      -1.7158      2.00000
     34      -1.5927      2.00000
     35      -1.5734      2.00000
     36      -1.5132      2.00000
     37      -1.3333      2.00000
     38      -1.2521      2.00000
     39      -1.2295      2.00000
     40      -1.1227      2.00000
     41      -0.9554      2.00000
     42      -0.8891      2.00000
     43      -0.7732      2.00000
     44      -0.6856      2.00000
     45      -0.6165      2.00000
     46      -0.5441      2.00000
     47      -0.4440      2.00000
     48      -0.3624      2.00000
     49      -0.3269      2.00000
     50      -0.2719      2.00000
     51      -0.2561      2.00000
     52      -0.1913      2.00000
     53      -0.0604      2.00000
     54       0.0435      2.00000
     55       0.0780      2.00000
     56       0.1284      2.00000
     57       0.1576      2.00000
     58       0.2442      2.00000
     59       0.2995      2.00000
     60       0.3754      2.00000
     61       2.3609      0.00000
     62       2.3908      0.00000
     63       2.4488      0.00000
     64       2.4934      0.00000
     65       5.0466      0.00000
     66       5.5693      0.00000
     67       5.6459      0.00000
     68       5.7448      0.00000
     69       5.7831      0.00000
     70       5.8304      0.00000
     71       6.0524      0.00000
     72       6.1767      0.00000
     73       6.2296      0.00000
     74       6.2594      0.00000
     75       6.3159      0.00000
     76       6.3989      0.00000
     77       6.5119      0.00000
     78       6.5993      0.00000
     79       6.7359      0.00000
     80       6.7845      0.00000
     81       6.8360      0.00000
     82       6.8940      0.00000
     83       6.9810      0.00000
     84       7.0686      0.00000
     85       7.1833      0.00000
     86       7.2136      0.00000
     87       7.3196      0.00000
     88       7.4178      0.00000
     89       7.4814      0.00000
     90       7.6065      0.00000
     91       7.6544      0.00000
     92       7.6897      0.00000
     93       7.7991      0.00000
     94       8.0456      0.00000
     95       8.1075      0.00000
     96       8.1344      0.00000
     97       8.1773      0.00000
     98       8.2451      0.00000
     99       8.4768      0.00000
    100       8.4868      0.00000
    101       8.5633      0.00000
    102       8.5724      0.00000
    103       8.6344      0.00000
    104       8.7123      0.00000
    105       8.7940      0.00000
    106       8.8802      0.00000
    107       9.0004      0.00000
    108       9.1318      0.00000
    109       9.2067      0.00000
    110       9.2682      0.00000
    111       9.3712      0.00000
    112       9.4427      0.00000
    113       9.5058      0.00000
    114       9.6474      0.00000
    115       9.8796      0.00000
    116       9.9352      0.00000
    117      10.0426      0.00000
    118      10.0924      0.00000
    119      10.3122      0.00000
    120      10.3580      0.00000
    121      10.4643      0.00000
    122      10.5198      0.00000
    123      10.6633      0.00000
    124      10.7389      0.00000
    125      10.8553      0.00000
    126      11.0053      0.00000
    127      11.1343      0.00000
    128      11.1657      0.00000
    129      11.2682      0.00000
    130      11.3170      0.00000
    131      11.4585      0.00000
    132      11.5887      0.00000
    133      11.6396      0.00000
    134      11.6651      0.00000
    135      11.7194      0.00000
    136      11.8558      0.00000
    137      11.9691      0.00000
    138      12.0688      0.00000
    139      12.1293      0.00000
    140      12.1785      0.00000
    141      12.2432      0.00000
    142      12.4010      0.00000
    143      12.5063      0.00000
    144      12.5884      0.00000

 k-point    31 :       0.3333    0.2222    0.1667
  band No.  band energies     occupation 
      1     -20.0574      2.00000
      2     -20.0571      2.00000
      3     -20.0555      2.00000
      4     -20.0554      2.00000
      5     -11.9303      2.00000
      6     -11.8892      2.00000
      7     -11.8653      2.00000
      8     -11.8404      2.00000
      9     -10.8499      2.00000
     10     -10.8245      2.00000
     11     -10.8064      2.00000
     12     -10.7504      2.00000
     13     -10.0901      2.00000
     14     -10.0784      2.00000
     15     -10.0741      2.00000
     16     -10.0514      2.00000
     17      -6.9143      2.00000
     18      -6.9074      2.00000
     19      -6.9034      2.00000
     20      -6.8961      2.00000
     21      -6.8811      2.00000
     22      -6.8766      2.00000
     23      -6.8726      2.00000
     24      -6.8691      2.00000
     25      -6.8625      2.00000
     26      -6.8597      2.00000
     27      -6.8442      2.00000
     28      -6.8367      2.00000
     29      -3.2064      2.00000
     30      -3.1734      2.00000
     31      -3.1081      2.00000
     32      -3.0703      2.00000
     33      -1.7129      2.00000
     34      -1.6500      2.00000
     35      -1.5914      2.00000
     36      -1.5491      2.00000
     37      -1.3431      2.00000
     38      -1.2705      2.00000
     39      -1.1904      2.00000
     40      -1.1187      2.00000
     41      -0.8940      2.00000
     42      -0.8453      2.00000
     43      -0.7979      2.00000
     44      -0.6328      2.00000
     45      -0.6019      2.00000
     46      -0.5397      2.00000
     47      -0.4589      2.00000
     48      -0.3697      2.00000
     49      -0.3011      2.00000
     50      -0.2757      2.00000
     51      -0.2336      2.00000
     52      -0.2011      2.00000
     53      -0.0315      2.00000
     54       0.0663      2.00000
     55       0.0822      2.00000
     56       0.1515      2.00000
     57       0.1667      2.00000
     58       0.2105      2.00000
     59       0.2407      2.00000
     60       0.3306      2.00000
     61       2.3578      0.00000
     62       2.3936      0.00000
     63       2.4204      0.00000
     64       2.4615      0.00000
     65       5.2007      0.00000
     66       5.5690      0.00000
     67       5.6178      0.00000
     68       5.6262      0.00000
     69       5.8594      0.00000
     70       5.9270      0.00000
     71       5.9935      0.00000
     72       6.1760      0.00000
     73       6.2179      0.00000
     74       6.2525      0.00000
     75       6.3038      0.00000
     76       6.3875      0.00000
     77       6.5095      0.00000
     78       6.5233      0.00000
     79       6.7007      0.00000
     80       6.7312      0.00000
     81       6.8116      0.00000
     82       6.8737      0.00000
     83       7.0505      0.00000
     84       7.1196      0.00000
     85       7.1578      0.00000
     86       7.2128      0.00000
     87       7.3179      0.00000
     88       7.3507      0.00000
     89       7.4289      0.00000
     90       7.4726      0.00000
     91       7.6318      0.00000
     92       7.6935      0.00000
     93       7.8373      0.00000
     94       7.9042      0.00000
     95       8.0307      0.00000
     96       8.0988      0.00000
     97       8.2177      0.00000
     98       8.3044      0.00000
     99       8.4390      0.00000
    100       8.5460      0.00000
    101       8.5783      0.00000
    102       8.6440      0.00000
    103       8.6837      0.00000
    104       8.7724      0.00000
    105       8.9799      0.00000
    106       9.0169      0.00000
    107       9.1189      0.00000
    108       9.1317      0.00000
    109       9.2910      0.00000
    110       9.3215      0.00000
    111       9.4549      0.00000
    112       9.5529      0.00000
    113       9.6474      0.00000
    114       9.7229      0.00000
    115       9.8472      0.00000
    116       9.9104      0.00000
    117      10.0654      0.00000
    118      10.1104      0.00000
    119      10.1854      0.00000
    120      10.3570      0.00000
    121      10.4709      0.00000
    122      10.5364      0.00000
    123      10.7501      0.00000
    124      10.7579      0.00000
    125      10.7966      0.00000
    126      10.9544      0.00000
    127      11.0438      0.00000
    128      11.0687      0.00000
    129      11.2446      0.00000
    130      11.2623      0.00000
    131      11.3931      0.00000
    132      11.4901      0.00000
    133      11.5209      0.00000
    134      11.6238      0.00000
    135      11.7285      0.00000
    136      11.7853      0.00000
    137      11.9066      0.00000
    138      11.9447      0.00000
    139      12.0545      0.00000
    140      12.1707      0.00000
    141      12.2004      0.00000
    142      12.4114      0.00000
    143      12.4774      0.00000
    144      12.5140      0.00000

 k-point    32 :       0.5000    0.2222    0.1667
  band No.  band energies     occupation 
      1     -20.0572      2.00000
      2     -20.0572      2.00000
      3     -20.0554      2.00000
      4     -20.0554      2.00000
      5     -11.9085      2.00000
      6     -11.9085      2.00000
      7     -11.8554      2.00000
      8     -11.8554      2.00000
      9     -10.8347      2.00000
     10     -10.8347      2.00000
     11     -10.7777      2.00000
     12     -10.7777      2.00000
     13     -10.0845      2.00000
     14     -10.0845      2.00000
     15     -10.0649      2.00000
     16     -10.0649      2.00000
     17      -6.9092      2.00000
     18      -6.9092      2.00000
     19      -6.9002      2.00000
     20      -6.9002      2.00000
     21      -6.8778      2.00000
     22      -6.8778      2.00000
     23      -6.8714      2.00000
     24      -6.8714      2.00000
     25      -6.8610      2.00000
     26      -6.8610      2.00000
     27      -6.8414      2.00000
     28      -6.8414      2.00000
     29      -3.1564      2.00000
     30      -3.1564      2.00000
     31      -3.1232      2.00000
     32      -3.1232      2.00000
     33      -1.6949      2.00000
     34      -1.6949      2.00000
     35      -1.5832      2.00000
     36      -1.5832      2.00000
     37      -1.3165      2.00000
     38      -1.3165      2.00000
     39      -1.1421      2.00000
     40      -1.1421      2.00000
     41      -0.8468      2.00000
     42      -0.8468      2.00000
     43      -0.7114      2.00000
     44      -0.7114      2.00000
     45      -0.5840      2.00000
     46      -0.5840      2.00000
     47      -0.3797      2.00000
     48      -0.3797      2.00000
     49      -0.3059      2.00000
     50      -0.3059      2.00000
     51      -0.2151      2.00000
     52      -0.2151      2.00000
     53       0.0662      2.00000
     54       0.0662      2.00000
     55       0.0880      2.00000
     56       0.0880      2.00000
     57       0.1904      2.00000
     58       0.1904      2.00000
     59       0.2600      2.00000
     60       0.2600      2.00000
     61       2.3800      0.00000
     62       2.3800      0.00000
     63       2.4217      0.00000
     64       2.4217      0.00000
     65       5.4066      0.00000
     66       5.4066      0.00000
     67       5.5839      0.00000
     68       5.5839      0.00000
     69       5.9578      0.00000
     70       5.9578      0.00000
     71       6.0969      0.00000
     72       6.0969      0.00000
     73       6.1878      0.00000
     74       6.1878      0.00000
     75       6.3598      0.00000
     76       6.3598      0.00000
     77       6.4803      0.00000
     78       6.4803      0.00000
     79       6.7033      0.00000
     80       6.7033      0.00000
     81       6.8482      0.00000
     82       6.8482      0.00000
     83       7.0941      0.00000
     84       7.0941      0.00000
     85       7.2315      0.00000
     86       7.2315      0.00000
     87       7.2647      0.00000
     88       7.2647      0.00000
     89       7.4327      0.00000
     90       7.4327      0.00000
     91       7.6365      0.00000
     92       7.6365      0.00000
     93       7.8783      0.00000
     94       7.8783      0.00000
     95       8.0018      0.00000
     96       8.0018      0.00000
     97       8.2038      0.00000
     98       8.2038      0.00000
     99       8.5618      0.00000
    100       8.5618      0.00000
    101       8.6890      0.00000
    102       8.6890      0.00000
    103       8.7772      0.00000
    104       8.7772      0.00000
    105       8.9320      0.00000
    106       8.9320      0.00000
    107       9.2325      0.00000
    108       9.2325      0.00000
    109       9.3398      0.00000
    110       9.3398      0.00000
    111       9.6019      0.00000
    112       9.6019      0.00000
    113       9.7703      0.00000
    114       9.7703      0.00000
    115       9.8553      0.00000
    116       9.8553      0.00000
    117      10.1027      0.00000
    118      10.1027      0.00000
    119      10.2846      0.00000
    120      10.2846      0.00000
    121      10.4751      0.00000
    122      10.4751      0.00000
    123      10.5982      0.00000
    124      10.5982      0.00000
    125      10.9123      0.00000
    126      10.9123      0.00000
    127      11.0181      0.00000
    128      11.0181      0.00000
    129      11.2737      0.00000
    130      11.2737      0.00000
    131      11.3462      0.00000
    132      11.3462      0.00000
    133      11.5083      0.00000
    134      11.5083      0.00000
    135      11.7270      0.00000
    136      11.7270      0.00000
    137      11.8549      0.00000
    138      11.8549      0.00000
    139      12.1751      0.00000
    140      12.1751      0.00000
    141      12.3026      0.00000
    142      12.3026      0.00000
    143      12.5900      0.00000
    144      12.5914      0.00000

 k-point    33 :       0.0000    0.3333    0.1667
  band No.  band energies     occupation 
      1     -20.0571      2.00000
      2     -20.0566      2.00000
      3     -20.0558      2.00000
      4     -20.0556      2.00000
      5     -11.9415      2.00000
      6     -11.9031      2.00000
      7     -11.8455      2.00000
      8     -11.8316      2.00000
      9     -10.8653      2.00000
     10     -10.8552      2.00000
     11     -10.7954      2.00000
     12     -10.7424      2.00000
     13     -10.0907      2.00000
     14     -10.0890      2.00000
     15     -10.0586      2.00000
     16     -10.0414      2.00000
     17      -6.9156      2.00000
     18      -6.9097      2.00000
     19      -6.8952      2.00000
     20      -6.8872      2.00000
     21      -6.8795      2.00000
     22      -6.8768      2.00000
     23      -6.8702      2.00000
     24      -6.8685      2.00000
     25      -6.8515      2.00000
     26      -6.8491      2.00000
     27      -6.8479      2.00000
     28      -6.8326      2.00000
     29      -3.2435      2.00000
     30      -3.2218      2.00000
     31      -3.0549      2.00000
     32      -3.0249      2.00000
     33      -1.7240      2.00000
     34      -1.6312      2.00000
     35      -1.5658      2.00000
     36      -1.5097      2.00000
     37      -1.3283      2.00000
     38      -1.2714      2.00000
     39      -1.2520      2.00000
     40      -1.1578      2.00000
     41      -0.9974      2.00000
     42      -0.8987      2.00000
     43      -0.7296      2.00000
     44      -0.6742      2.00000
     45      -0.5988      2.00000
     46      -0.5964      2.00000
     47      -0.4456      2.00000
     48      -0.3435      2.00000
     49      -0.3134      2.00000
     50      -0.2908      2.00000
     51      -0.2657      2.00000
     52      -0.2012      2.00000
     53      -0.0436      2.00000
     54      -0.0141      2.00000
     55       0.1216      2.00000
     56       0.1367      2.00000
     57       0.1640      2.00000
     58       0.2287      2.00000
     59       0.3482      2.00000
     60       0.3955      2.00000
     61       2.3773      0.00000
     62       2.3961      0.00000
     63       2.4699      0.00000
     64       2.5015      0.00000
     65       5.3274      0.00000
     66       5.5785      0.00000
     67       5.6175      0.00000
     68       5.7683      0.00000
     69       5.8075      0.00000
     70       5.8277      0.00000
     71       6.0034      0.00000
     72       6.1204      0.00000
     73       6.2186      0.00000
     74       6.2864      0.00000
     75       6.2884      0.00000
     76       6.5071      0.00000
     77       6.5173      0.00000
     78       6.6229      0.00000
     79       6.6817      0.00000
     80       6.7424      0.00000
     81       6.8455      0.00000
     82       6.9357      0.00000
     83       7.0001      0.00000
     84       7.0484      0.00000
     85       7.1078      0.00000
     86       7.1507      0.00000
     87       7.3224      0.00000
     88       7.4702      0.00000
     89       7.5166      0.00000
     90       7.5506      0.00000
     91       7.6488      0.00000
     92       7.7402      0.00000
     93       7.8650      0.00000
     94       7.9598      0.00000
     95       7.9868      0.00000
     96       8.0695      0.00000
     97       8.1517      0.00000
     98       8.1773      0.00000
     99       8.2341      0.00000
    100       8.3697      0.00000
    101       8.4984      0.00000
    102       8.5789      0.00000
    103       8.6497      0.00000
    104       8.7546      0.00000
    105       8.8102      0.00000
    106       8.9296      0.00000
    107       8.9492      0.00000
    108       9.0674      0.00000
    109       9.1405      0.00000
    110       9.1678      0.00000
    111       9.3299      0.00000
    112       9.4069      0.00000
    113       9.5693      0.00000
    114       9.6220      0.00000
    115       9.7715      0.00000
    116       9.9434      0.00000
    117      10.0163      0.00000
    118      10.1145      0.00000
    119      10.1316      0.00000
    120      10.3637      0.00000
    121      10.4590      0.00000
    122      10.6234      0.00000
    123      10.6583      0.00000
    124      10.8174      0.00000
    125      10.9285      0.00000
    126      10.9586      0.00000
    127      11.1076      0.00000
    128      11.2479      0.00000
    129      11.2819      0.00000
    130      11.3483      0.00000
    131      11.4048      0.00000
    132      11.4427      0.00000
    133      11.5200      0.00000
    134      11.6726      0.00000
    135      11.7595      0.00000
    136      11.8380      0.00000
    137      12.0486      0.00000
    138      12.0648      0.00000
    139      12.1379      0.00000
    140      12.2252      0.00000
    141      12.3859      0.00000
    142      12.5054      0.00000
    143      12.5327      0.00000
    144      12.5581      0.00000

 k-point    34 :       0.1667    0.3333    0.1667
  band No.  band energies     occupation 
      1     -20.0570      2.00000
      2     -20.0567      2.00000
      3     -20.0557      2.00000
      4     -20.0556      2.00000
      5     -11.9363      2.00000
      6     -11.8989      2.00000
      7     -11.8534      2.00000
      8     -11.8360      2.00000
      9     -10.8600      2.00000
     10     -10.8453      2.00000
     11     -10.7987      2.00000
     12     -10.7480      2.00000
     13     -10.0904      2.00000
     14     -10.0863      2.00000
     15     -10.0623      2.00000
     16     -10.0454      2.00000
     17      -6.9143      2.00000
     18      -6.9076      2.00000
     19      -6.8937      2.00000
     20      -6.8857      2.00000
     21      -6.8819      2.00000
     22      -6.8762      2.00000
     23      -6.8718      2.00000
     24      -6.8670      2.00000
     25      -6.8547      2.00000
     26      -6.8504      2.00000
     27      -6.8451      2.00000
     28      -6.8337      2.00000
     29      -3.2303      2.00000
     30      -3.2089      2.00000
     31      -3.0676      2.00000
     32      -3.0393      2.00000
     33      -1.7260      2.00000
     34      -1.6513      2.00000
     35      -1.5914      2.00000
     36      -1.5293      2.00000
     37      -1.3413      2.00000
     38      -1.2583      2.00000
     39      -1.2083      2.00000
     40      -1.1722      2.00000
     41      -0.9702      2.00000
     42      -0.9014      2.00000
     43      -0.7246      2.00000
     44      -0.6598      2.00000
     45      -0.5941      2.00000
     46      -0.5551      2.00000
     47      -0.4760      2.00000
     48      -0.3340      2.00000
     49      -0.3209      2.00000
     50      -0.2776      2.00000
     51      -0.2615      2.00000
     52      -0.2009      2.00000
     53      -0.0481      2.00000
     54       0.0104      2.00000
     55       0.1190      2.00000
     56       0.1423      2.00000
     57       0.1563      2.00000
     58       0.2229      2.00000
     59       0.3229      2.00000
     60       0.3782      2.00000
     61       2.3728      0.00000
     62       2.3950      0.00000
     63       2.4619      0.00000
     64       2.4906      0.00000
     65       5.3729      0.00000
     66       5.5725      0.00000
     67       5.6425      0.00000
     68       5.7462      0.00000
     69       5.8444      0.00000
     70       5.8823      0.00000
     71       5.9845      0.00000
     72       6.1298      0.00000
     73       6.1909      0.00000
     74       6.2771      0.00000
     75       6.3137      0.00000
     76       6.3995      0.00000
     77       6.5296      0.00000
     78       6.6161      0.00000
     79       6.7210      0.00000
     80       6.7560      0.00000
     81       6.8296      0.00000
     82       6.8562      0.00000
     83       6.9552      0.00000
     84       6.9917      0.00000
     85       7.1278      0.00000
     86       7.1648      0.00000
     87       7.3085      0.00000
     88       7.3508      0.00000
     89       7.4823      0.00000
     90       7.5695      0.00000
     91       7.6515      0.00000
     92       7.7717      0.00000
     93       7.8323      0.00000
     94       7.9034      0.00000
     95       7.9418      0.00000
     96       8.0667      0.00000
     97       8.1155      0.00000
     98       8.2255      0.00000
     99       8.4367      0.00000
    100       8.5250      0.00000
    101       8.5635      0.00000
    102       8.6027      0.00000
    103       8.6277      0.00000
    104       8.6425      0.00000
    105       8.8321      0.00000
    106       8.9638      0.00000
    107       9.0177      0.00000
    108       9.0871      0.00000
    109       9.1599      0.00000
    110       9.1851      0.00000
    111       9.3982      0.00000
    112       9.4601      0.00000
    113       9.5775      0.00000
    114       9.6741      0.00000
    115       9.8017      0.00000
    116       9.8994      0.00000
    117      10.0417      0.00000
    118      10.0718      0.00000
    119      10.2119      0.00000
    120      10.3151      0.00000
    121      10.4904      0.00000
    122      10.6064      0.00000
    123      10.6516      0.00000
    124      10.8020      0.00000
    125      10.9103      0.00000
    126      10.9545      0.00000
    127      11.0953      0.00000
    128      11.1563      0.00000
    129      11.2566      0.00000
    130      11.3254      0.00000
    131      11.4132      0.00000
    132      11.5034      0.00000
    133      11.5556      0.00000
    134      11.6334      0.00000
    135      11.7352      0.00000
    136      11.8332      0.00000
    137      11.9149      0.00000
    138      11.9867      0.00000
    139      12.0476      0.00000
    140      12.2221      0.00000
    141      12.2909      0.00000
    142      12.4645      0.00000
    143      12.5732      0.00000
    144      12.6107      0.00000

 k-point    35 :       0.3333    0.3333    0.1667
  band No.  band energies     occupation 
      1     -20.0570      2.00000
      2     -20.0568      2.00000
      3     -20.0557      2.00000
      4     -20.0557      2.00000
      5     -11.9215      2.00000
      6     -11.8890      2.00000
      7     -11.8707      2.00000
      8     -11.8488      2.00000
      9     -10.8451      2.00000
     10     -10.8223      2.00000
     11     -10.8074      2.00000
     12     -10.7644      2.00000
     13     -10.0875      2.00000
     14     -10.0793      2.00000
     15     -10.0711      2.00000
     16     -10.0557      2.00000
     17      -6.9099      2.00000
     18      -6.9019      2.00000
     19      -6.8943      2.00000
     20      -6.8873      2.00000
     21      -6.8824      2.00000
     22      -6.8757      2.00000
     23      -6.8718      2.00000
     24      -6.8668      2.00000
     25      -6.8563      2.00000
     26      -6.8522      2.00000
     27      -6.8431      2.00000
     28      -6.8367      2.00000
     29      -3.1946      2.00000
     30      -3.1741      2.00000
     31      -3.1014      2.00000
     32      -3.0772      2.00000
     33      -1.7314      2.00000
     34      -1.6910      2.00000
     35      -1.6206      2.00000
     36      -1.5898      2.00000
     37      -1.3135      2.00000
     38      -1.2494      2.00000
     39      -1.1927      2.00000
     40      -1.1633      2.00000
     41      -0.8964      2.00000
     42      -0.8789      2.00000
     43      -0.7709      2.00000
     44      -0.6239      2.00000
     45      -0.5752      2.00000
     46      -0.5433      2.00000
     47      -0.4551      2.00000
     48      -0.3539      2.00000
     49      -0.3050      2.00000
     50      -0.2749      2.00000
     51      -0.2503      2.00000
     52      -0.2120      2.00000
     53      -0.0095      2.00000
     54       0.0562      2.00000
     55       0.1079      2.00000
     56       0.1539      2.00000
     57       0.1606      2.00000
     58       0.2064      2.00000
     59       0.2557      2.00000
     60       0.3250      2.00000
     61       2.3747      0.00000
     62       2.4012      0.00000
     63       2.4348      0.00000
     64       2.4614      0.00000
     65       5.4787      0.00000
     66       5.5880      0.00000
     67       5.6455      0.00000
     68       5.7447      0.00000
     69       5.8905      0.00000
     70       5.9106      0.00000
     71       6.0076      0.00000
     72       6.1239      0.00000
     73       6.2241      0.00000
     74       6.2677      0.00000
     75       6.3298      0.00000
     76       6.3655      0.00000
     77       6.4320      0.00000
     78       6.5364      0.00000
     79       6.6891      0.00000
     80       6.7156      0.00000
     81       6.8367      0.00000
     82       6.8544      0.00000
     83       6.9301      0.00000
     84       6.9472      0.00000
     85       7.0827      0.00000
     86       7.1694      0.00000
     87       7.2116      0.00000
     88       7.2887      0.00000
     89       7.4125      0.00000
     90       7.5440      0.00000
     91       7.6481      0.00000
     92       7.7043      0.00000
     93       7.7720      0.00000
     94       7.8456      0.00000
     95       7.9566      0.00000
     96       8.0280      0.00000
     97       8.1585      0.00000
     98       8.2448      0.00000
     99       8.4041      0.00000
    100       8.5171      0.00000
    101       8.6569      0.00000
    102       8.7341      0.00000
    103       8.7487      0.00000
    104       8.8743      0.00000
    105       8.9419      0.00000
    106       8.9929      0.00000
    107       9.0561      0.00000
    108       9.1506      0.00000
    109       9.3259      0.00000
    110       9.3873      0.00000
    111       9.4551      0.00000
    112       9.5486      0.00000
    113       9.5949      0.00000
    114       9.7825      0.00000
    115       9.8227      0.00000
    116       9.9229      0.00000
    117       9.9873      0.00000
    118      10.0496      0.00000
    119      10.2026      0.00000
    120      10.3017      0.00000
    121      10.4167      0.00000
    122      10.5677      0.00000
    123      10.6746      0.00000
    124      10.7581      0.00000
    125      10.7929      0.00000
    126      10.8549      0.00000
    127      11.0720      0.00000
    128      11.1129      0.00000
    129      11.2056      0.00000
    130      11.3228      0.00000
    131      11.4276      0.00000
    132      11.4729      0.00000
    133      11.5480      0.00000
    134      11.6388      0.00000
    135      11.6745      0.00000
    136      11.7694      0.00000
    137      11.8055      0.00000
    138      11.9064      0.00000
    139      11.9737      0.00000
    140      12.1033      0.00000
    141      12.2175      0.00000
    142      12.2574      0.00000
    143      12.4784      0.00000
    144      12.5752      0.00000

 k-point    36 :       0.5000    0.3333    0.1667
  band No.  band energies     occupation 
      1     -20.0569      2.00000
      2     -20.0569      2.00000
      3     -20.0557      2.00000
      4     -20.0557      2.00000
      5     -11.9005      2.00000
      6     -11.9005      2.00000
      7     -11.8659      2.00000
      8     -11.8659      2.00000
      9     -10.8267      2.00000
     10     -10.8267      2.00000
     11     -10.7896      2.00000
     12     -10.7896      2.00000
     13     -10.0810      2.00000
     14     -10.0810      2.00000
     15     -10.0682      2.00000
     16     -10.0682      2.00000
     17      -6.9025      2.00000
     18      -6.9025      2.00000
     19      -6.8935      2.00000
     20      -6.8935      2.00000
     21      -6.8789      2.00000
     22      -6.8789      2.00000
     23      -6.8684      2.00000
     24      -6.8684      2.00000
     25      -6.8546      2.00000
     26      -6.8546      2.00000
     27      -6.8406      2.00000
     28      -6.8406      2.00000
     29      -3.1475      2.00000
     30      -3.1475      2.00000
     31      -3.1264      2.00000
     32      -3.1264      2.00000
     33      -1.7224      2.00000
     34      -1.7224      2.00000
     35      -1.6256      2.00000
     36      -1.6256      2.00000
     37      -1.2759      2.00000
     38      -1.2759      2.00000
     39      -1.1703      2.00000
     40      -1.1703      2.00000
     41      -0.8387      2.00000
     42      -0.8387      2.00000
     43      -0.7598      2.00000
     44      -0.7598      2.00000
     45      -0.5153      2.00000
     46      -0.5153      2.00000
     47      -0.3979      2.00000
     48      -0.3979      2.00000
     49      -0.3000      2.00000
     50      -0.3000      2.00000
     51      -0.2318      2.00000
     52      -0.2318      2.00000
     53       0.0811      2.00000
     54       0.0811      2.00000
     55       0.1019      2.00000
     56       0.1019      2.00000
     57       0.1921      2.00000
     58       0.1921      2.00000
     59       0.2484      2.00000
     60       0.2484      2.00000
     61       2.3984      0.00000
     62       2.3984      0.00000
     63       2.4259      0.00000
     64       2.4259      0.00000
     65       5.5702      0.00000
     66       5.5702      0.00000
     67       5.6830      0.00000
     68       5.6830      0.00000
     69       5.8923      0.00000
     70       5.8923      0.00000
     71       6.1420      0.00000
     72       6.1420      0.00000
     73       6.2298      0.00000
     74       6.2298      0.00000
     75       6.3403      0.00000
     76       6.3403      0.00000
     77       6.4236      0.00000
     78       6.4236      0.00000
     79       6.6808      0.00000
     80       6.6808      0.00000
     81       6.8394      0.00000
     82       6.8394      0.00000
     83       6.9585      0.00000
     84       6.9585      0.00000
     85       7.1107      0.00000
     86       7.1107      0.00000
     87       7.1981      0.00000
     88       7.1981      0.00000
     89       7.4656      0.00000
     90       7.4656      0.00000
     91       7.6274      0.00000
     92       7.6274      0.00000
     93       7.8251      0.00000
     94       7.8251      0.00000
     95       7.9746      0.00000
     96       7.9746      0.00000
     97       8.1343      0.00000
     98       8.1343      0.00000
     99       8.5322      0.00000
    100       8.5322      0.00000
    101       8.7301      0.00000
    102       8.7301      0.00000
    103       8.8893      0.00000
    104       8.8893      0.00000
    105       8.9295      0.00000
    106       8.9295      0.00000
    107       9.2982      0.00000
    108       9.2982      0.00000
    109       9.3798      0.00000
    110       9.3798      0.00000
    111       9.5391      0.00000
    112       9.5391      0.00000
    113       9.7442      0.00000
    114       9.7442      0.00000
    115       9.9060      0.00000
    116       9.9060      0.00000
    117      10.0333      0.00000
    118      10.0333      0.00000
    119      10.2063      0.00000
    120      10.2063      0.00000
    121      10.4043      0.00000
    122      10.4043      0.00000
    123      10.6472      0.00000
    124      10.6472      0.00000
    125      10.9058      0.00000
    126      10.9058      0.00000
    127      10.9794      0.00000
    128      10.9794      0.00000
    129      11.3224      0.00000
    130      11.3224      0.00000
    131      11.3909      0.00000
    132      11.3909      0.00000
    133      11.5364      0.00000
    134      11.5364      0.00000
    135      11.6416      0.00000
    136      11.6416      0.00000
    137      11.7879      0.00000
    138      11.7879      0.00000
    139      12.0462      0.00000
    140      12.0462      0.00000
    141      12.2574      0.00000
    142      12.2574      0.00000
    143      12.4853      0.00000
    144      12.4853      0.00000

 k-point    37 :       0.0000    0.4444    0.1667
  band No.  band energies     occupation 
      1     -20.0566      2.00000
      2     -20.0563      2.00000
      3     -20.0561      2.00000
      4     -20.0560      2.00000
      5     -11.9294      2.00000
      6     -11.9159      2.00000
      7     -11.8422      2.00000
      8     -11.8372      2.00000
      9     -10.8635      2.00000
     10     -10.8600      2.00000
     11     -10.7794      2.00000
     12     -10.7609      2.00000
     13     -10.0898      2.00000
     14     -10.0892      2.00000
     15     -10.0533      2.00000
     16     -10.0472      2.00000
     17      -6.9129      2.00000
     18      -6.9097      2.00000
     19      -6.8919      2.00000
     20      -6.8892      2.00000
     21      -6.8769      2.00000
     22      -6.8732      2.00000
     23      -6.8664      2.00000
     24      -6.8651      2.00000
     25      -6.8500      2.00000
     26      -6.8477      2.00000
     27      -6.8379      2.00000
     28      -6.8331      2.00000
     29      -3.2309      2.00000
     30      -3.2237      2.00000
     31      -3.0474      2.00000
     32      -3.0370      2.00000
     33      -1.7157      2.00000
     34      -1.6862      2.00000
     35      -1.5535      2.00000
     36      -1.5225      2.00000
     37      -1.3479      2.00000
     38      -1.3352      2.00000
     39      -1.2064      2.00000
     40      -1.1654      2.00000
     41      -0.9887      2.00000
     42      -0.9442      2.00000
     43      -0.6890      2.00000
     44      -0.6587      2.00000
     45      -0.5912      2.00000
     46      -0.5632      2.00000
     47      -0.4553      2.00000
     48      -0.3901      2.00000
     49      -0.3181      2.00000
     50      -0.2907      2.00000
     51      -0.2392      2.00000
     52      -0.2050      2.00000
     53      -0.0376      2.00000
     54      -0.0288      2.00000
     55       0.1381      2.00000
     56       0.1429      2.00000
     57       0.1828      2.00000
     58       0.2079      2.00000
     59       0.3722      2.00000
     60       0.3899      2.00000
     61       2.3861      0.00000
     62       2.3932      0.00000
     63       2.4836      0.00000
     64       2.4947      0.00000
     65       5.5885      0.00000
     66       5.6055      0.00000
     67       5.6285      0.00000
     68       5.7443      0.00000
     69       5.7779      0.00000
     70       5.9166      0.00000
     71       5.9558      0.00000
     72       5.9892      0.00000
     73       6.2243      0.00000
     74       6.2715      0.00000
     75       6.3703      0.00000
     76       6.5069      0.00000
     77       6.6085      0.00000
     78       6.6205      0.00000
     79       6.6906      0.00000
     80       6.7147      0.00000
     81       6.8574      0.00000
     82       6.9252      0.00000
     83       6.9957      0.00000
     84       7.0519      0.00000
     85       7.0651      0.00000
     86       7.1270      0.00000
     87       7.2580      0.00000
     88       7.3561      0.00000
     89       7.4731      0.00000
     90       7.5537      0.00000
     91       7.6363      0.00000
     92       7.7331      0.00000
     93       7.8653      0.00000
     94       7.8802      0.00000
     95       7.8969      0.00000
     96       8.0364      0.00000
     97       8.1617      0.00000
     98       8.2195      0.00000
     99       8.2308      0.00000
    100       8.2798      0.00000
    101       8.3634      0.00000
    102       8.5918      0.00000
    103       8.6294      0.00000
    104       8.7249      0.00000
    105       8.7550      0.00000
    106       8.9433      0.00000
    107       8.9628      0.00000
    108       9.0367      0.00000
    109       9.0911      0.00000
    110       9.2186      0.00000
    111       9.3510      0.00000
    112       9.3518      0.00000
    113       9.6214      0.00000
    114       9.6813      0.00000
    115       9.7463      0.00000
    116       9.9463      0.00000
    117       9.9879      0.00000
    118      10.1962      0.00000
    119      10.2908      0.00000
    120      10.3019      0.00000
    121      10.3266      0.00000
    122      10.6481      0.00000
    123      10.6869      0.00000
    124      10.8026      0.00000
    125      11.0026      0.00000
    126      11.0112      0.00000
    127      11.1082      0.00000
    128      11.1834      0.00000
    129      11.2206      0.00000
    130      11.3159      0.00000
    131      11.4167      0.00000
    132      11.5539      0.00000
    133      11.6476      0.00000
    134      11.8304      0.00000
    135      11.8394      0.00000
    136      11.9062      0.00000
    137      11.9938      0.00000
    138      12.0047      0.00000
    139      12.0825      0.00000
    140      12.1469      0.00000
    141      12.1512      0.00000
    142      12.3290      0.00000
    143      12.6201      0.00000
    144      12.6948      0.00000

 k-point    38 :       0.1667    0.4444    0.1667
  band No.  band energies     occupation 
      1     -20.0565      2.00000
      2     -20.0563      2.00000
      3     -20.0560      2.00000
      4     -20.0560      2.00000
      5     -11.9244      2.00000
      6     -11.9111      2.00000
      7     -11.8491      2.00000
      8     -11.8429      2.00000
      9     -10.8565      2.00000
     10     -10.8514      2.00000
     11     -10.7835      2.00000
     12     -10.7658      2.00000
     13     -10.0887      2.00000
     14     -10.0873      2.00000
     15     -10.0570      2.00000
     16     -10.0511      2.00000
     17      -6.9115      2.00000
     18      -6.9080      2.00000
     19      -6.8896      2.00000
     20      -6.8863      2.00000
     21      -6.8783      2.00000
     22      -6.8758      2.00000
     23      -6.8689      2.00000
     24      -6.8656      2.00000
     25      -6.8496      2.00000
     26      -6.8458      2.00000
     27      -6.8387      2.00000
     28      -6.8342      2.00000
     29      -3.2182      2.00000
     30      -3.2111      2.00000
     31      -3.0600      2.00000
     32      -3.0502      2.00000
     33      -1.7173      2.00000
     34      -1.6928      2.00000
     35      -1.5945      2.00000
     36      -1.5640      2.00000
     37      -1.3272      2.00000
     38      -1.2855      2.00000
     39      -1.2140      2.00000
     40      -1.1806      2.00000
     41      -0.9637      2.00000
     42      -0.9314      2.00000
     43      -0.6676      2.00000
     44      -0.6351      2.00000
     45      -0.6046      2.00000
     46      -0.5813      2.00000
     47      -0.4440      2.00000
     48      -0.3716      2.00000
     49      -0.3123      2.00000
     50      -0.2920      2.00000
     51      -0.2362      2.00000
     52      -0.2068      2.00000
     53      -0.0329      2.00000
     54      -0.0152      2.00000
     55       0.1397      2.00000
     56       0.1457      2.00000
     57       0.1739      2.00000
     58       0.2002      2.00000
     59       0.3489      2.00000
     60       0.3693      2.00000
     61       2.3844      0.00000
     62       2.3927      0.00000
     63       2.4747      0.00000
     64       2.4846      0.00000
     65       5.5904      0.00000
     66       5.6389      0.00000
     67       5.6725      0.00000
     68       5.7715      0.00000
     69       5.8098      0.00000
     70       5.9129      0.00000
     71       5.9441      0.00000
     72       6.0071      0.00000
     73       6.2323      0.00000
     74       6.2802      0.00000
     75       6.3777      0.00000
     76       6.4640      0.00000
     77       6.5909      0.00000
     78       6.6103      0.00000
     79       6.6534      0.00000
     80       6.6890      0.00000
     81       6.7877      0.00000
     82       6.8624      0.00000
     83       6.9571      0.00000
     84       6.9970      0.00000
     85       7.1025      0.00000
     86       7.1242      0.00000
     87       7.2772      0.00000
     88       7.3406      0.00000
     89       7.3777      0.00000
     90       7.4381      0.00000
     91       7.5923      0.00000
     92       7.7084      0.00000
     93       7.7936      0.00000
     94       7.8497      0.00000
     95       8.0076      0.00000
     96       8.1022      0.00000
     97       8.1714      0.00000
     98       8.2431      0.00000
     99       8.3629      0.00000
    100       8.4443      0.00000
    101       8.4991      0.00000
    102       8.5773      0.00000
    103       8.6680      0.00000
    104       8.7182      0.00000
    105       8.8004      0.00000
    106       8.9199      0.00000
    107       8.9878      0.00000
    108       9.0493      0.00000
    109       9.1486      0.00000
    110       9.2337      0.00000
    111       9.3683      0.00000
    112       9.4261      0.00000
    113       9.6068      0.00000
    114       9.6917      0.00000
    115       9.7510      0.00000
    116       9.9697      0.00000
    117      10.0230      0.00000
    118      10.1990      0.00000
    119      10.2864      0.00000
    120      10.3225      0.00000
    121      10.3727      0.00000
    122      10.5867      0.00000
    123      10.5989      0.00000
    124      10.7793      0.00000
    125      10.8450      0.00000
    126      11.0160      0.00000
    127      11.1174      0.00000
    128      11.1776      0.00000
    129      11.2525      0.00000
    130      11.3181      0.00000
    131      11.3615      0.00000
    132      11.5066      0.00000
    133      11.5939      0.00000
    134      11.7014      0.00000
    135      11.8553      0.00000
    136      11.8889      0.00000
    137      11.9670      0.00000
    138      12.0293      0.00000
    139      12.0770      0.00000
    140      12.1984      0.00000
    141      12.2388      0.00000
    142      12.3619      0.00000
    143      12.4579      0.00000
    144      12.5415      0.00000

 k-point    39 :       0.3333    0.4444    0.1667
  band No.  band energies     occupation 
      1     -20.0565      2.00000
      2     -20.0564      2.00000
      3     -20.0560      2.00000
      4     -20.0560      2.00000
      5     -11.9102      2.00000
      6     -11.8979      2.00000
      7     -11.8668      2.00000
      8     -11.8582      2.00000
      9     -10.8382      2.00000
     10     -10.8297      2.00000
     11     -10.7960      2.00000
     12     -10.7804      2.00000
     13     -10.0846      2.00000
     14     -10.0817      2.00000
     15     -10.0663      2.00000
     16     -10.0609      2.00000
     17      -6.9065      2.00000
     18      -6.9026      2.00000
     19      -6.8895      2.00000
     20      -6.8846      2.00000
     21      -6.8800      2.00000
     22      -6.8780      2.00000
     23      -6.8708      2.00000
     24      -6.8678      2.00000
     25      -6.8476      2.00000
     26      -6.8437      2.00000
     27      -6.8409      2.00000
     28      -6.8370      2.00000
     29      -3.1840      2.00000
     30      -3.1771      2.00000
     31      -3.0935      2.00000
     32      -3.0852      2.00000
     33      -1.7212      2.00000
     34      -1.7070      2.00000
     35      -1.6495      2.00000
     36      -1.6370      2.00000
     37      -1.2795      2.00000
     38      -1.2453      2.00000
     39      -1.2108      2.00000
     40      -1.1936      2.00000
     41      -0.9002      2.00000
     42      -0.8948      2.00000
     43      -0.7293      2.00000
     44      -0.6795      2.00000
     45      -0.5452      2.00000
     46      -0.5286      2.00000
     47      -0.4065      2.00000
     48      -0.3583      2.00000
     49      -0.3096      2.00000
     50      -0.2991      2.00000
     51      -0.2439      2.00000
     52      -0.2230      2.00000
     53       0.0129      2.00000
     54       0.0345      2.00000
     55       0.1359      2.00000
     56       0.1508      2.00000
     57       0.1668      2.00000
     58       0.1868      2.00000
     59       0.2831      2.00000
     60       0.3084      2.00000
     61       2.3900      0.00000
     62       2.3997      0.00000
     63       2.4482      0.00000
     64       2.4572      0.00000
     65       5.6183      0.00000
     66       5.7119      0.00000
     67       5.7679      0.00000
     68       5.7816      0.00000
     69       5.8660      0.00000
     70       5.9102      0.00000
     71       5.9756      0.00000
     72       5.9983      0.00000
     73       6.2451      0.00000
     74       6.2994      0.00000
     75       6.3810      0.00000
     76       6.4335      0.00000
     77       6.5105      0.00000
     78       6.5765      0.00000
     79       6.6048      0.00000
     80       6.6217      0.00000
     81       6.7691      0.00000
     82       6.8162      0.00000
     83       6.8795      0.00000
     84       6.9074      0.00000
     85       7.0425      0.00000
     86       7.0825      0.00000
     87       7.1335      0.00000
     88       7.2220      0.00000
     89       7.4083      0.00000
     90       7.4414      0.00000
     91       7.5253      0.00000
     92       7.6272      0.00000
     93       7.7935      0.00000
     94       7.8619      0.00000
     95       8.0236      0.00000
     96       8.1012      0.00000
     97       8.1491      0.00000
     98       8.2733      0.00000
     99       8.3147      0.00000
    100       8.4421      0.00000
    101       8.7533      0.00000
    102       8.7659      0.00000
    103       8.8378      0.00000
    104       8.9408      0.00000
    105       8.9820      0.00000
    106       8.9986      0.00000
    107       9.0972      0.00000
    108       9.1601      0.00000
    109       9.2037      0.00000
    110       9.2952      0.00000
    111       9.4854      0.00000
    112       9.5361      0.00000
    113       9.6283      0.00000
    114       9.7346      0.00000
    115       9.7695      0.00000
    116       9.9476      0.00000
    117      10.0179      0.00000
    118      10.1060      0.00000
    119      10.2267      0.00000
    120      10.2743      0.00000
    121      10.3756      0.00000
    122      10.4605      0.00000
    123      10.5067      0.00000
    124      10.6333      0.00000
    125      10.7524      0.00000
    126      10.8129      0.00000
    127      11.0542      0.00000
    128      11.1513      0.00000
    129      11.2583      0.00000
    130      11.3647      0.00000
    131      11.4218      0.00000
    132      11.4857      0.00000
    133      11.5151      0.00000
    134      11.6762      0.00000
    135      11.7415      0.00000
    136      11.8152      0.00000
    137      11.9104      0.00000
    138      11.9608      0.00000
    139      12.1315      0.00000
    140      12.1785      0.00000
    141      12.2573      0.00000
    142      12.2844      0.00000
    143      12.4955      0.00000
    144      12.5663      0.00000

 k-point    40 :       0.5000    0.4444    0.1667
  band No.  band energies     occupation 
      1     -20.0564      2.00000
      2     -20.0564      2.00000
      3     -20.0560      2.00000
      4     -20.0560      2.00000
      5     -11.8900      2.00000
      6     -11.8900      2.00000
      7     -11.8780      2.00000
      8     -11.8780      2.00000
      9     -10.8159      2.00000
     10     -10.8159      2.00000
     11     -10.8030      2.00000
     12     -10.8030      2.00000
     13     -10.0768      2.00000
     14     -10.0768      2.00000
     15     -10.0723      2.00000
     16     -10.0723      2.00000
     17      -6.8983      2.00000
     18      -6.8983      2.00000
     19      -6.8939      2.00000
     20      -6.8939      2.00000
     21      -6.8752      2.00000
     22      -6.8752      2.00000
     23      -6.8710      2.00000
     24      -6.8710      2.00000
     25      -6.8449      2.00000
     26      -6.8449      2.00000
     27      -6.8403      2.00000
     28      -6.8403      2.00000
     29      -3.1385      2.00000
     30      -3.1385      2.00000
     31      -3.1313      2.00000
     32      -3.1313      2.00000
     33      -1.7144      2.00000
     34      -1.7144      2.00000
     35      -1.6761      2.00000
     36      -1.6761      2.00000
     37      -1.2426      2.00000
     38      -1.2426      2.00000
     39      -1.2042      2.00000
     40      -1.2042      2.00000
     41      -0.8221      2.00000
     42      -0.8221      2.00000
     43      -0.7984      2.00000
     44      -0.7984      2.00000
     45      -0.4545      2.00000
     46      -0.4545      2.00000
     47      -0.4161      2.00000
     48      -0.4161      2.00000
     49      -0.2852      2.00000
     50      -0.2852      2.00000
     51      -0.2601      2.00000
     52      -0.2601      2.00000
     53       0.0959      2.00000
     54       0.0959      2.00000
     55       0.1052      2.00000
     56       0.1052      2.00000
     57       0.2060      2.00000
     58       0.2060      2.00000
     59       0.2278      2.00000
     60       0.2278      2.00000
     61       2.4139      0.00000
     62       2.4139      0.00000
     63       2.4236      0.00000
     64       2.4236      0.00000
     65       5.6830      0.00000
     66       5.6830      0.00000
     67       5.8025      0.00000
     68       5.8025      0.00000
     69       5.9090      0.00000
     70       5.9090      0.00000
     71       5.9947      0.00000
     72       5.9947      0.00000
     73       6.2683      0.00000
     74       6.2683      0.00000
     75       6.4309      0.00000
     76       6.4309      0.00000
     77       6.4998      0.00000
     78       6.4998      0.00000
     79       6.5738      0.00000
     80       6.5738      0.00000
     81       6.8071      0.00000
     82       6.8071      0.00000
     83       6.8477      0.00000
     84       6.8477      0.00000
     85       7.0302      0.00000
     86       7.0302      0.00000
     87       7.1116      0.00000
     88       7.1116      0.00000
     89       7.4568      0.00000
     90       7.4568      0.00000
     91       7.5300      0.00000
     92       7.5300      0.00000
     93       7.8630      0.00000
     94       7.8630      0.00000
     95       7.9544      0.00000
     96       7.9544      0.00000
     97       8.2209      0.00000
     98       8.2209      0.00000
     99       8.3956      0.00000
    100       8.3956      0.00000
    101       8.8489      0.00000
    102       8.8489      0.00000
    103       8.9675      0.00000
    104       8.9675      0.00000
    105       9.0625      0.00000
    106       9.0625      0.00000
    107       9.2322      0.00000
    108       9.2322      0.00000
    109       9.4059      0.00000
    110       9.4059      0.00000
    111       9.5228      0.00000
    112       9.5228      0.00000
    113       9.6964      0.00000
    114       9.6964      0.00000
    115       9.8771      0.00000
    116       9.8771      0.00000
    117      10.0424      0.00000
    118      10.0424      0.00000
    119      10.1457      0.00000
    120      10.1457      0.00000
    121      10.3709      0.00000
    122      10.3709      0.00000
    123      10.4468      0.00000
    124      10.4468      0.00000
    125      10.8217      0.00000
    126      10.8217      0.00000
    127      10.9593      0.00000
    128      10.9593      0.00000
    129      11.3427      0.00000
    130      11.3427      0.00000
    131      11.4754      0.00000
    132      11.4754      0.00000
    133      11.5873      0.00000
    134      11.5873      0.00000
    135      11.7402      0.00000
    136      11.7402      0.00000
    137      11.8540      0.00000
    138      11.8540      0.00000
    139      12.1010      0.00000
    140      12.1010      0.00000
    141      12.2684      0.00000
    142      12.2684      0.00000
    143      12.5215      0.00000
    144      12.5217      0.00000

 k-point    41 :       0.0000    0.0000    0.3333
  band No.  band energies     occupation 
      1     -20.0578      2.00000
      2     -20.0574      2.00000
      3     -20.0554      2.00000
      4     -20.0551      2.00000
      5     -11.9471      2.00000
      6     -11.9078      2.00000
      7     -11.8353      2.00000
      8     -11.8241      2.00000
      9     -10.8641      2.00000
     10     -10.8500      2.00000
     11     -10.7883      2.00000
     12     -10.7296      2.00000
     13     -10.0932      2.00000
     14     -10.0909      2.00000
     15     -10.0616      2.00000
     16     -10.0409      2.00000
     17      -6.9302      2.00000
     18      -6.9226      2.00000
     19      -6.9063      2.00000
     20      -6.8961      2.00000
     21      -6.8961      2.00000
     22      -6.8901      2.00000
     23      -6.8706      2.00000
     24      -6.8698      2.00000
     25      -6.8654      2.00000
     26      -6.8544      2.00000
     27      -6.8440      2.00000
     28      -6.8364      2.00000
     29      -3.2652      2.00000
     30      -3.2358      2.00000
     31      -3.0471      2.00000
     32      -3.0129      2.00000
     33      -1.6523      2.00000
     34      -1.5650      2.00000
     35      -1.5287      2.00000
     36      -1.5196      2.00000
     37      -1.3601      2.00000
     38      -1.3498      2.00000
     39      -1.1831      2.00000
     40      -1.1048      2.00000
     41      -0.9013      2.00000
     42      -0.8990      2.00000
     43      -0.7467      2.00000
     44      -0.7038      2.00000
     45      -0.5814      2.00000
     46      -0.5475      2.00000
     47      -0.4696      2.00000
     48      -0.3445      2.00000
     49      -0.3380      2.00000
     50      -0.2958      2.00000
     51      -0.2530      2.00000
     52      -0.2047      2.00000
     53       0.0120      2.00000
     54       0.0227      2.00000
     55       0.0427      2.00000
     56       0.0666      2.00000
     57       0.2271      2.00000
     58       0.2712      2.00000
     59       0.3045      2.00000
     60       0.3426      2.00000
     61       2.3327      0.00000
     62       2.3337      0.00000
     63       2.4306      0.00000
     64       2.4623      0.00000
     65       4.8924      0.00000
     66       5.4755      0.00000
     67       5.7130      0.00000
     68       5.7528      0.00000
     69       5.8187      0.00000
     70       5.8342      0.00000
     71       5.9966      0.00000
     72       6.1032      0.00000
     73       6.2670      0.00000
     74       6.2745      0.00000
     75       6.3685      0.00000
     76       6.4745      0.00000
     77       6.4891      0.00000
     78       6.5813      0.00000
     79       6.7988      0.00000
     80       6.8889      0.00000
     81       6.9147      0.00000
     82       6.9969      0.00000
     83       7.0345      0.00000
     84       7.1079      0.00000
     85       7.1500      0.00000
     86       7.2712      0.00000
     87       7.3934      0.00000
     88       7.4226      0.00000
     89       7.5186      0.00000
     90       7.5262      0.00000
     91       7.6371      0.00000
     92       7.7680      0.00000
     93       7.7882      0.00000
     94       7.8763      0.00000
     95       7.9409      0.00000
     96       8.0013      0.00000
     97       8.0678      0.00000
     98       8.1950      0.00000
     99       8.4432      0.00000
    100       8.5053      0.00000
    101       8.5592      0.00000
    102       8.5690      0.00000
    103       8.6435      0.00000
    104       8.7892      0.00000
    105       8.9750      0.00000
    106       9.0228      0.00000
    107       9.0874      0.00000
    108       9.1126      0.00000
    109       9.1404      0.00000
    110       9.1423      0.00000
    111       9.4411      0.00000
    112       9.4645      0.00000
    113       9.5953      0.00000
    114       9.6435      0.00000
    115       9.7591      0.00000
    116       9.7712      0.00000
    117      10.0879      0.00000
    118      10.2656      0.00000
    119      10.3136      0.00000
    120      10.3659      0.00000
    121      10.3777      0.00000
    122      10.4890      0.00000
    123      10.8536      0.00000
    124      10.9016      0.00000
    125      11.0146      0.00000
    126      11.0205      0.00000
    127      11.1554      0.00000
    128      11.1559      0.00000
    129      11.2958      0.00000
    130      11.4122      0.00000
    131      11.6408      0.00000
    132      11.6964      0.00000
    133      11.8386      0.00000
    134      11.8656      0.00000
    135      11.8817      0.00000
    136      11.9097      0.00000
    137      11.9561      0.00000
    138      12.0814      0.00000
    139      12.2129      0.00000
    140      12.2731      0.00000
    141      12.3657      0.00000
    142      12.4601      0.00000
    143      12.4750      0.00000
    144      12.5745      0.00000

 k-point    42 :       0.1667    0.0000    0.3333
  band No.  band energies     occupation 
      1     -20.0577      2.00000
      2     -20.0574      2.00000
      3     -20.0554      2.00000
      4     -20.0552      2.00000
      5     -11.9424      2.00000
      6     -11.9058      2.00000
      7     -11.8413      2.00000
      8     -11.8275      2.00000
      9     -10.8588      2.00000
     10     -10.8419      2.00000
     11     -10.7901      2.00000
     12     -10.7350      2.00000
     13     -10.0928      2.00000
     14     -10.0886      2.00000
     15     -10.0649      2.00000
     16     -10.0450      2.00000
     17      -6.9296      2.00000
     18      -6.9230      2.00000
     19      -6.9064      2.00000
     20      -6.8958      2.00000
     21      -6.8956      2.00000
     22      -6.8906      2.00000
     23      -6.8763      2.00000
     24      -6.8667      2.00000
     25      -6.8626      2.00000
     26      -6.8561      2.00000
     27      -6.8422      2.00000
     28      -6.8352      2.00000
     29      -3.2513      2.00000
     30      -3.2228      2.00000
     31      -3.0637      2.00000
     32      -3.0309      2.00000
     33      -1.6451      2.00000
     34      -1.5770      2.00000
     35      -1.5374      2.00000
     36      -1.5318      2.00000
     37      -1.4004      2.00000
     38      -1.3091      2.00000
     39      -1.1862      2.00000
     40      -1.1142      2.00000
     41      -0.8829      2.00000
     42      -0.8785      2.00000
     43      -0.7278      2.00000
     44      -0.6791      2.00000
     45      -0.5587      2.00000
     46      -0.5440      2.00000
     47      -0.4442      2.00000
     48      -0.3607      2.00000
     49      -0.3315      2.00000
     50      -0.3032      2.00000
     51      -0.2589      2.00000
     52      -0.2164      2.00000
     53      -0.0320      2.00000
     54       0.0267      2.00000
     55       0.0702      2.00000
     56       0.0843      2.00000
     57       0.2050      2.00000
     58       0.2609      2.00000
     59       0.2756      2.00000
     60       0.3249      2.00000
     61       2.3362      0.00000
     62       2.3485      0.00000
     63       2.4345      0.00000
     64       2.4740      0.00000
     65       4.9333      0.00000
     66       5.4934      0.00000
     67       5.6993      0.00000
     68       5.7382      0.00000
     69       5.7772      0.00000
     70       5.8357      0.00000
     71       5.9866      0.00000
     72       6.0805      0.00000
     73       6.2618      0.00000
     74       6.2844      0.00000
     75       6.4228      0.00000
     76       6.4638      0.00000
     77       6.4798      0.00000
     78       6.6071      0.00000
     79       6.7373      0.00000
     80       6.8245      0.00000
     81       6.8353      0.00000
     82       6.9817      0.00000
     83       6.9902      0.00000
     84       7.1417      0.00000
     85       7.1640      0.00000
     86       7.2894      0.00000
     87       7.3352      0.00000
     88       7.3370      0.00000
     89       7.4419      0.00000
     90       7.5419      0.00000
     91       7.5659      0.00000
     92       7.7956      0.00000
     93       7.8392      0.00000
     94       7.9615      0.00000
     95       8.0173      0.00000
     96       8.0221      0.00000
     97       8.1295      0.00000
     98       8.1407      0.00000
     99       8.4433      0.00000
    100       8.4535      0.00000
    101       8.5210      0.00000
    102       8.6450      0.00000
    103       8.7129      0.00000
    104       8.8757      0.00000
    105       8.8944      0.00000
    106       8.9998      0.00000
    107       9.0484      0.00000
    108       9.2234      0.00000
    109       9.2570      0.00000
    110       9.3251      0.00000
    111       9.4614      0.00000
    112       9.5302      0.00000
    113       9.6394      0.00000
    114       9.7140      0.00000
    115       9.7723      0.00000
    116       9.8772      0.00000
    117      10.1057      0.00000
    118      10.1345      0.00000
    119      10.3496      0.00000
    120      10.4145      0.00000
    121      10.4502      0.00000
    122      10.4740      0.00000
    123      10.7929      0.00000
    124      10.8525      0.00000
    125      10.9044      0.00000
    126      11.0108      0.00000
    127      11.0513      0.00000
    128      11.2244      0.00000
    129      11.2944      0.00000
    130      11.3222      0.00000
    131      11.5456      0.00000
    132      11.6352      0.00000
    133      11.7625      0.00000
    134      11.7848      0.00000
    135      11.7985      0.00000
    136      11.9120      0.00000
    137      12.0060      0.00000
    138      12.1343      0.00000
    139      12.2181      0.00000
    140      12.2432      0.00000
    141      12.3471      0.00000
    142      12.3579      0.00000
    143      12.3755      0.00000
    144      12.6649      0.00000

 k-point    43 :       0.3333    0.0000    0.3333
  band No.  band energies     occupation 
      1     -20.0577      2.00000
      2     -20.0575      2.00000
      3     -20.0553      2.00000
      4     -20.0552      2.00000
      5     -11.9295      2.00000
      6     -11.9041      2.00000
      7     -11.8510      2.00000
      8     -11.8376      2.00000
      9     -10.8450      2.00000
     10     -10.8271      2.00000
     11     -10.7903      2.00000
     12     -10.7507      2.00000
     13     -10.0904      2.00000
     14     -10.0832      2.00000
     15     -10.0716      2.00000
     16     -10.0554      2.00000
     17      -6.9280      2.00000
     18      -6.9242      2.00000
     19      -6.9049      2.00000
     20      -6.8972      2.00000
     21      -6.8949      2.00000
     22      -6.8919      2.00000
     23      -6.8783      2.00000
     24      -6.8712      2.00000
     25      -6.8584      2.00000
     26      -6.8538      2.00000
     27      -6.8395      2.00000
     28      -6.8340      2.00000
     29      -3.2130      2.00000
     30      -3.1868      2.00000
     31      -3.1062      2.00000
     32      -3.0773      2.00000
     33      -1.6243      2.00000
     34      -1.6013      2.00000
     35      -1.5726      2.00000
     36      -1.5617      2.00000
     37      -1.3894      2.00000
     38      -1.3078      2.00000
     39      -1.1846      2.00000
     40      -1.1393      2.00000
     41      -0.8314      2.00000
     42      -0.8206      2.00000
     43      -0.6818      2.00000
     44      -0.6252      2.00000
     45      -0.5871      2.00000
     46      -0.4785      2.00000
     47      -0.3867      2.00000
     48      -0.3837      2.00000
     49      -0.3654      2.00000
     50      -0.3112      2.00000
     51      -0.2873      2.00000
     52      -0.2530      2.00000
     53      -0.0361      2.00000
     54       0.0492      2.00000
     55       0.1088      2.00000
     56       0.1241      2.00000
     57       0.1548      2.00000
     58       0.1951      2.00000
     59       0.2278      2.00000
     60       0.2718      2.00000
     61       2.3622      0.00000
     62       2.3903      0.00000
     63       2.4310      0.00000
     64       2.4777      0.00000
     65       5.0544      0.00000
     66       5.4544      0.00000
     67       5.5733      0.00000
     68       5.7141      0.00000
     69       5.8340      0.00000
     70       5.8702      0.00000
     71       6.0030      0.00000
     72       6.0827      0.00000
     73       6.1347      0.00000
     74       6.3404      0.00000
     75       6.4067      0.00000
     76       6.4970      0.00000
     77       6.5595      0.00000
     78       6.6404      0.00000
     79       6.6970      0.00000
     80       6.7214      0.00000
     81       6.7629      0.00000
     82       6.8083      0.00000
     83       6.8962      0.00000
     84       6.9974      0.00000
     85       7.0978      0.00000
     86       7.1898      0.00000
     87       7.2993      0.00000
     88       7.4179      0.00000
     89       7.4293      0.00000
     90       7.5340      0.00000
     91       7.5803      0.00000
     92       7.7788      0.00000
     93       7.8417      0.00000
     94       7.8833      0.00000
     95       8.0281      0.00000
     96       8.1479      0.00000
     97       8.2345      0.00000
     98       8.3486      0.00000
     99       8.3887      0.00000
    100       8.4363      0.00000
    101       8.5312      0.00000
    102       8.7123      0.00000
    103       8.8743      0.00000
    104       8.8960      0.00000
    105       8.9933      0.00000
    106       8.9973      0.00000
    107       9.2021      0.00000
    108       9.3652      0.00000
    109       9.3713      0.00000
    110       9.4507      0.00000
    111       9.5412      0.00000
    112       9.6478      0.00000
    113       9.6750      0.00000
    114       9.8164      0.00000
    115       9.9086      0.00000
    116       9.9106      0.00000
    117      10.1299      0.00000
    118      10.1330      0.00000
    119      10.3104      0.00000
    120      10.4367      0.00000
    121      10.4753      0.00000
    122      10.5258      0.00000
    123      10.6482      0.00000
    124      10.6553      0.00000
    125      10.8551      0.00000
    126      10.9806      0.00000
    127      11.0409      0.00000
    128      11.1470      0.00000
    129      11.1811      0.00000
    130      11.2650      0.00000
    131      11.5259      0.00000
    132      11.5279      0.00000
    133      11.6069      0.00000
    134      11.6975      0.00000
    135      11.7893      0.00000
    136      11.8288      0.00000
    137      11.8700      0.00000
    138      11.9435      0.00000
    139      12.1739      0.00000
    140      12.2711      0.00000
    141      12.4568      0.00000
    142      12.4781      0.00000
    143      12.5226      0.00000
    144      12.5957      0.00000

 k-point    44 :       0.5000    0.0000    0.3333
  band No.  band energies     occupation 
      1     -20.0576      2.00000
      2     -20.0576      2.00000
      3     -20.0553      2.00000
      4     -20.0553      2.00000
      5     -11.9133      2.00000
      6     -11.9133      2.00000
      7     -11.8491      2.00000
      8     -11.8491      2.00000
      9     -10.8300      2.00000
     10     -10.8300      2.00000
     11     -10.7734      2.00000
     12     -10.7734      2.00000
     13     -10.0852      2.00000
     14     -10.0852      2.00000
     15     -10.0675      2.00000
     16     -10.0675      2.00000
     17      -6.9260      2.00000
     18      -6.9260      2.00000
     19      -6.9013      2.00000
     20      -6.9013      2.00000
     21      -6.8935      2.00000
     22      -6.8935      2.00000
     23      -6.8762      2.00000
     24      -6.8762      2.00000
     25      -6.8545      2.00000
     26      -6.8545      2.00000
     27      -6.8358      2.00000
     28      -6.8358      2.00000
     29      -3.1604      2.00000
     30      -3.1604      2.00000
     31      -3.1348      2.00000
     32      -3.1348      2.00000
     33      -1.6043      2.00000
     34      -1.6043      2.00000
     35      -1.5940      2.00000
     36      -1.5940      2.00000
     37      -1.3457      2.00000
     38      -1.3457      2.00000
     39      -1.1674      2.00000
     40      -1.1674      2.00000
     41      -0.7897      2.00000
     42      -0.7897      2.00000
     43      -0.6299      2.00000
     44      -0.6299      2.00000
     45      -0.5382      2.00000
     46      -0.5382      2.00000
     47      -0.3754      2.00000
     48      -0.3754      2.00000
     49      -0.3263      2.00000
     50      -0.3263      2.00000
     51      -0.3129      2.00000
     52      -0.3129      2.00000
     53       0.0600      2.00000
     54       0.0600      2.00000
     55       0.0939      2.00000
     56       0.0939      2.00000
     57       0.1789      2.00000
     58       0.1789      2.00000
     59       0.1954      2.00000
     60       0.1954      2.00000
     61       2.4026      0.00000
     62       2.4026      0.00000
     63       2.4449      0.00000
     64       2.4449      0.00000
     65       5.2408      0.00000
     66       5.2408      0.00000
     67       5.6391      0.00000
     68       5.6391      0.00000
     69       5.8776      0.00000
     70       5.8776      0.00000
     71       6.0446      0.00000
     72       6.0446      0.00000
     73       6.2036      0.00000
     74       6.2036      0.00000
     75       6.5488      0.00000
     76       6.5488      0.00000
     77       6.5587      0.00000
     78       6.5587      0.00000
     79       6.6504      0.00000
     80       6.6504      0.00000
     81       6.7926      0.00000
     82       6.7926      0.00000
     83       6.8364      0.00000
     84       6.8364      0.00000
     85       7.1169      0.00000
     86       7.1169      0.00000
     87       7.3351      0.00000
     88       7.3351      0.00000
     89       7.4820      0.00000
     90       7.4820      0.00000
     91       7.7283      0.00000
     92       7.7283      0.00000
     93       7.7860      0.00000
     94       7.7860      0.00000
     95       8.1103      0.00000
     96       8.1103      0.00000
     97       8.3806      0.00000
     98       8.3806      0.00000
     99       8.4556      0.00000
    100       8.4556      0.00000
    101       8.6449      0.00000
    102       8.6449      0.00000
    103       8.9265      0.00000
    104       8.9265      0.00000
    105       9.0318      0.00000
    106       9.0318      0.00000
    107       9.3304      0.00000
    108       9.3304      0.00000
    109       9.4746      0.00000
    110       9.4746      0.00000
    111       9.5731      0.00000
    112       9.5731      0.00000
    113       9.8150      0.00000
    114       9.8150      0.00000
    115       9.9621      0.00000
    116       9.9621      0.00000
    117      10.1831      0.00000
    118      10.1831      0.00000
    119      10.2594      0.00000
    120      10.2594      0.00000
    121      10.5780      0.00000
    122      10.5780      0.00000
    123      10.6838      0.00000
    124      10.6838      0.00000
    125      10.7444      0.00000
    126      10.7444      0.00000
    127      11.0920      0.00000
    128      11.0920      0.00000
    129      11.2290      0.00000
    130      11.2290      0.00000
    131      11.3919      0.00000
    132      11.3919      0.00000
    133      11.6401      0.00000
    134      11.6401      0.00000
    135      11.7249      0.00000
    136      11.7249      0.00000
    137      12.0198      0.00000
    138      12.0198      0.00000
    139      12.2983      0.00000
    140      12.2983      0.00000
    141      12.3726      0.00000
    142      12.3726      0.00000
    143      12.5179      0.00000
    144      12.5179      0.00000

 k-point    45 :       0.0000    0.1111    0.3333
  band No.  band energies     occupation 
      1     -20.0577      2.00000
      2     -20.0573      2.00000
      3     -20.0554      2.00000
      4     -20.0552      2.00000
      5     -11.9457      2.00000
      6     -11.9081      2.00000
      7     -11.8366      2.00000
      8     -11.8255      2.00000
      9     -10.8639      2.00000
     10     -10.8509      2.00000
     11     -10.7877      2.00000
     12     -10.7322      2.00000
     13     -10.0928      2.00000
     14     -10.0904      2.00000
     15     -10.0615      2.00000
     16     -10.0419      2.00000
     17      -6.9252      2.00000
     18      -6.9171      2.00000
     19      -6.9074      2.00000
     20      -6.8988      2.00000
     21      -6.8886      2.00000
     22      -6.8842      2.00000
     23      -6.8715      2.00000
     24      -6.8700      2.00000
     25      -6.8664      2.00000
     26      -6.8551      2.00000
     27      -6.8450      2.00000
     28      -6.8372      2.00000
     29      -3.2615      2.00000
     30      -3.2342      2.00000
     31      -3.0468      2.00000
     32      -3.0147      2.00000
     33      -1.6857      2.00000
     34      -1.5751      2.00000
     35      -1.5435      2.00000
     36      -1.5137      2.00000
     37      -1.3473      2.00000
     38      -1.3354      2.00000
     39      -1.2012      2.00000
     40      -1.1069      2.00000
     41      -0.9133      2.00000
     42      -0.8891      2.00000
     43      -0.7322      2.00000
     44      -0.7000      2.00000
     45      -0.5891      2.00000
     46      -0.5365      2.00000
     47      -0.4574      2.00000
     48      -0.3451      2.00000
     49      -0.3344      2.00000
     50      -0.3028      2.00000
     51      -0.2699      2.00000
     52      -0.2158      2.00000
     53       0.0087      2.00000
     54       0.0308      2.00000
     55       0.0491      2.00000
     56       0.0818      2.00000
     57       0.2209      2.00000
     58       0.2612      2.00000
     59       0.3079      2.00000
     60       0.3459      2.00000
     61       2.3367      0.00000
     62       2.3404      0.00000
     63       2.4346      0.00000
     64       2.4650      0.00000
     65       4.9735      0.00000
     66       5.5142      0.00000
     67       5.6936      0.00000
     68       5.7494      0.00000
     69       5.7833      0.00000
     70       5.8398      0.00000
     71       6.0558      0.00000
     72       6.1856      0.00000
     73       6.1994      0.00000
     74       6.2377      0.00000
     75       6.3405      0.00000
     76       6.3478      0.00000
     77       6.5501      0.00000
     78       6.6716      0.00000
     79       6.8391      0.00000
     80       6.8413      0.00000
     81       6.8916      0.00000
     82       6.9239      0.00000
     83       6.9791      0.00000
     84       7.1049      0.00000
     85       7.1933      0.00000
     86       7.2673      0.00000
     87       7.3625      0.00000
     88       7.3965      0.00000
     89       7.4835      0.00000
     90       7.5841      0.00000
     91       7.5925      0.00000
     92       7.7157      0.00000
     93       7.8390      0.00000
     94       7.9593      0.00000
     95       8.0149      0.00000
     96       8.0396      0.00000
     97       8.0563      0.00000
     98       8.2802      0.00000
     99       8.4098      0.00000
    100       8.4129      0.00000
    101       8.5536      0.00000
    102       8.5605      0.00000
    103       8.7018      0.00000
    104       8.7329      0.00000
    105       8.8929      0.00000
    106       8.8991      0.00000
    107       9.0635      0.00000
    108       9.0879      0.00000
    109       9.1258      0.00000
    110       9.2535      0.00000
    111       9.3592      0.00000
    112       9.4800      0.00000
    113       9.5746      0.00000
    114       9.6200      0.00000
    115       9.7635      0.00000
    116       9.8067      0.00000
    117      10.0764      0.00000
    118      10.2445      0.00000
    119      10.2907      0.00000
    120      10.3015      0.00000
    121      10.5183      0.00000
    122      10.5914      0.00000
    123      10.7323      0.00000
    124      10.8177      0.00000
    125      10.8233      0.00000
    126      11.0313      0.00000
    127      11.1539      0.00000
    128      11.2754      0.00000
    129      11.3463      0.00000
    130      11.3684      0.00000
    131      11.4767      0.00000
    132      11.5517      0.00000
    133      11.7931      0.00000
    134      11.8023      0.00000
    135      11.8788      0.00000
    136      12.0208      0.00000
    137      12.0667      0.00000
    138      12.0881      0.00000
    139      12.1550      0.00000
    140      12.2509      0.00000
    141      12.4129      0.00000
    142      12.4221      0.00000
    143      12.5913      0.00000
    144      12.6277      0.00000

 k-point    46 :       0.1667    0.1111    0.3333
  band No.  band energies     occupation 
      1     -20.0577      2.00000
      2     -20.0573      2.00000
      3     -20.0554      2.00000
      4     -20.0552      2.00000
      5     -11.9409      2.00000
      6     -11.9058      2.00000
      7     -11.8427      2.00000
      8     -11.8291      2.00000
      9     -10.8585      2.00000
     10     -10.8426      2.00000
     11     -10.7898      2.00000
     12     -10.7376      2.00000
     13     -10.0923      2.00000
     14     -10.0882      2.00000
     15     -10.0648      2.00000
     16     -10.0459      2.00000
     17      -6.9245      2.00000
     18      -6.9174      2.00000
     19      -6.9080      2.00000
     20      -6.8984      2.00000
     21      -6.8881      2.00000
     22      -6.8845      2.00000
     23      -6.8771      2.00000
     24      -6.8676      2.00000
     25      -6.8630      2.00000
     26      -6.8569      2.00000
     27      -6.8431      2.00000
     28      -6.8360      2.00000
     29      -3.2478      2.00000
     30      -3.2215      2.00000
     31      -3.0633      2.00000
     32      -3.0326      2.00000
     33      -1.6735      2.00000
     34      -1.5857      2.00000
     35      -1.5678      2.00000
     36      -1.5172      2.00000
     37      -1.3754      2.00000
     38      -1.3020      2.00000
     39      -1.2049      2.00000
     40      -1.1192      2.00000
     41      -0.8879      2.00000
     42      -0.8699      2.00000
     43      -0.7237      2.00000
     44      -0.6698      2.00000
     45      -0.5700      2.00000
     46      -0.5418      2.00000
     47      -0.4327      2.00000
     48      -0.3534      2.00000
     49      -0.3291      2.00000
     50      -0.3148      2.00000
     51      -0.2698      2.00000
     52      -0.2238      2.00000
     53      -0.0342      2.00000
     54       0.0396      2.00000
     55       0.0661      2.00000
     56       0.1005      2.00000
     57       0.2021      2.00000
     58       0.2515      2.00000
     59       0.2801      2.00000
     60       0.3282      2.00000
     61       2.3407      0.00000
     62       2.3548      0.00000
     63       2.4382      0.00000
     64       2.4748      0.00000
     65       5.0125      0.00000
     66       5.5271      0.00000
     67       5.6830      0.00000
     68       5.7209      0.00000
     69       5.7933      0.00000
     70       5.8183      0.00000
     71       6.0271      0.00000
     72       6.1419      0.00000
     73       6.2156      0.00000
     74       6.2632      0.00000
     75       6.3639      0.00000
     76       6.3848      0.00000
     77       6.5201      0.00000
     78       6.6616      0.00000
     79       6.7527      0.00000
     80       6.8345      0.00000
     81       6.8633      0.00000
     82       6.9083      0.00000
     83       6.9776      0.00000
     84       7.1165      0.00000
     85       7.1844      0.00000
     86       7.2237      0.00000
     87       7.2895      0.00000
     88       7.3138      0.00000
     89       7.4962      0.00000
     90       7.5370      0.00000
     91       7.6158      0.00000
     92       7.7533      0.00000
     93       7.8312      0.00000
     94       7.9377      0.00000
     95       7.9919      0.00000
     96       8.1101      0.00000
     97       8.1654      0.00000
     98       8.2399      0.00000
     99       8.3771      0.00000
    100       8.4625      0.00000
    101       8.5500      0.00000
    102       8.6127      0.00000
    103       8.6852      0.00000
    104       8.7662      0.00000
    105       8.7760      0.00000
    106       8.9915      0.00000
    107       9.0953      0.00000
    108       9.1824      0.00000
    109       9.2770      0.00000
    110       9.3494      0.00000
    111       9.4199      0.00000
    112       9.5378      0.00000
    113       9.6118      0.00000
    114       9.6938      0.00000
    115       9.7705      0.00000
    116       9.8572      0.00000
    117      10.0279      0.00000
    118      10.2373      0.00000
    119      10.2841      0.00000
    120      10.4064      0.00000
    121      10.4958      0.00000
    122      10.5618      0.00000
    123      10.7597      0.00000
    124      10.7984      0.00000
    125      10.8295      0.00000
    126      10.9808      0.00000
    127      11.1966      0.00000
    128      11.2017      0.00000
    129      11.3070      0.00000
    130      11.4008      0.00000
    131      11.4566      0.00000
    132      11.5463      0.00000
    133      11.7011      0.00000
    134      11.7580      0.00000
    135      11.7866      0.00000
    136      11.8420      0.00000
    137      11.9678      0.00000
    138      12.0705      0.00000
    139      12.2137      0.00000
    140      12.2439      0.00000
    141      12.3453      0.00000
    142      12.4118      0.00000
    143      12.5295      0.00000
    144      12.6518      0.00000

 k-point    47 :       0.3333    0.1111    0.3333
  band No.  band energies     occupation 
      1     -20.0576      2.00000
      2     -20.0574      2.00000
      3     -20.0554      2.00000
      4     -20.0553      2.00000
      5     -11.9280      2.00000
      6     -11.9032      2.00000
      7     -11.8530      2.00000
      8     -11.8396      2.00000
      9     -10.8445      2.00000
     10     -10.8268      2.00000
     11     -10.7915      2.00000
     12     -10.7532      2.00000
     13     -10.0899      2.00000
     14     -10.0829      2.00000
     15     -10.0717      2.00000
     16     -10.0561      2.00000
     17      -6.9227      2.00000
     18      -6.9183      2.00000
     19      -6.9074      2.00000
     20      -6.9001      2.00000
     21      -6.8872      2.00000
     22      -6.8852      2.00000
     23      -6.8794      2.00000
     24      -6.8722      2.00000
     25      -6.8586      2.00000
     26      -6.8545      2.00000
     27      -6.8403      2.00000
     28      -6.8348      2.00000
     29      -3.2104      2.00000
     30      -3.1861      2.00000
     31      -3.1054      2.00000
     32      -3.0784      2.00000
     33      -1.6445      2.00000
     34      -1.6101      2.00000
     35      -1.6015      2.00000
     36      -1.5496      2.00000
     37      -1.3670      2.00000
     38      -1.2993      2.00000
     39      -1.1995      2.00000
     40      -1.1464      2.00000
     41      -0.8308      2.00000
     42      -0.8163      2.00000
     43      -0.6960      2.00000
     44      -0.6121      2.00000
     45      -0.5887      2.00000
     46      -0.4847      2.00000
     47      -0.4188      2.00000
     48      -0.3864      2.00000
     49      -0.3360      2.00000
     50      -0.3119      2.00000
     51      -0.2876      2.00000
     52      -0.2489      2.00000
     53      -0.0351      2.00000
     54       0.0539      2.00000
     55       0.0962      2.00000
     56       0.1396      2.00000
     57       0.1597      2.00000
     58       0.1918      2.00000
     59       0.2316      2.00000
     60       0.2775      2.00000
     61       2.3665      0.00000
     62       2.3946      0.00000
     63       2.4341      0.00000
     64       2.4771      0.00000
     65       5.1273      0.00000
     66       5.4996      0.00000
     67       5.5847      0.00000
     68       5.6666      0.00000
     69       5.8333      0.00000
     70       5.8706      0.00000
     71       6.0279      0.00000
     72       6.1249      0.00000
     73       6.1679      0.00000
     74       6.2687      0.00000
     75       6.3791      0.00000
     76       6.4706      0.00000
     77       6.5401      0.00000
     78       6.6136      0.00000
     79       6.6283      0.00000
     80       6.7701      0.00000
     81       6.7995      0.00000
     82       6.8691      0.00000
     83       6.9435      0.00000
     84       7.0334      0.00000
     85       7.1118      0.00000
     86       7.1491      0.00000
     87       7.2583      0.00000
     88       7.3509      0.00000
     89       7.4139      0.00000
     90       7.4775      0.00000
     91       7.5814      0.00000
     92       7.7152      0.00000
     93       7.8506      0.00000
     94       7.9429      0.00000
     95       8.0198      0.00000
     96       8.1781      0.00000
     97       8.2817      0.00000
     98       8.2964      0.00000
     99       8.3711      0.00000
    100       8.4355      0.00000
    101       8.5790      0.00000
    102       8.6620      0.00000
    103       8.7551      0.00000
    104       8.8057      0.00000
    105       8.9385      0.00000
    106       9.0586      0.00000
    107       9.2598      0.00000
    108       9.2884      0.00000
    109       9.3851      0.00000
    110       9.3936      0.00000
    111       9.5869      0.00000
    112       9.6394      0.00000
    113       9.6960      0.00000
    114       9.7819      0.00000
    115       9.8427      0.00000
    116       9.9080      0.00000
    117      10.0455      0.00000
    118      10.1892      0.00000
    119      10.3743      0.00000
    120      10.4382      0.00000
    121      10.5059      0.00000
    122      10.5609      0.00000
    123      10.6704      0.00000
    124      10.7604      0.00000
    125      10.8597      0.00000
    126      11.0069      0.00000
    127      11.1146      0.00000
    128      11.1425      0.00000
    129      11.1772      0.00000
    130      11.2876      0.00000
    131      11.4104      0.00000
    132      11.4633      0.00000
    133      11.6262      0.00000
    134      11.6362      0.00000
    135      11.7028      0.00000
    136      11.8003      0.00000
    137      11.9553      0.00000
    138      12.0493      0.00000
    139      12.1563      0.00000
    140      12.2495      0.00000
    141      12.3119      0.00000
    142      12.3629      0.00000
    143      12.5021      0.00000
    144      12.6292      0.00000

 k-point    48 :       0.5000    0.1111    0.3333
  band No.  band energies     occupation 
      1     -20.0575      2.00000
      2     -20.0575      2.00000
      3     -20.0553      2.00000
      4     -20.0553      2.00000
      5     -11.9117      2.00000
      6     -11.9117      2.00000
      7     -11.8515      2.00000
      8     -11.8515      2.00000
      9     -10.8290      2.00000
     10     -10.8290      2.00000
     11     -10.7759      2.00000
     12     -10.7759      2.00000
     13     -10.0846      2.00000
     14     -10.0846      2.00000
     15     -10.0680      2.00000
     16     -10.0680      2.00000
     17      -6.9203      2.00000
     18      -6.9203      2.00000
     19      -6.9041      2.00000
     20      -6.9041      2.00000
     21      -6.8862      2.00000
     22      -6.8862      2.00000
     23      -6.8773      2.00000
     24      -6.8773      2.00000
     25      -6.8548      2.00000
     26      -6.8548      2.00000
     27      -6.8366      2.00000
     28      -6.8366      2.00000
     29      -3.1588      2.00000
     30      -3.1588      2.00000
     31      -3.1349      2.00000
     32      -3.1349      2.00000
     33      -1.6271      2.00000
     34      -1.6271      2.00000
     35      -1.5918      2.00000
     36      -1.5918      2.00000
     37      -1.3321      2.00000
     38      -1.3321      2.00000
     39      -1.1763      2.00000
     40      -1.1763      2.00000
     41      -0.7909      2.00000
     42      -0.7909      2.00000
     43      -0.6373      2.00000
     44      -0.6373      2.00000
     45      -0.5358      2.00000
     46      -0.5358      2.00000
     47      -0.3943      2.00000
     48      -0.3943      2.00000
     49      -0.3357      2.00000
     50      -0.3357      2.00000
     51      -0.2836      2.00000
     52      -0.2836      2.00000
     53       0.0610      2.00000
     54       0.0610      2.00000
     55       0.0938      2.00000
     56       0.0938      2.00000
     57       0.1655      2.00000
     58       0.1655      2.00000
     59       0.2182      2.00000
     60       0.2182      2.00000
     61       2.4061      0.00000
     62       2.4061      0.00000
     63       2.4459      0.00000
     64       2.4459      0.00000
     65       5.3027      0.00000
     66       5.3027      0.00000
     67       5.6209      0.00000
     68       5.6209      0.00000
     69       5.8787      0.00000
     70       5.8787      0.00000
     71       6.0671      0.00000
     72       6.0671      0.00000
     73       6.2138      0.00000
     74       6.2138      0.00000
     75       6.4557      0.00000
     76       6.4557      0.00000
     77       6.5577      0.00000
     78       6.5577      0.00000
     79       6.6511      0.00000
     80       6.6511      0.00000
     81       6.7949      0.00000
     82       6.7949      0.00000
     83       6.9769      0.00000
     84       6.9769      0.00000
     85       7.1053      0.00000
     86       7.1053      0.00000
     87       7.3021      0.00000
     88       7.3021      0.00000
     89       7.3768      0.00000
     90       7.3768      0.00000
     91       7.6751      0.00000
     92       7.6751      0.00000
     93       7.8652      0.00000
     94       7.8652      0.00000
     95       8.1194      0.00000
     96       8.1194      0.00000
     97       8.2582      0.00000
     98       8.2582      0.00000
     99       8.5614      0.00000
    100       8.5614      0.00000
    101       8.6106      0.00000
    102       8.6106      0.00000
    103       8.8297      0.00000
    104       8.8297      0.00000
    105       9.0816      0.00000
    106       9.0816      0.00000
    107       9.2134      0.00000
    108       9.2134      0.00000
    109       9.4808      0.00000
    110       9.4808      0.00000
    111       9.6084      0.00000
    112       9.6084      0.00000
    113       9.8255      0.00000
    114       9.8255      0.00000
    115       9.9306      0.00000
    116       9.9306      0.00000
    117      10.1868      0.00000
    118      10.1868      0.00000
    119      10.3102      0.00000
    120      10.3102      0.00000
    121      10.5680      0.00000
    122      10.5680      0.00000
    123      10.7314      0.00000
    124      10.7314      0.00000
    125      10.8738      0.00000
    126      10.8738      0.00000
    127      11.0836      0.00000
    128      11.0836      0.00000
    129      11.1700      0.00000
    130      11.1700      0.00000
    131      11.4421      0.00000
    132      11.4421      0.00000
    133      11.4769      0.00000
    134      11.4769      0.00000
    135      11.8153      0.00000
    136      11.8153      0.00000
    137      12.0961      0.00000
    138      12.0961      0.00000
    139      12.2490      0.00000
    140      12.2490      0.00000
    141      12.3336      0.00000
    142      12.3337      0.00000
    143      12.4589      0.00000
    144      12.4761      0.00000

 k-point    49 :       0.0000    0.2222    0.3333
  band No.  band energies     occupation 
      1     -20.0574      2.00000
      2     -20.0571      2.00000
      3     -20.0555      2.00000
      4     -20.0554      2.00000
      5     -11.9414      2.00000
      6     -11.9095      2.00000
      7     -11.8395      2.00000
      8     -11.8293      2.00000
      9     -10.8636      2.00000
     10     -10.8534      2.00000
     11     -10.7854      2.00000
     12     -10.7396      2.00000
     13     -10.0917      2.00000
     14     -10.0892      2.00000
     15     -10.0611      2.00000
     16     -10.0447      2.00000
     17      -6.9138      2.00000
     18      -6.9105      2.00000
     19      -6.9002      2.00000
     20      -6.8978      2.00000
     21      -6.8786      2.00000
     22      -6.8757      2.00000
     23      -6.8727      2.00000
     24      -6.8709      2.00000
     25      -6.8645      2.00000
     26      -6.8560      2.00000
     27      -6.8476      2.00000
     28      -6.8385      2.00000
     29      -3.2516      2.00000
     30      -3.2303      2.00000
     31      -3.0458      2.00000
     32      -3.0198      2.00000
     33      -1.7356      2.00000
     34      -1.6486      2.00000
     35      -1.5292      2.00000
     36      -1.5238      2.00000
     37      -1.3457      2.00000
     38      -1.2939      2.00000
     39      -1.2202      2.00000
     40      -1.1181      2.00000
     41      -0.9307      2.00000
     42      -0.8748      2.00000
     43      -0.7323      2.00000
     44      -0.6880      2.00000
     45      -0.5677      2.00000
     46      -0.5227      2.00000
     47      -0.4334      2.00000
     48      -0.3485      2.00000
     49      -0.3270      2.00000
     50      -0.3174      2.00000
     51      -0.3064      2.00000
     52      -0.2376      2.00000
     53      -0.0001      2.00000
     54       0.0075      2.00000
     55       0.1034      2.00000
     56       0.1172      2.00000
     57       0.2041      2.00000
     58       0.2395      2.00000
     59       0.3180      2.00000
     60       0.3539      2.00000
     61       2.3467      0.00000
     62       2.3551      0.00000
     63       2.4448      0.00000
     64       2.4710      0.00000
     65       5.1968      0.00000
     66       5.6123      0.00000
     67       5.6605      0.00000
     68       5.6837      0.00000
     69       5.8407      0.00000
     70       5.8503      0.00000
     71       6.0925      0.00000
     72       6.1321      0.00000
     73       6.2196      0.00000
     74       6.2764      0.00000
     75       6.2817      0.00000
     76       6.4393      0.00000
     77       6.5064      0.00000
     78       6.6344      0.00000
     79       6.7379      0.00000
     80       6.7522      0.00000
     81       6.8602      0.00000
     82       6.8859      0.00000
     83       7.0227      0.00000
     84       7.1085      0.00000
     85       7.1369      0.00000
     86       7.2022      0.00000
     87       7.2740      0.00000
     88       7.3852      0.00000
     89       7.3977      0.00000
     90       7.4793      0.00000
     91       7.7001      0.00000
     92       7.7903      0.00000
     93       7.8759      0.00000
     94       7.9375      0.00000
     95       8.0698      0.00000
     96       8.0787      0.00000
     97       8.1911      0.00000
     98       8.2224      0.00000
     99       8.3571      0.00000
    100       8.4251      0.00000
    101       8.5818      0.00000
    102       8.5897      0.00000
    103       8.6258      0.00000
    104       8.6498      0.00000
    105       8.8137      0.00000
    106       8.8666      0.00000
    107       8.9206      0.00000
    108       8.9696      0.00000
    109       9.1426      0.00000
    110       9.2861      0.00000
    111       9.3291      0.00000
    112       9.4496      0.00000
    113       9.5515      0.00000
    114       9.6353      0.00000
    115       9.8824      0.00000
    116       9.9069      0.00000
    117       9.9864      0.00000
    118      10.1711      0.00000
    119      10.2172      0.00000
    120      10.2467      0.00000
    121      10.4212      0.00000
    122      10.5387      0.00000
    123      10.7164      0.00000
    124      10.7985      0.00000
    125      10.9837      0.00000
    126      10.9888      0.00000
    127      11.0465      0.00000
    128      11.1639      0.00000
    129      11.2959      0.00000
    130      11.3786      0.00000
    131      11.5062      0.00000
    132      11.6139      0.00000
    133      11.7599      0.00000
    134      11.7749      0.00000
    135      11.8754      0.00000
    136      11.9346      0.00000
    137      12.0301      0.00000
    138      12.0546      0.00000
    139      12.2167      0.00000
    140      12.2444      0.00000
    141      12.4307      0.00000
    142      12.4661      0.00000
    143      12.6478      0.00000
    144      12.6613      0.00000

 k-point    50 :       0.1667    0.2222    0.3333
  band No.  band energies     occupation 
      1     -20.0574      2.00000
      2     -20.0571      2.00000
      3     -20.0555      2.00000
      4     -20.0554      2.00000
      5     -11.9366      2.00000
      6     -11.9064      2.00000
      7     -11.8460      2.00000
      8     -11.8334      2.00000
      9     -10.8578      2.00000
     10     -10.8447      2.00000
     11     -10.7883      2.00000
     12     -10.7449      2.00000
     13     -10.0910      2.00000
     14     -10.0874      2.00000
     15     -10.0644      2.00000
     16     -10.0485      2.00000
     17      -6.9128      2.00000
     18      -6.9108      2.00000
     19      -6.9013      2.00000
     20      -6.8975      2.00000
     21      -6.8805      2.00000
     22      -6.8767      2.00000
     23      -6.8734      2.00000
     24      -6.8696      2.00000
     25      -6.8618      2.00000
     26      -6.8580      2.00000
     27      -6.8451      2.00000
     28      -6.8375      2.00000
     29      -3.2388      2.00000
     30      -3.2181      2.00000
     31      -3.0619      2.00000
     32      -3.0372      2.00000
     33      -1.7195      2.00000
     34      -1.6513      2.00000
     35      -1.5683      2.00000
     36      -1.5220      2.00000
     37      -1.3463      2.00000
     38      -1.2808      2.00000
     39      -1.2257      2.00000
     40      -1.1334      2.00000
     41      -0.9015      2.00000
     42      -0.8591      2.00000
     43      -0.7180      2.00000
     44      -0.6644      2.00000
     45      -0.5726      2.00000
     46      -0.5242      2.00000
     47      -0.4187      2.00000
     48      -0.3575      2.00000
     49      -0.3436      2.00000
     50      -0.3119      2.00000
     51      -0.2896      2.00000
     52      -0.2333      2.00000
     53      -0.0384      2.00000
     54       0.0252      2.00000
     55       0.1049      2.00000
     56       0.1331      2.00000
     57       0.1933      2.00000
     58       0.2323      2.00000
     59       0.2912      2.00000
     60       0.3355      2.00000
     61       2.3520      0.00000
     62       2.3682      0.00000
     63       2.4476      0.00000
     64       2.4766      0.00000
     65       5.2304      0.00000
     66       5.6075      0.00000
     67       5.6497      0.00000
     68       5.6999      0.00000
     69       5.8278      0.00000
     70       5.8776      0.00000
     71       5.9898      0.00000
     72       6.1747      0.00000
     73       6.2180      0.00000
     74       6.2825      0.00000
     75       6.3302      0.00000
     76       6.4312      0.00000
     77       6.4848      0.00000
     78       6.6362      0.00000
     79       6.6746      0.00000
     80       6.7847      0.00000
     81       6.8215      0.00000
     82       6.9062      0.00000
     83       6.9634      0.00000
     84       7.0344      0.00000
     85       7.0992      0.00000
     86       7.2043      0.00000
     87       7.2752      0.00000
     88       7.3421      0.00000
     89       7.4310      0.00000
     90       7.4572      0.00000
     91       7.6313      0.00000
     92       7.7631      0.00000
     93       7.8815      0.00000
     94       7.8875      0.00000
     95       8.0174      0.00000
     96       8.1398      0.00000
     97       8.1968      0.00000
     98       8.2389      0.00000
     99       8.4416      0.00000
    100       8.4816      0.00000
    101       8.5596      0.00000
    102       8.5797      0.00000
    103       8.6369      0.00000
    104       8.6541      0.00000
    105       8.7373      0.00000
    106       8.8571      0.00000
    107       9.0646      0.00000
    108       9.1079      0.00000
    109       9.1927      0.00000
    110       9.3328      0.00000
    111       9.4361      0.00000
    112       9.5320      0.00000
    113       9.5411      0.00000
    114       9.7608      0.00000
    115       9.8928      0.00000
    116       9.9346      0.00000
    117      10.0368      0.00000
    118      10.0513      0.00000
    119      10.3153      0.00000
    120      10.3455      0.00000
    121      10.4279      0.00000
    122      10.5629      0.00000
    123      10.7547      0.00000
    124      10.7842      0.00000
    125      10.9216      0.00000
    126      10.9951      0.00000
    127      11.0939      0.00000
    128      11.2210      0.00000
    129      11.2667      0.00000
    130      11.3309      0.00000
    131      11.5245      0.00000
    132      11.5550      0.00000
    133      11.6647      0.00000
    134      11.7124      0.00000
    135      11.7806      0.00000
    136      11.8168      0.00000
    137      11.9467      0.00000
    138      12.1059      0.00000
    139      12.1372      0.00000
    140      12.2539      0.00000
    141      12.2902      0.00000
    142      12.4867      0.00000
    143      12.5739      0.00000
    144      12.6704      0.00000

 k-point    51 :       0.3333    0.2222    0.3333
  band No.  band energies     occupation 
      1     -20.0573      2.00000
      2     -20.0571      2.00000
      3     -20.0555      2.00000
      4     -20.0554      2.00000
      5     -11.9235      2.00000
      6     -11.9009      2.00000
      7     -11.8583      2.00000
      8     -11.8450      2.00000
      9     -10.8426      2.00000
     10     -10.8260      2.00000
     11     -10.7941      2.00000
     12     -10.7604      2.00000
     13     -10.0884      2.00000
     14     -10.0822      2.00000
     15     -10.0716      2.00000
     16     -10.0583      2.00000
     17      -6.9111      2.00000
     18      -6.9089      2.00000
     19      -6.9043      2.00000
     20      -6.8993      2.00000
     21      -6.8820      2.00000
     22      -6.8784      2.00000
     23      -6.8737      2.00000
     24      -6.8713      2.00000
     25      -6.8582      2.00000
     26      -6.8555      2.00000
     27      -6.8419      2.00000
     28      -6.8367      2.00000
     29      -3.2034      2.00000
     30      -3.1844      2.00000
     31      -3.1029      2.00000
     32      -3.0814      2.00000
     33      -1.6838      2.00000
     34      -1.6571      2.00000
     35      -1.6086      2.00000
     36      -1.5614      2.00000
     37      -1.3302      2.00000
     38      -1.2746      2.00000
     39      -1.2270      2.00000
     40      -1.1644      2.00000
     41      -0.8367      2.00000
     42      -0.8084      2.00000
     43      -0.7139      2.00000
     44      -0.6093      2.00000
     45      -0.5840      2.00000
     46      -0.5005      2.00000
     47      -0.4543      2.00000
     48      -0.3800      2.00000
     49      -0.3374      2.00000
     50      -0.2939      2.00000
     51      -0.2820      2.00000
     52      -0.2411      2.00000
     53      -0.0313      2.00000
     54       0.0434      2.00000
     55       0.1060      2.00000
     56       0.1664      2.00000
     57       0.1695      2.00000
     58       0.1901      2.00000
     59       0.2380      2.00000
     60       0.2876      2.00000
     61       2.3774      0.00000
     62       2.4033      0.00000
     63       2.4424      0.00000
     64       2.4753      0.00000
     65       5.3282      0.00000
     66       5.5990      0.00000
     67       5.6247      0.00000
     68       5.6422      0.00000
     69       5.8367      0.00000
     70       5.9023      0.00000
     71       5.9916      0.00000
     72       6.1646      0.00000
     73       6.2434      0.00000
     74       6.2555      0.00000
     75       6.3425      0.00000
     76       6.4411      0.00000
     77       6.5057      0.00000
     78       6.5581      0.00000
     79       6.6682      0.00000
     80       6.7121      0.00000
     81       6.7954      0.00000
     82       6.8088      0.00000
     83       6.9611      0.00000
     84       7.0295      0.00000
     85       7.0516      0.00000
     86       7.2050      0.00000
     87       7.2353      0.00000
     88       7.2643      0.00000
     89       7.3121      0.00000
     90       7.4450      0.00000
     91       7.5139      0.00000
     92       7.6936      0.00000
     93       7.8333      0.00000
     94       7.8792      0.00000
     95       8.0729      0.00000
     96       8.1184      0.00000
     97       8.2497      0.00000
     98       8.2677      0.00000
     99       8.4133      0.00000
    100       8.4756      0.00000
    101       8.5765      0.00000
    102       8.6230      0.00000
    103       8.6646      0.00000
    104       8.7921      0.00000
    105       8.9162      0.00000
    106       9.0609      0.00000
    107       9.1356      0.00000
    108       9.2290      0.00000
    109       9.2581      0.00000
    110       9.3832      0.00000
    111       9.5236      0.00000
    112       9.6675      0.00000
    113       9.7355      0.00000
    114       9.8401      0.00000
    115       9.9211      0.00000
    116       9.9281      0.00000
    117      10.1039      0.00000
    118      10.1355      0.00000
    119      10.2850      0.00000
    120      10.5132      0.00000
    121      10.5507      0.00000
    122      10.6107      0.00000
    123      10.6990      0.00000
    124      10.8183      0.00000
    125      10.8861      0.00000
    126      11.0088      0.00000
    127      11.0917      0.00000
    128      11.1365      0.00000
    129      11.2367      0.00000
    130      11.2746      0.00000
    131      11.4310      0.00000
    132      11.4976      0.00000
    133      11.6065      0.00000
    134      11.6153      0.00000
    135      11.7630      0.00000
    136      11.7719      0.00000
    137      11.8122      0.00000
    138      11.9618      0.00000
    139      12.0816      0.00000
    140      12.1644      0.00000
    141      12.2079      0.00000
    142      12.3348      0.00000
    143      12.4760      0.00000
    144      12.6552      0.00000

 k-point    52 :       0.5000    0.2222    0.3333
  band No.  band energies     occupation 
      1     -20.0572      2.00000
      2     -20.0572      2.00000
      3     -20.0555      2.00000
      4     -20.0555      2.00000
      5     -11.9071      2.00000
      6     -11.9071      2.00000
      7     -11.8581      2.00000
      8     -11.8581      2.00000
      9     -10.8258      2.00000
     10     -10.8258      2.00000
     11     -10.7826      2.00000
     12     -10.7826      2.00000
     13     -10.0831      2.00000
     14     -10.0831      2.00000
     15     -10.0695      2.00000
     16     -10.0695      2.00000
     17      -6.9085      2.00000
     18      -6.9085      2.00000
     19      -6.9039      2.00000
     20      -6.9039      2.00000
     21      -6.8808      2.00000
     22      -6.8808      2.00000
     23      -6.8731      2.00000
     24      -6.8731      2.00000
     25      -6.8550      2.00000
     26      -6.8550      2.00000
     27      -6.8385      2.00000
     28      -6.8385      2.00000
     29      -3.1544      2.00000
     30      -3.1544      2.00000
     31      -3.1354      2.00000
     32      -3.1354      2.00000
     33      -1.6615      2.00000
     34      -1.6615      2.00000
     35      -1.6062      2.00000
     36      -1.6062      2.00000
     37      -1.3019      2.00000
     38      -1.3019      2.00000
     39      -1.1985      2.00000
     40      -1.1985      2.00000
     41      -0.7886      2.00000
     42      -0.7886      2.00000
     43      -0.6629      2.00000
     44      -0.6629      2.00000
     45      -0.5363      2.00000
     46      -0.5363      2.00000
     47      -0.4242      2.00000
     48      -0.4242      2.00000
     49      -0.3192      2.00000
     50      -0.3192      2.00000
     51      -0.2623      2.00000
     52      -0.2623      2.00000
     53       0.0594      2.00000
     54       0.0594      2.00000
     55       0.0952      2.00000
     56       0.0952      2.00000
     57       0.1756      2.00000
     58       0.1756      2.00000
     59       0.2381      2.00000
     60       0.2381      2.00000
     61       2.4150      0.00000
     62       2.4150      0.00000
     63       2.4476      0.00000
     64       2.4476      0.00000
     65       5.4734      0.00000
     66       5.4734      0.00000
     67       5.6110      0.00000
     68       5.6110      0.00000
     69       5.8874      0.00000
     70       5.8874      0.00000
     71       6.0979      0.00000
     72       6.0979      0.00000
     73       6.2231      0.00000
     74       6.2231      0.00000
     75       6.3935      0.00000
     76       6.3935      0.00000
     77       6.5331      0.00000
     78       6.5331      0.00000
     79       6.6882      0.00000
     80       6.6882      0.00000
     81       6.7589      0.00000
     82       6.7589      0.00000
     83       6.9711      0.00000
     84       6.9711      0.00000
     85       7.1557      0.00000
     86       7.1557      0.00000
     87       7.2008      0.00000
     88       7.2008      0.00000
     89       7.3085      0.00000
     90       7.3085      0.00000
     91       7.5703      0.00000
     92       7.5703      0.00000
     93       7.9296      0.00000
     94       7.9296      0.00000
     95       8.0078      0.00000
     96       8.0078      0.00000
     97       8.2977      0.00000
     98       8.2977      0.00000
     99       8.3972      0.00000
    100       8.3972      0.00000
    101       8.7179      0.00000
    102       8.7179      0.00000
    103       8.8107      0.00000
    104       8.8107      0.00000
    105       9.0386      0.00000
    106       9.0386      0.00000
    107       9.1506      0.00000
    108       9.1506      0.00000
    109       9.3712      0.00000
    110       9.3712      0.00000
    111       9.6583      0.00000
    112       9.6583      0.00000
    113       9.8422      0.00000
    114       9.8422      0.00000
    115       9.9677      0.00000
    116       9.9677      0.00000
    117      10.2084      0.00000
    118      10.2084      0.00000
    119      10.3157      0.00000
    120      10.3157      0.00000
    121      10.6570      0.00000
    122      10.6570      0.00000
    123      10.7765      0.00000
    124      10.7765      0.00000
    125      10.9243      0.00000
    126      10.9243      0.00000
    127      11.0653      0.00000
    128      11.0653      0.00000
    129      11.2171      0.00000
    130      11.2171      0.00000
    131      11.4245      0.00000
    132      11.4245      0.00000
    133      11.5635      0.00000
    134      11.5635      0.00000
    135      11.7968      0.00000
    136      11.7968      0.00000
    137      11.8439      0.00000
    138      11.8439      0.00000
    139      12.0947      0.00000
    140      12.0947      0.00000
    141      12.3416      0.00000
    142      12.3416      0.00000
    143      12.5176      0.00000
    144      12.5209      0.00000

 k-point    53 :       0.0000    0.3333    0.3333
  band No.  band energies     occupation 
      1     -20.0570      2.00000
      2     -20.0567      2.00000
      3     -20.0557      2.00000
      4     -20.0557      2.00000
      5     -11.9347      2.00000
      6     -11.9129      2.00000
      7     -11.8421      2.00000
      8     -11.8344      2.00000
      9     -10.8629      2.00000
     10     -10.8566      2.00000
     11     -10.7804      2.00000
     12     -10.7501      2.00000
     13     -10.0901      2.00000
     14     -10.0881      2.00000
     15     -10.0598      2.00000
     16     -10.0487      2.00000
     17      -6.9087      2.00000
     18      -6.9049      2.00000
     19      -6.8938      2.00000
     20      -6.8857      2.00000
     21      -6.8780      2.00000
     22      -6.8762      2.00000
     23      -6.8731      2.00000
     24      -6.8670      2.00000
     25      -6.8549      2.00000
     26      -6.8516      2.00000
     27      -6.8498      2.00000
     28      -6.8382      2.00000
     29      -3.2394      2.00000
     30      -3.2262      2.00000
     31      -3.0435      2.00000
     32      -3.0267      2.00000
     33      -1.7724      2.00000
     34      -1.7192      2.00000
     35      -1.5341      2.00000
     36      -1.5330      2.00000
     37      -1.3557      2.00000
     38      -1.2817      2.00000
     39      -1.1987      2.00000
     40      -1.1309      2.00000
     41      -0.9445      2.00000
     42      -0.8797      2.00000
     43      -0.7365      2.00000
     44      -0.6762      2.00000
     45      -0.5227      2.00000
     46      -0.5176      2.00000
     47      -0.4228      2.00000
     48      -0.3546      2.00000
     49      -0.3476      2.00000
     50      -0.3258      2.00000
     51      -0.3108      2.00000
     52      -0.2491      2.00000
     53      -0.0145      2.00000
     54      -0.0116      2.00000
     55       0.1486      2.00000
     56       0.1570      2.00000
     57       0.1838      2.00000
     58       0.2213      2.00000
     59       0.3335      2.00000
     60       0.3611      2.00000
     61       2.3588      0.00000
     62       2.3680      0.00000
     63       2.4572      0.00000
     64       2.4757      0.00000
     65       5.4967      0.00000
     66       5.6393      0.00000
     67       5.6686      0.00000
     68       5.7614      0.00000
     69       5.8475      0.00000
     70       5.8963      0.00000
     71       6.0583      0.00000
     72       6.1373      0.00000
     73       6.2522      0.00000
     74       6.2674      0.00000
     75       6.3552      0.00000
     76       6.4154      0.00000
     77       6.4481      0.00000
     78       6.6037      0.00000
     79       6.6998      0.00000
     80       6.7134      0.00000
     81       6.8306      0.00000
     82       6.8319      0.00000
     83       6.9540      0.00000
     84       7.0246      0.00000
     85       7.0692      0.00000
     86       7.1751      0.00000
     87       7.1758      0.00000
     88       7.3327      0.00000
     89       7.4802      0.00000
     90       7.4911      0.00000
     91       7.7083      0.00000
     92       7.7362      0.00000
     93       7.7645      0.00000
     94       7.9132      0.00000
     95       7.9152      0.00000
     96       8.0268      0.00000
     97       8.1231      0.00000
     98       8.2135      0.00000
     99       8.3778      0.00000
    100       8.4253      0.00000
    101       8.5258      0.00000
    102       8.5924      0.00000
    103       8.6884      0.00000
    104       8.7342      0.00000
    105       8.7995      0.00000
    106       8.8466      0.00000
    107       8.8630      0.00000
    108       8.9763      0.00000
    109       9.0928      0.00000
    110       9.2635      0.00000
    111       9.3313      0.00000
    112       9.4299      0.00000
    113       9.4880      0.00000
    114       9.6860      0.00000
    115       9.8751      0.00000
    116       9.8995      0.00000
    117      10.0598      0.00000
    118      10.1867      0.00000
    119      10.2100      0.00000
    120      10.3186      0.00000
    121      10.4526      0.00000
    122      10.5953      0.00000
    123      10.6758      0.00000
    124      10.7909      0.00000
    125      10.9194      0.00000
    126      10.9454      0.00000
    127      11.1092      0.00000
    128      11.1184      0.00000
    129      11.3069      0.00000
    130      11.3808      0.00000
    131      11.4727      0.00000
    132      11.5717      0.00000
    133      11.6581      0.00000
    134      11.7062      0.00000
    135      11.7563      0.00000
    136      12.0560      0.00000
    137      12.0679      0.00000
    138      12.1012      0.00000
    139      12.2010      0.00000
    140      12.2032      0.00000
    141      12.3861      0.00000
    142      12.4354      0.00000
    143      12.5880      0.00000
    144      12.6096      0.00000

 k-point    54 :       0.1667    0.3333    0.3333
  band No.  band energies     occupation 
      1     -20.0570      2.00000
      2     -20.0567      2.00000
      3     -20.0557      2.00000
      4     -20.0557      2.00000
      5     -11.9299      2.00000
      6     -11.9088      2.00000
      7     -11.8488      2.00000
      8     -11.8393      2.00000
      9     -10.8564      2.00000
     10     -10.8478      2.00000
     11     -10.7842      2.00000
     12     -10.7553      2.00000
     13     -10.0893      2.00000
     14     -10.0866      2.00000
     15     -10.0631      2.00000
     16     -10.0523      2.00000
     17      -6.9096      2.00000
     18      -6.9041      2.00000
     19      -6.8949      2.00000
     20      -6.8861      2.00000
     21      -6.8802      2.00000
     22      -6.8761      2.00000
     23      -6.8706      2.00000
     24      -6.8663      2.00000
     25      -6.8561      2.00000
     26      -6.8515      2.00000
     27      -6.8465      2.00000
     28      -6.8380      2.00000
     29      -3.2274      2.00000
     30      -3.2146      2.00000
     31      -3.0592      2.00000
     32      -3.0434      2.00000
     33      -1.7546      2.00000
     34      -1.7122      2.00000
     35      -1.5772      2.00000
     36      -1.5392      2.00000
     37      -1.3408      2.00000
     38      -1.2736      2.00000
     39      -1.2028      2.00000
     40      -1.1506      2.00000
     41      -0.9165      2.00000
     42      -0.8713      2.00000
     43      -0.7037      2.00000
     44      -0.6666      2.00000
     45      -0.5647      2.00000
     46      -0.5004      2.00000
     47      -0.4284      2.00000
     48      -0.3758      2.00000
     49      -0.3379      2.00000
     50      -0.3198      2.00000
     51      -0.2934      2.00000
     52      -0.2307      2.00000
     53      -0.0398      2.00000
     54       0.0010      2.00000
     55       0.1524      2.00000
     56       0.1615      2.00000
     57       0.1833      2.00000
     58       0.2158      2.00000
     59       0.3080      2.00000
     60       0.3412      2.00000
     61       2.3657      0.00000
     62       2.3792      0.00000
     63       2.4590      0.00000
     64       2.4776      0.00000
     65       5.5218      0.00000
     66       5.6535      0.00000
     67       5.6705      0.00000
     68       5.7428      0.00000
     69       5.8825      0.00000
     70       5.9189      0.00000
     71       6.0113      0.00000
     72       6.1825      0.00000
     73       6.2545      0.00000
     74       6.2739      0.00000
     75       6.3281      0.00000
     76       6.3565      0.00000
     77       6.4925      0.00000
     78       6.6147      0.00000
     79       6.6571      0.00000
     80       6.7135      0.00000
     81       6.7628      0.00000
     82       6.8477      0.00000
     83       6.9297      0.00000
     84       6.9631      0.00000
     85       7.0522      0.00000
     86       7.1069      0.00000
     87       7.1816      0.00000
     88       7.2840      0.00000
     89       7.4319      0.00000
     90       7.5125      0.00000
     91       7.6296      0.00000
     92       7.6705      0.00000
     93       7.7478      0.00000
     94       7.9040      0.00000
     95       7.9610      0.00000
     96       8.0290      0.00000
     97       8.1459      0.00000
     98       8.2509      0.00000
     99       8.3868      0.00000
    100       8.4588      0.00000
    101       8.5146      0.00000
    102       8.6314      0.00000
    103       8.6606      0.00000
    104       8.7404      0.00000
    105       8.8355      0.00000
    106       8.9096      0.00000
    107       8.9437      0.00000
    108       9.1108      0.00000
    109       9.1494      0.00000
    110       9.2825      0.00000
    111       9.3716      0.00000
    112       9.5043      0.00000
    113       9.5512      0.00000
    114       9.7924      0.00000
    115       9.8867      0.00000
    116      10.0032      0.00000
    117      10.0701      0.00000
    118      10.1279      0.00000
    119      10.2407      0.00000
    120      10.3432      0.00000
    121      10.5134      0.00000
    122      10.6436      0.00000
    123      10.7035      0.00000
    124      10.7889      0.00000
    125      10.8686      0.00000
    126      11.0017      0.00000
    127      11.0647      0.00000
    128      11.1535      0.00000
    129      11.2353      0.00000
    130      11.3297      0.00000
    131      11.4125      0.00000
    132      11.5868      0.00000
    133      11.5991      0.00000
    134      11.7172      0.00000
    135      11.8127      0.00000
    136      11.8544      0.00000
    137      12.0100      0.00000
    138      12.0217      0.00000
    139      12.0883      0.00000
    140      12.2203      0.00000
    141      12.3276      0.00000
    142      12.4923      0.00000
    143      12.5265      0.00000
    144      12.6318      0.00000

 k-point    55 :       0.3333    0.3333    0.3333
  band No.  band energies     occupation 
      1     -20.0569      2.00000
      2     -20.0568      2.00000
      3     -20.0557      2.00000
      4     -20.0557      2.00000
      5     -11.9165      2.00000
      6     -11.8989      2.00000
      7     -11.8641      2.00000
      8     -11.8527      2.00000
      9     -10.8395      2.00000
     10     -10.8267      2.00000
     11     -10.7946      2.00000
     12     -10.7704      2.00000
     13     -10.0863      2.00000
     14     -10.0818      2.00000
     15     -10.0708      2.00000
     16     -10.0614      2.00000
     17      -6.9093      2.00000
     18      -6.9026      2.00000
     19      -6.8988      2.00000
     20      -6.8900      2.00000
     21      -6.8800      2.00000
     22      -6.8774      2.00000
     23      -6.8664      2.00000
     24      -6.8651      2.00000
     25      -6.8544      2.00000
     26      -6.8511      2.00000
     27      -6.8429      2.00000
     28      -6.8382      2.00000
     29      -3.1945      2.00000
     30      -3.1826      2.00000
     31      -3.0990      2.00000
     32      -3.0854      2.00000
     33      -1.7147      2.00000
     34      -1.6976      2.00000
     35      -1.6227      2.00000
     36      -1.5888      2.00000
     37      -1.3090      2.00000
     38      -1.2613      2.00000
     39      -1.2207      2.00000
     40      -1.1876      2.00000
     41      -0.8477      2.00000
     42      -0.8219      2.00000
     43      -0.7064      2.00000
     44      -0.6222      2.00000
     45      -0.5819      2.00000
     46      -0.5298      2.00000
     47      -0.4620      2.00000
     48      -0.3902      2.00000
     49      -0.3222      2.00000
     50      -0.2966      2.00000
     51      -0.2685      2.00000
     52      -0.2302      2.00000
     53      -0.0223      2.00000
     54       0.0258      2.00000
     55       0.1319      2.00000
     56       0.1755      2.00000
     57       0.1907      2.00000
     58       0.1952      2.00000
     59       0.2496      2.00000
     60       0.2923      2.00000
     61       2.3908      0.00000
     62       2.4094      0.00000
     63       2.4526      0.00000
     64       2.4724      0.00000
     65       5.5901      0.00000
     66       5.6518      0.00000
     67       5.6914      0.00000
     68       5.7377      0.00000
     69       5.8847      0.00000
     70       5.9269      0.00000
     71       6.0264      0.00000
     72       6.2381      0.00000
     73       6.2508      0.00000
     74       6.2664      0.00000
     75       6.3436      0.00000
     76       6.3511      0.00000
     77       6.4473      0.00000
     78       6.5666      0.00000
     79       6.6070      0.00000
     80       6.6679      0.00000
     81       6.7321      0.00000
     82       6.8254      0.00000
     83       6.8904      0.00000
     84       6.9337      0.00000
     85       6.9529      0.00000
     86       7.0426      0.00000
     87       7.1816      0.00000
     88       7.1893      0.00000
     89       7.3275      0.00000
     90       7.4184      0.00000
     91       7.5072      0.00000
     92       7.5663      0.00000
     93       7.7627      0.00000
     94       7.9103      0.00000
     95       7.9634      0.00000
     96       8.0915      0.00000
     97       8.1704      0.00000
     98       8.2338      0.00000
     99       8.3497      0.00000
    100       8.4711      0.00000
    101       8.5584      0.00000
    102       8.7254      0.00000
    103       8.8229      0.00000
    104       8.8531      0.00000
    105       8.9495      0.00000
    106       9.0461      0.00000
    107       9.1182      0.00000
    108       9.1571      0.00000
    109       9.3415      0.00000
    110       9.4035      0.00000
    111       9.4944      0.00000
    112       9.5556      0.00000
    113       9.6289      0.00000
    114       9.8985      0.00000
    115       9.9619      0.00000
    116      10.0037      0.00000
    117      10.0941      0.00000
    118      10.1562      0.00000
    119      10.3273      0.00000
    120      10.3947      0.00000
    121      10.5646      0.00000
    122      10.6657      0.00000
    123      10.7012      0.00000
    124      10.7791      0.00000
    125      10.8694      0.00000
    126      11.0488      0.00000
    127      11.0760      0.00000
    128      11.1535      0.00000
    129      11.2055      0.00000
    130      11.2704      0.00000
    131      11.3499      0.00000
    132      11.4930      0.00000
    133      11.5737      0.00000
    134      11.6379      0.00000
    135      11.6923      0.00000
    136      11.8650      0.00000
    137      11.8975      0.00000
    138      11.9682      0.00000
    139      12.0092      0.00000
    140      12.1550      0.00000
    141      12.2247      0.00000
    142      12.3085      0.00000
    143      12.4299      0.00000
    144      12.5511      0.00000

 k-point    56 :       0.5000    0.3333    0.3333
  band No.  band energies     occupation 
      1     -20.0568      2.00000
      2     -20.0568      2.00000
      3     -20.0557      2.00000
      4     -20.0557      2.00000
      5     -11.8997      2.00000
      6     -11.8997      2.00000
      7     -11.8677      2.00000
      8     -11.8677      2.00000
      9     -10.8203      2.00000
     10     -10.8203      2.00000
     11     -10.7922      2.00000
     12     -10.7922      2.00000
     13     -10.0807      2.00000
     14     -10.0807      2.00000
     15     -10.0718      2.00000
     16     -10.0718      2.00000
     17      -6.9059      2.00000
     18      -6.9059      2.00000
     19      -6.8962      2.00000
     20      -6.8962      2.00000
     21      -6.8784      2.00000
     22      -6.8784      2.00000
     23      -6.8648      2.00000
     24      -6.8648      2.00000
     25      -6.8517      2.00000
     26      -6.8517      2.00000
     27      -6.8401      2.00000
     28      -6.8401      2.00000
     29      -3.1484      2.00000
     30      -3.1484      2.00000
     31      -3.1363      2.00000
     32      -3.1363      2.00000
     33      -1.6862      2.00000
     34      -1.6862      2.00000
     35      -1.6347      2.00000
     36      -1.6347      2.00000
     37      -1.2739      2.00000
     38      -1.2739      2.00000
     39      -1.2196      2.00000
     40      -1.2196      2.00000
     41      -0.7795      2.00000
     42      -0.7795      2.00000
     43      -0.7042      2.00000
     44      -0.7042      2.00000
     45      -0.5342      2.00000
     46      -0.5342      2.00000
     47      -0.4494      2.00000
     48      -0.4494      2.00000
     49      -0.2943      2.00000
     50      -0.2943      2.00000
     51      -0.2561      2.00000
     52      -0.2561      2.00000
     53       0.0636      2.00000
     54       0.0636      2.00000
     55       0.0996      2.00000
     56       0.0996      2.00000
     57       0.2007      2.00000
     58       0.2007      2.00000
     59       0.2444      2.00000
     60       0.2444      2.00000
     61       2.4261      0.00000
     62       2.4261      0.00000
     63       2.4476      0.00000
     64       2.4476      0.00000
     65       5.6538      0.00000
     66       5.6538      0.00000
     67       5.7011      0.00000
     68       5.7011      0.00000
     69       5.8920      0.00000
     70       5.8920      0.00000
     71       6.1618      0.00000
     72       6.1618      0.00000
     73       6.2650      0.00000
     74       6.2650      0.00000
     75       6.3458      0.00000
     76       6.3458      0.00000
     77       6.4791      0.00000
     78       6.4791      0.00000
     79       6.6032      0.00000
     80       6.6032      0.00000
     81       6.7667      0.00000
     82       6.7667      0.00000
     83       6.9079      0.00000
     84       6.9079      0.00000
     85       7.0203      0.00000
     86       7.0203      0.00000
     87       7.1036      0.00000
     88       7.1036      0.00000
     89       7.3362      0.00000
     90       7.3362      0.00000
     91       7.4501      0.00000
     92       7.4501      0.00000
     93       7.8744      0.00000
     94       7.8744      0.00000
     95       7.9873      0.00000
     96       7.9873      0.00000
     97       8.2244      0.00000
     98       8.2244      0.00000
     99       8.4245      0.00000
    100       8.4245      0.00000
    101       8.7788      0.00000
    102       8.7788      0.00000
    103       8.8369      0.00000
    104       8.8369      0.00000
    105       9.0010      0.00000
    106       9.0010      0.00000
    107       9.2587      0.00000
    108       9.2587      0.00000
    109       9.3938      0.00000
    110       9.3938      0.00000
    111       9.6051      0.00000
    112       9.6051      0.00000
    113       9.8313      0.00000
    114       9.8313      0.00000
    115      10.0047      0.00000
    116      10.0047      0.00000
    117      10.1448      0.00000
    118      10.1448      0.00000
    119      10.2718      0.00000
    120      10.2718      0.00000
    121      10.6227      0.00000
    122      10.6227      0.00000
    123      10.8499      0.00000
    124      10.8499      0.00000
    125      10.9655      0.00000
    126      10.9655      0.00000
    127      11.0260      0.00000
    128      11.0260      0.00000
    129      11.2967      0.00000
    130      11.2967      0.00000
    131      11.3252      0.00000
    132      11.3252      0.00000
    133      11.5847      0.00000
    134      11.5847      0.00000
    135      11.7547      0.00000
    136      11.7547      0.00000
    137      11.9161      0.00000
    138      11.9161      0.00000
    139      12.0537      0.00000
    140      12.0537      0.00000
    141      12.3082      0.00000
    142      12.3082      0.00000
    143      12.4793      0.00000
    144      12.4793      0.00000

 k-point    57 :       0.0000    0.4444    0.3333
  band No.  band energies     occupation 
      1     -20.0565      2.00000
      2     -20.0564      2.00000
      3     -20.0560      2.00000
      4     -20.0560      2.00000
      5     -11.9267      2.00000
      6     -11.9189      2.00000
      7     -11.8421      2.00000
      8     -11.8392      2.00000
      9     -10.8617      2.00000
     10     -10.8596      2.00000
     11     -10.7723      2.00000
     12     -10.7617      2.00000
     13     -10.0887      2.00000
     14     -10.0879      2.00000
     15     -10.0571      2.00000
     16     -10.0531      2.00000
     17      -6.9060      2.00000
     18      -6.9036      2.00000
     19      -6.8880      2.00000
     20      -6.8821      2.00000
     21      -6.8804      2.00000
     22      -6.8794      2.00000
     23      -6.8679      2.00000
     24      -6.8648      2.00000
     25      -6.8517      2.00000
     26      -6.8504      2.00000
     27      -6.8408      2.00000
     28      -6.8370      2.00000
     29      -3.2294      2.00000
     30      -3.2250      2.00000
     31      -3.0394      2.00000
     32      -3.0336      2.00000
     33      -1.7857      2.00000
     34      -1.7681      2.00000
     35      -1.5381      2.00000
     36      -1.5373      2.00000
     37      -1.3510      2.00000
     38      -1.3163      2.00000
     39      -1.1605      2.00000
     40      -1.1362      2.00000
     41      -0.9404      2.00000
     42      -0.9095      2.00000
     43      -0.7146      2.00000
     44      -0.6853      2.00000
     45      -0.5167      2.00000
     46      -0.4994      2.00000
     47      -0.4120      2.00000
     48      -0.3806      2.00000
     49      -0.3523      2.00000
     50      -0.3396      2.00000
     51      -0.2805      2.00000
     52      -0.2573      2.00000
     53      -0.0246      2.00000
     54      -0.0218      2.00000
     55       0.1587      2.00000
     56       0.1638      2.00000
     57       0.1982      2.00000
     58       0.2134      2.00000
     59       0.3502      2.00000
     60       0.3608      2.00000
     61       2.3689      0.00000
     62       2.3729      0.00000
     63       2.4683      0.00000
     64       2.4751      0.00000
     65       5.6514      0.00000
     66       5.6812      0.00000
     67       5.7817      0.00000
     68       5.8381      0.00000
     69       5.8713      0.00000
     70       5.9257      0.00000
     71       6.0371      0.00000
     72       6.0920      0.00000
     73       6.2348      0.00000
     74       6.2443      0.00000
     75       6.3801      0.00000
     76       6.4324      0.00000
     77       6.5199      0.00000
     78       6.5677      0.00000
     79       6.5765      0.00000
     80       6.7012      0.00000
     81       6.7391      0.00000
     82       6.7718      0.00000
     83       6.9858      0.00000
     84       7.0320      0.00000
     85       7.0905      0.00000
     86       7.1165      0.00000
     87       7.1805      0.00000
     88       7.2628      0.00000
     89       7.4337      0.00000
     90       7.4962      0.00000
     91       7.6415      0.00000
     92       7.6974      0.00000
     93       7.7946      0.00000
     94       7.8240      0.00000
     95       7.9076      0.00000
     96       7.9585      0.00000
     97       8.0762      0.00000
     98       8.0807      0.00000
     99       8.3126      0.00000
    100       8.3180      0.00000
    101       8.4933      0.00000
    102       8.5811      0.00000
    103       8.6548      0.00000
    104       8.7239      0.00000
    105       8.8222      0.00000
    106       8.8451      0.00000
    107       8.9585      0.00000
    108       9.0156      0.00000
    109       9.0713      0.00000
    110       9.1820      0.00000
    111       9.4437      0.00000
    112       9.4669      0.00000
    113       9.5884      0.00000
    114       9.6213      0.00000
    115       9.9328      0.00000
    116       9.9604      0.00000
    117      10.1683      0.00000
    118      10.2859      0.00000
    119      10.3270      0.00000
    120      10.4309      0.00000
    121      10.4367      0.00000
    122      10.5405      0.00000
    123      10.6031      0.00000
    124      10.7537      0.00000
    125      10.9063      0.00000
    126      10.9517      0.00000
    127      11.0635      0.00000
    128      11.1489      0.00000
    129      11.1919      0.00000
    130      11.3094      0.00000
    131      11.5113      0.00000
    132      11.5450      0.00000
    133      11.6538      0.00000
    134      11.6901      0.00000
    135      11.7717      0.00000
    136      11.8912      0.00000
    137      12.0066      0.00000
    138      12.0402      0.00000
    139      12.2156      0.00000
    140      12.2998      0.00000
    141      12.3564      0.00000
    142      12.3905      0.00000
    143      12.6205      0.00000
    144      12.6629      0.00000

 k-point    58 :       0.1667    0.4444    0.3333
  band No.  band energies     occupation 
      1     -20.0565      2.00000
      2     -20.0564      2.00000
      3     -20.0560      2.00000
      4     -20.0560      2.00000
      5     -11.9218      2.00000
      6     -11.9142      2.00000
      7     -11.8487      2.00000
      8     -11.8450      2.00000
      9     -10.8543      2.00000
     10     -10.8513      2.00000
     11     -10.7768      2.00000
     12     -10.7667      2.00000
     13     -10.0876      2.00000
     14     -10.0866      2.00000
     15     -10.0604      2.00000
     16     -10.0565      2.00000
     17      -6.9070      2.00000
     18      -6.9039      2.00000
     19      -6.8900      2.00000
     20      -6.8846      2.00000
     21      -6.8788      2.00000
     22      -6.8767      2.00000
     23      -6.8675      2.00000
     24      -6.8645      2.00000
     25      -6.8509      2.00000
     26      -6.8479      2.00000
     27      -6.8412      2.00000
     28      -6.8374      2.00000
     29      -3.2181      2.00000
     30      -3.2138      2.00000
     31      -3.0551      2.00000
     32      -3.0497      2.00000
     33      -1.7682      2.00000
     34      -1.7539      2.00000
     35      -1.5769      2.00000
     36      -1.5613      2.00000
     37      -1.3270      2.00000
     38      -1.2960      2.00000
     39      -1.1741      2.00000
     40      -1.1566      2.00000
     41      -0.9192      2.00000
     42      -0.8985      2.00000
     43      -0.6840      2.00000
     44      -0.6683      2.00000
     45      -0.5523      2.00000
     46      -0.5221      2.00000
     47      -0.4112      2.00000
     48      -0.3885      2.00000
     49      -0.3387      2.00000
     50      -0.3332      2.00000
     51      -0.2667      2.00000
     52      -0.2393      2.00000
     53      -0.0331      2.00000
     54      -0.0183      2.00000
     55       0.1659      2.00000
     56       0.1699      2.00000
     57       0.1948      2.00000
     58       0.2088      2.00000
     59       0.3265      2.00000
     60       0.3390      2.00000
     61       2.3771      0.00000
     62       2.3824      0.00000
     63       2.4689      0.00000
     64       2.4754      0.00000
     65       5.6692      0.00000
     66       5.6921      0.00000
     67       5.7981      0.00000
     68       5.8315      0.00000
     69       5.9058      0.00000
     70       5.9442      0.00000
     71       6.0451      0.00000
     72       6.1130      0.00000
     73       6.2263      0.00000
     74       6.2617      0.00000
     75       6.3380      0.00000
     76       6.4398      0.00000
     77       6.5057      0.00000
     78       6.5270      0.00000
     79       6.5849      0.00000
     80       6.6714      0.00000
     81       6.7073      0.00000
     82       6.7768      0.00000
     83       6.9095      0.00000
     84       6.9784      0.00000
     85       7.0535      0.00000
     86       7.1266      0.00000
     87       7.1490      0.00000
     88       7.2140      0.00000
     89       7.3456      0.00000
     90       7.4777      0.00000
     91       7.5208      0.00000
     92       7.6354      0.00000
     93       7.7020      0.00000
     94       7.8099      0.00000
     95       7.9790      0.00000
     96       8.0187      0.00000
     97       8.1460      0.00000
     98       8.1738      0.00000
     99       8.3480      0.00000
    100       8.3857      0.00000
    101       8.4918      0.00000
    102       8.6039      0.00000
    103       8.6939      0.00000
    104       8.7609      0.00000
    105       8.8268      0.00000
    106       8.8947      0.00000
    107       9.0493      0.00000
    108       9.0922      0.00000
    109       9.1989      0.00000
    110       9.2434      0.00000
    111       9.4687      0.00000
    112       9.4936      0.00000
    113       9.6399      0.00000
    114       9.7082      0.00000
    115       9.9248      0.00000
    116       9.9984      0.00000
    117      10.2324      0.00000
    118      10.2548      0.00000
    119      10.2971      0.00000
    120      10.3674      0.00000
    121      10.5095      0.00000
    122      10.5449      0.00000
    123      10.6553      0.00000
    124      10.7537      0.00000
    125      10.8220      0.00000
    126      10.9064      0.00000
    127      11.0593      0.00000
    128      11.1889      0.00000
    129      11.2296      0.00000
    130      11.2919      0.00000
    131      11.4868      0.00000
    132      11.5429      0.00000
    133      11.6025      0.00000
    134      11.7404      0.00000
    135      11.7816      0.00000
    136      11.8429      0.00000
    137      11.9347      0.00000
    138      12.0450      0.00000
    139      12.1227      0.00000
    140      12.2153      0.00000
    141      12.2572      0.00000
    142      12.4094      0.00000
    143      12.4786      0.00000
    144      12.5594      0.00000

 k-point    59 :       0.3333    0.4444    0.3333
  band No.  band energies     occupation 
      1     -20.0565      2.00000
      2     -20.0564      2.00000
      3     -20.0560      2.00000
      4     -20.0560      2.00000
      5     -11.9081      2.00000
      6     -11.9011      2.00000
      7     -11.8654      2.00000
      8     -11.8605      2.00000
      9     -10.8351      2.00000
     10     -10.8302      2.00000
     11     -10.7900      2.00000
     12     -10.7812      2.00000
     13     -10.0842      2.00000
     14     -10.0825      2.00000
     15     -10.0685      2.00000
     16     -10.0651      2.00000
     17      -6.9067      2.00000
     18      -6.9031      2.00000
     19      -6.8963      2.00000
     20      -6.8919      2.00000
     21      -6.8737      2.00000
     22      -6.8705      2.00000
     23      -6.8668      2.00000
     24      -6.8640      2.00000
     25      -6.8480      2.00000
     26      -6.8446      2.00000
     27      -6.8422      2.00000
     28      -6.8388      2.00000
     29      -3.1868      2.00000
     30      -3.1829      2.00000
     31      -3.0945      2.00000
     32      -3.0899      2.00000
     33      -1.7275      2.00000
     34      -1.7216      2.00000
     35      -1.6312      2.00000
     36      -1.6177      2.00000
     37      -1.2901      2.00000
     38      -1.2695      2.00000
     39      -1.2034      2.00000
     40      -1.2006      2.00000
     41      -0.8541      2.00000
     42      -0.8457      2.00000
     43      -0.6780      2.00000
     44      -0.6468      2.00000
     45      -0.5755      2.00000
     46      -0.5585      2.00000
     47      -0.4460      2.00000
     48      -0.4178      2.00000
     49      -0.3084      2.00000
     50      -0.3014      2.00000
     51      -0.2474      2.00000
     52      -0.2316      2.00000
     53      -0.0064      2.00000
     54       0.0111      2.00000
     55       0.1542      2.00000
     56       0.1701      2.00000
     57       0.1981      2.00000
     58       0.2044      2.00000
     59       0.2700      2.00000
     60       0.2866      2.00000
     61       2.4026      0.00000
     62       2.4094      0.00000
     63       2.4615      0.00000
     64       2.4680      0.00000
     65       5.7027      0.00000
     66       5.7477      0.00000
     67       5.8074      0.00000
     68       5.8395      0.00000
     69       5.9465      0.00000
     70       5.9643      0.00000
     71       6.0765      0.00000
     72       6.0990      0.00000
     73       6.2207      0.00000
     74       6.3141      0.00000
     75       6.3334      0.00000
     76       6.4224      0.00000
     77       6.4768      0.00000
     78       6.5279      0.00000
     79       6.5826      0.00000
     80       6.6175      0.00000
     81       6.6985      0.00000
     82       6.7432      0.00000
     83       6.8291      0.00000
     84       6.8857      0.00000
     85       6.9174      0.00000
     86       7.0076      0.00000
     87       7.0675      0.00000
     88       7.1182      0.00000
     89       7.2824      0.00000
     90       7.3048      0.00000
     91       7.4003      0.00000
     92       7.4936      0.00000
     93       7.7591      0.00000
     94       7.8558      0.00000
     95       8.0046      0.00000
     96       8.0256      0.00000
     97       8.1513      0.00000
     98       8.2519      0.00000
     99       8.3203      0.00000
    100       8.3528      0.00000
    101       8.6604      0.00000
    102       8.7777      0.00000
    103       8.9363      0.00000
    104       8.9910      0.00000
    105       9.0349      0.00000
    106       9.0678      0.00000
    107       9.1636      0.00000
    108       9.2162      0.00000
    109       9.3057      0.00000
    110       9.3760      0.00000
    111       9.5057      0.00000
    112       9.5699      0.00000
    113       9.6642      0.00000
    114       9.7090      0.00000
    115       9.8855      0.00000
    116      10.0182      0.00000
    117      10.1270      0.00000
    118      10.2515      0.00000
    119      10.2956      0.00000
    120      10.3587      0.00000
    121      10.5601      0.00000
    122      10.5834      0.00000
    123      10.6381      0.00000
    124      10.7764      0.00000
    125      10.8121      0.00000
    126      10.8721      0.00000
    127      11.1302      0.00000
    128      11.2035      0.00000
    129      11.2122      0.00000
    130      11.3297      0.00000
    131      11.3935      0.00000
    132      11.4503      0.00000
    133      11.6492      0.00000
    134      11.7200      0.00000
    135      11.8147      0.00000
    136      11.8656      0.00000
    137      11.8793      0.00000
    138      11.9708      0.00000
    139      12.0542      0.00000
    140      12.1084      0.00000
    141      12.1409      0.00000
    142      12.2916      0.00000
    143      12.3937      0.00000
    144      12.4383      0.00000

 k-point    60 :       0.5000    0.4444    0.3333
  band No.  band energies     occupation 
      1     -20.0564      2.00000
      2     -20.0564      2.00000
      3     -20.0560      2.00000
      4     -20.0560      2.00000
      5     -11.8900      2.00000
      6     -11.8900      2.00000
      7     -11.8789      2.00000
      8     -11.8789      2.00000
      9     -10.8124      2.00000
     10     -10.8124      2.00000
     11     -10.8027      2.00000
     12     -10.8027      2.00000
     13     -10.0777      2.00000
     14     -10.0777      2.00000
     15     -10.0746      2.00000
     16     -10.0746      2.00000
     17      -6.9030      2.00000
     18      -6.9030      2.00000
     19      -6.8988      2.00000
     20      -6.8988      2.00000
     21      -6.8697      2.00000
     22      -6.8697      2.00000
     23      -6.8648      2.00000
     24      -6.8648      2.00000
     25      -6.8450      2.00000
     26      -6.8450      2.00000
     27      -6.8411      2.00000
     28      -6.8411      2.00000
     29      -3.1426      2.00000
     30      -3.1426      2.00000
     31      -3.1385      2.00000
     32      -3.1385      2.00000
     33      -1.6885      2.00000
     34      -1.6885      2.00000
     35      -1.6675      2.00000
     36      -1.6675      2.00000
     37      -1.2531      2.00000
     38      -1.2531      2.00000
     39      -1.2351      2.00000
     40      -1.2351      2.00000
     41      -0.7652      2.00000
     42      -0.7652      2.00000
     43      -0.7413      2.00000
     44      -0.7413      2.00000
     45      -0.5162      2.00000
     46      -0.5162      2.00000
     47      -0.4831      2.00000
     48      -0.4831      2.00000
     49      -0.2719      2.00000
     50      -0.2719      2.00000
     51      -0.2591      2.00000
     52      -0.2591      2.00000
     53       0.0800      2.00000
     54       0.0800      2.00000
     55       0.0954      2.00000
     56       0.0954      2.00000
     57       0.2237      2.00000
     58       0.2237      2.00000
     59       0.2387      2.00000
     60       0.2387      2.00000
     61       2.4364      0.00000
     62       2.4364      0.00000
     63       2.4439      0.00000
     64       2.4439      0.00000
     65       5.7534      0.00000
     66       5.7534      0.00000
     67       5.8261      0.00000
     68       5.8261      0.00000
     69       5.9582      0.00000
     70       5.9582      0.00000
     71       6.0822      0.00000
     72       6.0822      0.00000
     73       6.3017      0.00000
     74       6.3017      0.00000
     75       6.3803      0.00000
     76       6.3803      0.00000
     77       6.4914      0.00000
     78       6.4914      0.00000
     79       6.5878      0.00000
     80       6.5878      0.00000
     81       6.7246      0.00000
     82       6.7246      0.00000
     83       6.8051      0.00000
     84       6.8051      0.00000
     85       6.9234      0.00000
     86       6.9234      0.00000
     87       7.0187      0.00000
     88       7.0187      0.00000
     89       7.2697      0.00000
     90       7.2697      0.00000
     91       7.3472      0.00000
     92       7.3472      0.00000
     93       7.8668      0.00000
     94       7.8668      0.00000
     95       7.9339      0.00000
     96       7.9339      0.00000
     97       8.2629      0.00000
     98       8.2629      0.00000
     99       8.3457      0.00000
    100       8.3457      0.00000
    101       8.9102      0.00000
    102       8.9102      0.00000
    103       9.0222      0.00000
    104       9.0222      0.00000
    105       9.0963      0.00000
    106       9.0963      0.00000
    107       9.2360      0.00000
    108       9.2360      0.00000
    109       9.4850      0.00000
    110       9.4850      0.00000
    111       9.5718      0.00000
    112       9.5718      0.00000
    113       9.6454      0.00000
    114       9.6454      0.00000
    115       9.9230      0.00000
    116       9.9230      0.00000
    117      10.1769      0.00000
    118      10.1769      0.00000
    119      10.2503      0.00000
    120      10.2503      0.00000
    121      10.5375      0.00000
    122      10.5375      0.00000
    123      10.6575      0.00000
    124      10.6575      0.00000
    125      11.0577      0.00000
    126      11.0577      0.00000
    127      11.1132      0.00000
    128      11.1132      0.00000
    129      11.2840      0.00000
    130      11.2840      0.00000
    131      11.3654      0.00000
    132      11.3654      0.00000
    133      11.6222      0.00000
    134      11.6222      0.00000
    135      11.8127      0.00000
    136      11.8127      0.00000
    137      11.9692      0.00000
    138      11.9692      0.00000
    139      12.0574      0.00000
    140      12.0574      0.00000
    141      12.2489      0.00000
    142      12.2490      0.00000
    143      12.4612      0.00000
    144      12.4695      0.00000

 k-point    61 :       0.0000    0.0000    0.5000
  band No.  band energies     occupation 
      1     -20.0576      2.00000
      2     -20.0576      2.00000
      3     -20.0553      2.00000
      4     -20.0553      2.00000
      5     -11.9294      2.00000
      6     -11.9294      2.00000
      7     -11.8285      2.00000
      8     -11.8285      2.00000
      9     -10.8574      2.00000
     10     -10.8574      2.00000
     11     -10.7567      2.00000
     12     -10.7567      2.00000
     13     -10.0926      2.00000
     14     -10.0926      2.00000
     15     -10.0522      2.00000
     16     -10.0522      2.00000
     17      -6.9264      2.00000
     18      -6.9264      2.00000
     19      -6.8991      2.00000
     20      -6.8991      2.00000
     21      -6.8931      2.00000
     22      -6.8931      2.00000
     23      -6.8704      2.00000
     24      -6.8704      2.00000
     25      -6.8588      2.00000
     26      -6.8588      2.00000
     27      -6.8426      2.00000
     28      -6.8426      2.00000
     29      -3.2512      2.00000
     30      -3.2512      2.00000
     31      -3.0289      2.00000
     32      -3.0289      2.00000
     33      -1.5976      2.00000
     34      -1.5976      2.00000
     35      -1.5425      2.00000
     36      -1.5425      2.00000
     37      -1.3892      2.00000
     38      -1.3892      2.00000
     39      -1.1472      2.00000
     40      -1.1472      2.00000
     41      -0.8679      2.00000
     42      -0.8679      2.00000
     43      -0.6490      2.00000
     44      -0.6490      2.00000
     45      -0.6475      2.00000
     46      -0.6475      2.00000
     47      -0.3342      2.00000
     48      -0.3342      2.00000
     49      -0.3238      2.00000
     50      -0.3238      2.00000
     51      -0.2751      2.00000
     52      -0.2751      2.00000
     53       0.0399      2.00000
     54       0.0399      2.00000
     55       0.0450      2.00000
     56       0.0450      2.00000
     57       0.2569      2.00000
     58       0.2569      2.00000
     59       0.3160      2.00000
     60       0.3160      2.00000
     61       2.3143      0.00000
     62       2.3143      0.00000
     63       2.4317      0.00000
     64       2.4317      0.00000
     65       5.2048      0.00000
     66       5.2048      0.00000
     67       5.7666      0.00000
     68       5.7666      0.00000
     69       5.8060      0.00000
     70       5.8060      0.00000
     71       6.0556      0.00000
     72       6.0556      0.00000
     73       6.2853      0.00000
     74       6.2853      0.00000
     75       6.4892      0.00000
     76       6.4892      0.00000
     77       6.4898      0.00000
     78       6.4898      0.00000
     79       6.8309      0.00000
     80       6.8309      0.00000
     81       6.9072      0.00000
     82       6.9072      0.00000
     83       7.0237      0.00000
     84       7.0237      0.00000
     85       7.1519      0.00000
     86       7.1519      0.00000
     87       7.4476      0.00000
     88       7.4476      0.00000
     89       7.6091      0.00000
     90       7.6091      0.00000
     91       7.7182      0.00000
     92       7.7182      0.00000
     93       7.7829      0.00000
     94       7.7829      0.00000
     95       8.0299      0.00000
     96       8.0299      0.00000
     97       8.0926      0.00000
     98       8.0926      0.00000
     99       8.4917      0.00000
    100       8.4917      0.00000
    101       8.5872      0.00000
    102       8.5872      0.00000
    103       8.6883      0.00000
    104       8.6883      0.00000
    105       8.9201      0.00000
    106       8.9201      0.00000
    107       8.9561      0.00000
    108       8.9561      0.00000
    109       9.1224      0.00000
    110       9.1224      0.00000
    111       9.5544      0.00000
    112       9.5544      0.00000
    113       9.6583      0.00000
    114       9.6583      0.00000
    115       9.8180      0.00000
    116       9.8180      0.00000
    117      10.2407      0.00000
    118      10.2407      0.00000
    119      10.2557      0.00000
    120      10.2557      0.00000
    121      10.5506      0.00000
    122      10.5506      0.00000
    123      10.8289      0.00000
    124      10.8289      0.00000
    125      10.8891      0.00000
    126      10.8891      0.00000
    127      11.1184      0.00000
    128      11.1184      0.00000
    129      11.3519      0.00000
    130      11.3519      0.00000
    131      11.7974      0.00000
    132      11.7974      0.00000
    133      11.8803      0.00000
    134      11.8803      0.00000
    135      11.9458      0.00000
    136      11.9458      0.00000
    137      12.1344      0.00000
    138      12.1344      0.00000
    139      12.1367      0.00000
    140      12.1367      0.00000
    141      12.2137      0.00000
    142      12.2137      0.00000
    143      12.7212      0.00000
    144      12.7374      0.00000

 k-point    62 :       0.1667    0.0000    0.5000
  band No.  band energies     occupation 
      1     -20.0576      2.00000
      2     -20.0576      2.00000
      3     -20.0553      2.00000
      4     -20.0553      2.00000
      5     -11.9258      2.00000
      6     -11.9258      2.00000
      7     -11.8333      2.00000
      8     -11.8333      2.00000
      9     -10.8504      2.00000
     10     -10.8504      2.00000
     11     -10.7604      2.00000
     12     -10.7604      2.00000
     13     -10.0913      2.00000
     14     -10.0913      2.00000
     15     -10.0559      2.00000
     16     -10.0559      2.00000
     17      -6.9262      2.00000
     18      -6.9262      2.00000
     19      -6.9001      2.00000
     20      -6.9001      2.00000
     21      -6.8933      2.00000
     22      -6.8933      2.00000
     23      -6.8727      2.00000
     24      -6.8727      2.00000
     25      -6.8572      2.00000
     26      -6.8572      2.00000
     27      -6.8400      2.00000
     28      -6.8400      2.00000
     29      -3.2381      2.00000
     30      -3.2381      2.00000
     31      -3.0471      2.00000
     32      -3.0471      2.00000
     33      -1.5958      2.00000
     34      -1.5958      2.00000
     35      -1.5642      2.00000
     36      -1.5642      2.00000
     37      -1.3692      2.00000
     38      -1.3692      2.00000
     39      -1.1582      2.00000
     40      -1.1582      2.00000
     41      -0.8557      2.00000
     42      -0.8557      2.00000
     43      -0.6282      2.00000
     44      -0.6282      2.00000
     45      -0.6111      2.00000
     46      -0.6111      2.00000
     47      -0.3405      2.00000
     48      -0.3405      2.00000
     49      -0.3309      2.00000
     50      -0.3309      2.00000
     51      -0.2862      2.00000
     52      -0.2862      2.00000
     53       0.0236      2.00000
     54       0.0236      2.00000
     55       0.0563      2.00000
     56       0.0563      2.00000
     57       0.2400      2.00000
     58       0.2400      2.00000
     59       0.2902      2.00000
     60       0.2902      2.00000
     61       2.3395      0.00000
     62       2.3395      0.00000
     63       2.4416      0.00000
     64       2.4416      0.00000
     65       5.2262      0.00000
     66       5.2262      0.00000
     67       5.7379      0.00000
     68       5.7379      0.00000
     69       5.7894      0.00000
     70       5.7894      0.00000
     71       6.0513      0.00000
     72       6.0513      0.00000
     73       6.3010      0.00000
     74       6.3010      0.00000
     75       6.4777      0.00000
     76       6.4777      0.00000
     77       6.5107      0.00000
     78       6.5107      0.00000
     79       6.7743      0.00000
     80       6.7743      0.00000
     81       6.8882      0.00000
     82       6.8882      0.00000
     83       6.9561      0.00000
     84       6.9561      0.00000
     85       7.2012      0.00000
     86       7.2012      0.00000
     87       7.4216      0.00000
     88       7.4216      0.00000
     89       7.5019      0.00000
     90       7.5019      0.00000
     91       7.6337      0.00000
     92       7.6337      0.00000
     93       7.8635      0.00000
     94       7.8635      0.00000
     95       8.0814      0.00000
     96       8.0814      0.00000
     97       8.0991      0.00000
     98       8.0991      0.00000
     99       8.4480      0.00000
    100       8.4480      0.00000
    101       8.5981      0.00000
    102       8.5981      0.00000
    103       8.7389      0.00000
    104       8.7389      0.00000
    105       8.9461      0.00000
    106       8.9461      0.00000
    107       9.1056      0.00000
    108       9.1056      0.00000
    109       9.2918      0.00000
    110       9.2918      0.00000
    111       9.6367      0.00000
    112       9.6367      0.00000
    113       9.6515      0.00000
    114       9.6515      0.00000
    115       9.8211      0.00000
    116       9.8211      0.00000
    117      10.2909      0.00000
    118      10.2909      0.00000
    119      10.3213      0.00000
    120      10.3213      0.00000
    121      10.5691      0.00000
    122      10.5691      0.00000
    123      10.7710      0.00000
    124      10.7710      0.00000
    125      10.7964      0.00000
    126      10.7964      0.00000
    127      11.0605      0.00000
    128      11.0605      0.00000
    129      11.3452      0.00000
    130      11.3452      0.00000
    131      11.5424      0.00000
    132      11.5424      0.00000
    133      11.8428      0.00000
    134      11.8428      0.00000
    135      11.8568      0.00000
    136      11.8568      0.00000
    137      12.0724      0.00000
    138      12.0724      0.00000
    139      12.2521      0.00000
    140      12.2521      0.00000
    141      12.4101      0.00000
    142      12.4114      0.00000
    143      12.5542      0.00000
    144      12.5574      0.00000

 k-point    63 :       0.3333    0.0000    0.5000
  band No.  band energies     occupation 
      1     -20.0576      2.00000
      2     -20.0576      2.00000
      3     -20.0553      2.00000
      4     -20.0553      2.00000
      5     -11.9175      2.00000
      6     -11.9175      2.00000
      7     -11.8443      2.00000
      8     -11.8443      2.00000
      9     -10.8340      2.00000
     10     -10.8340      2.00000
     11     -10.7705      2.00000
     12     -10.7705      2.00000
     13     -10.0872      2.00000
     14     -10.0872      2.00000
     15     -10.0646      2.00000
     16     -10.0646      2.00000
     17      -6.9258      2.00000
     18      -6.9258      2.00000
     19      -6.9019      2.00000
     20      -6.9019      2.00000
     21      -6.8937      2.00000
     22      -6.8937      2.00000
     23      -6.8765      2.00000
     24      -6.8765      2.00000
     25      -6.8539      2.00000
     26      -6.8539      2.00000
     27      -6.8357      2.00000
     28      -6.8357      2.00000
     29      -3.2018      2.00000
     30      -3.2018      2.00000
     31      -3.0932      2.00000
     32      -3.0932      2.00000
     33      -1.6027      2.00000
     34      -1.6027      2.00000
     35      -1.5920      2.00000
     36      -1.5920      2.00000
     37      -1.3350      2.00000
     38      -1.3350      2.00000
     39      -1.1788      2.00000
     40      -1.1788      2.00000
     41      -0.8140      2.00000
     42      -0.8140      2.00000
     43      -0.5886      2.00000
     44      -0.5886      2.00000
     45      -0.5351      2.00000
     46      -0.5351      2.00000
     47      -0.3556      2.00000
     48      -0.3556      2.00000
     49      -0.3551      2.00000
     50      -0.3551      2.00000
     51      -0.3285      2.00000
     52      -0.3285      2.00000
     53       0.0241      2.00000
     54       0.0241      2.00000
     55       0.0891      2.00000
     56       0.0891      2.00000
     57       0.1958      2.00000
     58       0.1958      2.00000
     59       0.2192      2.00000
     60       0.2192      2.00000
     61       2.3937      0.00000
     62       2.3937      0.00000
     63       2.4577      0.00000
     64       2.4577      0.00000
     65       5.2925      0.00000
     66       5.2925      0.00000
     67       5.5791      0.00000
     68       5.5791      0.00000
     69       5.8399      0.00000
     70       5.8399      0.00000
     71       6.0678      0.00000
     72       6.0678      0.00000
     73       6.3147      0.00000
     74       6.3147      0.00000
     75       6.4851      0.00000
     76       6.4851      0.00000
     77       6.5633      0.00000
     78       6.5633      0.00000
     79       6.6920      0.00000
     80       6.6920      0.00000
     81       6.8214      0.00000
     82       6.8214      0.00000
     83       6.8381      0.00000
     84       6.8381      0.00000
     85       7.1123      0.00000
     86       7.1123      0.00000
     87       7.3482      0.00000
     88       7.3482      0.00000
     89       7.3755      0.00000
     90       7.3755      0.00000
     91       7.7265      0.00000
     92       7.7265      0.00000
     93       7.8031      0.00000
     94       7.8031      0.00000
     95       8.0471      0.00000
     96       8.0471      0.00000
     97       8.3072      0.00000
     98       8.3072      0.00000
     99       8.4109      0.00000
    100       8.4109      0.00000
    101       8.7018      0.00000
    102       8.7018      0.00000
    103       8.9127      0.00000
    104       8.9127      0.00000
    105       9.0035      0.00000
    106       9.0035      0.00000
    107       9.3268      0.00000
    108       9.3268      0.00000
    109       9.5018      0.00000
    110       9.5018      0.00000
    111       9.6482      0.00000
    112       9.6482      0.00000
    113       9.6856      0.00000
    114       9.6856      0.00000
    115       9.8804      0.00000
    116       9.8804      0.00000
    117      10.3323      0.00000
    118      10.3323      0.00000
    119      10.3864      0.00000
    120      10.3864      0.00000
    121      10.5583      0.00000
    122      10.5583      0.00000
    123      10.6264      0.00000
    124      10.6264      0.00000
    125      10.8065      0.00000
    126      10.8065      0.00000
    127      11.0704      0.00000
    128      11.0704      0.00000
    129      11.2301      0.00000
    130      11.2301      0.00000
    131      11.4492      0.00000
    132      11.4492      0.00000
    133      11.6981      0.00000
    134      11.6981      0.00000
    135      11.7252      0.00000
    136      11.7252      0.00000
    137      12.0021      0.00000
    138      12.0021      0.00000
    139      12.1218      0.00000
    140      12.1218      0.00000
    141      12.3555      0.00000
    142      12.3555      0.00000
    143      12.6555      0.00000
    144      12.7153      0.00000

 k-point    64 :       0.5000    0.0000    0.5000
  band No.  band energies     occupation 
      1     -20.0576      2.00000
      2     -20.0576      2.00000
      3     -20.0553      2.00000
      4     -20.0553      2.00000
      5     -11.9123      2.00000
      6     -11.9123      2.00000
      7     -11.8509      2.00000
      8     -11.8509      2.00000
      9     -10.8232      2.00000
     10     -10.8232      2.00000
     11     -10.7782      2.00000
     12     -10.7782      2.00000
     13     -10.0831      2.00000
     14     -10.0831      2.00000
     15     -10.0712      2.00000
     16     -10.0712      2.00000
     17      -6.9256      2.00000
     18      -6.9256      2.00000
     19      -6.9027      2.00000
     20      -6.9027      2.00000
     21      -6.8939      2.00000
     22      -6.8939      2.00000
     23      -6.8782      2.00000
     24      -6.8782      2.00000
     25      -6.8522      2.00000
     26      -6.8522      2.00000
     27      -6.8339      2.00000
     28      -6.8339      2.00000
     29      -3.1510      2.00000
     30      -3.1510      2.00000
     31      -3.1487      2.00000
     32      -3.1487      2.00000
     33      -1.6202      2.00000
     34      -1.6202      2.00000
     35      -1.5901      2.00000
     36      -1.5901      2.00000
     37      -1.3207      2.00000
     38      -1.3207      2.00000
     39      -1.1886      2.00000
     40      -1.1886      2.00000
     41      -0.7813      2.00000
     42      -0.7813      2.00000
     43      -0.5675      2.00000
     44      -0.5675      2.00000
     45      -0.4866      2.00000
     46      -0.4866      2.00000
     47      -0.3808      2.00000
     48      -0.3808      2.00000
     49      -0.3673      2.00000
     50      -0.3673      2.00000
     51      -0.3649      2.00000
     52      -0.3649      2.00000
     53       0.0653      2.00000
     54       0.0653      2.00000
     55       0.1332      2.00000
     56       0.1332      2.00000
     57       0.1460      2.00000
     58       0.1460      2.00000
     59       0.1526      2.00000
     60       0.1526      2.00000
     61       2.4265      0.00000
     62       2.4265      0.00000
     63       2.4599      0.00000
     64       2.4599      0.00000
     65       5.3967      0.00000
     66       5.3967      0.00000
     67       5.4294      0.00000
     68       5.4294      0.00000
     69       5.8683      0.00000
     70       5.8683      0.00000
     71       6.1023      0.00000
     72       6.1023      0.00000
     73       6.2711      0.00000
     74       6.2711      0.00000
     75       6.5565      0.00000
     76       6.5565      0.00000
     77       6.6061      0.00000
     78       6.6061      0.00000
     79       6.6316      0.00000
     80       6.6316      0.00000
     81       6.7402      0.00000
     82       6.7402      0.00000
     83       6.8833      0.00000
     84       6.8833      0.00000
     85       6.9161      0.00000
     86       6.9161      0.00000
     87       7.3101      0.00000
     88       7.3101      0.00000
     89       7.3784      0.00000
     90       7.3784      0.00000
     91       7.7687      0.00000
     92       7.7687      0.00000
     93       7.8055      0.00000
     94       7.8055      0.00000
     95       7.9729      0.00000
     96       7.9729      0.00000
     97       8.4152      0.00000
     98       8.4152      0.00000
     99       8.5112      0.00000
    100       8.5112      0.00000
    101       8.6964      0.00000
    102       8.6964      0.00000
    103       9.0268      0.00000
    104       9.0268      0.00000
    105       9.0838      0.00000
    106       9.0838      0.00000
    107       9.3702      0.00000
    108       9.3702      0.00000
    109       9.5622      0.00000
    110       9.5622      0.00000
    111       9.6125      0.00000
    112       9.6125      0.00000
    113       9.7126      0.00000
    114       9.7126      0.00000
    115       9.9199      0.00000
    116       9.9199      0.00000
    117      10.1907      0.00000
    118      10.1907      0.00000
    119      10.3870      0.00000
    120      10.3870      0.00000
    121      10.5956      0.00000
    122      10.5956      0.00000
    123      10.6363      0.00000
    124      10.6363      0.00000
    125      11.0260      0.00000
    126      11.0260      0.00000
    127      11.0601      0.00000
    128      11.0601      0.00000
    129      11.1282      0.00000
    130      11.1282      0.00000
    131      11.4303      0.00000
    132      11.4303      0.00000
    133      11.5674      0.00000
    134      11.5674      0.00000
    135      11.7440      0.00000
    136      11.7440      0.00000
    137      11.8754      0.00000
    138      11.8754      0.00000
    139      12.1622      0.00000
    140      12.1622      0.00000
    141      12.3415      0.00000
    142      12.3415      0.00000
    143      12.4150      0.00000
    144      12.4150      0.00000

 k-point    65 :       0.0000    0.1111    0.5000
  band No.  band energies     occupation 
      1     -20.0575      2.00000
      2     -20.0575      2.00000
      3     -20.0553      2.00000
      4     -20.0553      2.00000
      5     -11.9286      2.00000
      6     -11.9286      2.00000
      7     -11.8299      2.00000
      8     -11.8299      2.00000
      9     -10.8577      2.00000
     10     -10.8577      2.00000
     11     -10.7577      2.00000
     12     -10.7577      2.00000
     13     -10.0920      2.00000
     14     -10.0920      2.00000
     15     -10.0528      2.00000
     16     -10.0528      2.00000
     17      -6.9211      2.00000
     18      -6.9211      2.00000
     19      -6.9008      2.00000
     20      -6.9008      2.00000
     21      -6.8866      2.00000
     22      -6.8866      2.00000
     23      -6.8708      2.00000
     24      -6.8708      2.00000
     25      -6.8598      2.00000
     26      -6.8598      2.00000
     27      -6.8436      2.00000
     28      -6.8436      2.00000
     29      -3.2484      2.00000
     30      -3.2484      2.00000
     31      -3.0295      2.00000
     32      -3.0295      2.00000
     33      -1.6457      2.00000
     34      -1.6457      2.00000
     35      -1.5242      2.00000
     36      -1.5242      2.00000
     37      -1.3722      2.00000
     38      -1.3722      2.00000
     39      -1.1530      2.00000
     40      -1.1530      2.00000
     41      -0.8758      2.00000
     42      -0.8758      2.00000
     43      -0.6729      2.00000
     44      -0.6729      2.00000
     45      -0.5952      2.00000
     46      -0.5952      2.00000
     47      -0.3593      2.00000
     48      -0.3593      2.00000
     49      -0.3153      2.00000
     50      -0.3153      2.00000
     51      -0.2851      2.00000
     52      -0.2851      2.00000
     53       0.0343      2.00000
     54       0.0343      2.00000
     55       0.0668      2.00000
     56       0.0668      2.00000
     57       0.2473      2.00000
     58       0.2473      2.00000
     59       0.3183      2.00000
     60       0.3183      2.00000
     61       2.3210      0.00000
     62       2.3210      0.00000
     63       2.4359      0.00000
     64       2.4359      0.00000
     65       5.2702      0.00000
     66       5.2702      0.00000
     67       5.7112      0.00000
     68       5.7112      0.00000
     69       5.8377      0.00000
     70       5.8377      0.00000
     71       6.1357      0.00000
     72       6.1357      0.00000
     73       6.1729      0.00000
     74       6.1729      0.00000
     75       6.4415      0.00000
     76       6.4415      0.00000
     77       6.5680      0.00000
     78       6.5680      0.00000
     79       6.7926      0.00000
     80       6.7926      0.00000
     81       6.9566      0.00000
     82       6.9566      0.00000
     83       7.0112      0.00000
     84       7.0112      0.00000
     85       7.1635      0.00000
     86       7.1635      0.00000
     87       7.3772      0.00000
     88       7.3772      0.00000
     89       7.4968      0.00000
     90       7.4968      0.00000
     91       7.7642      0.00000
     92       7.7642      0.00000
     93       7.8577      0.00000
     94       7.8577      0.00000
     95       8.0276      0.00000
     96       8.0276      0.00000
     97       8.2112      0.00000
     98       8.2112      0.00000
     99       8.3504      0.00000
    100       8.3504      0.00000
    101       8.6034      0.00000
    102       8.6034      0.00000
    103       8.7025      0.00000
    104       8.7025      0.00000
    105       8.8934      0.00000
    106       8.8934      0.00000
    107       8.9101      0.00000
    108       8.9101      0.00000
    109       9.1894      0.00000
    110       9.1894      0.00000
    111       9.4468      0.00000
    112       9.4468      0.00000
    113       9.6006      0.00000
    114       9.6006      0.00000
    115       9.8732      0.00000
    116       9.8732      0.00000
    117      10.0721      0.00000
    118      10.0721      0.00000
    119      10.5063      0.00000
    120      10.5063      0.00000
    121      10.5485      0.00000
    122      10.5485      0.00000
    123      10.6901      0.00000
    124      10.6901      0.00000
    125      10.8930      0.00000
    126      10.8930      0.00000
    127      11.1755      0.00000
    128      11.1755      0.00000
    129      11.2937      0.00000
    130      11.2937      0.00000
    131      11.6541      0.00000
    132      11.6541      0.00000
    133      11.8002      0.00000
    134      11.8002      0.00000
    135      11.9215      0.00000
    136      11.9215      0.00000
    137      12.0480      0.00000
    138      12.0480      0.00000
    139      12.2764      0.00000
    140      12.2764      0.00000
    141      12.4484      0.00000
    142      12.4484      0.00000
    143      12.5474      0.00000
    144      12.5476      0.00000

 k-point    66 :       0.1667    0.1111    0.5000
  band No.  band energies     occupation 
      1     -20.0575      2.00000
      2     -20.0575      2.00000
      3     -20.0553      2.00000
      4     -20.0553      2.00000
      5     -11.9250      2.00000
      6     -11.9250      2.00000
      7     -11.8349      2.00000
      8     -11.8349      2.00000
      9     -10.8507      2.00000
     10     -10.8507      2.00000
     11     -10.7616      2.00000
     12     -10.7616      2.00000
     13     -10.0908      2.00000
     14     -10.0908      2.00000
     15     -10.0564      2.00000
     16     -10.0564      2.00000
     17      -6.9208      2.00000
     18      -6.9208      2.00000
     19      -6.9020      2.00000
     20      -6.9020      2.00000
     21      -6.8867      2.00000
     22      -6.8867      2.00000
     23      -6.8734      2.00000
     24      -6.8734      2.00000
     25      -6.8578      2.00000
     26      -6.8578      2.00000
     27      -6.8410      2.00000
     28      -6.8410      2.00000
     29      -3.2357      2.00000
     30      -3.2357      2.00000
     31      -3.0476      2.00000
     32      -3.0476      2.00000
     33      -1.6390      2.00000
     34      -1.6390      2.00000
     35      -1.5466      2.00000
     36      -1.5466      2.00000
     37      -1.3547      2.00000
     38      -1.3547      2.00000
     39      -1.1669      2.00000
     40      -1.1669      2.00000
     41      -0.8564      2.00000
     42      -0.8564      2.00000
     43      -0.6486      2.00000
     44      -0.6486      2.00000
     45      -0.5755      2.00000
     46      -0.5755      2.00000
     47      -0.3621      2.00000
     48      -0.3621      2.00000
     49      -0.3286      2.00000
     50      -0.3286      2.00000
     51      -0.2850      2.00000
     52      -0.2850      2.00000
     53       0.0132      2.00000
     54       0.0132      2.00000
     55       0.0805      2.00000
     56       0.0805      2.00000
     57       0.2328      2.00000
     58       0.2328      2.00000
     59       0.2930      2.00000
     60       0.2930      2.00000
     61       2.3448      0.00000
     62       2.3448      0.00000
     63       2.4450      0.00000
     64       2.4450      0.00000
     65       5.2896      0.00000
     66       5.2896      0.00000
     67       5.6889      0.00000
     68       5.6889      0.00000
     69       5.8293      0.00000
     70       5.8293      0.00000
     71       6.1038      0.00000
     72       6.1038      0.00000
     73       6.2066      0.00000
     74       6.2066      0.00000
     75       6.4576      0.00000
     76       6.4576      0.00000
     77       6.5422      0.00000
     78       6.5422      0.00000
     79       6.7609      0.00000
     80       6.7609      0.00000
     81       6.9268      0.00000
     82       6.9268      0.00000
     83       6.9904      0.00000
     84       6.9904      0.00000
     85       7.1695      0.00000
     86       7.1695      0.00000
     87       7.2974      0.00000
     88       7.2974      0.00000
     89       7.5118      0.00000
     90       7.5118      0.00000
     91       7.6904      0.00000
     92       7.6904      0.00000
     93       7.8229      0.00000
     94       7.8229      0.00000
     95       8.1029      0.00000
     96       8.1029      0.00000
     97       8.2313      0.00000
     98       8.2313      0.00000
     99       8.3353      0.00000
    100       8.3353      0.00000
    101       8.6184      0.00000
    102       8.6184      0.00000
    103       8.6873      0.00000
    104       8.6873      0.00000
    105       8.8687      0.00000
    106       8.8687      0.00000
    107       9.1715      0.00000
    108       9.1715      0.00000
    109       9.2853      0.00000
    110       9.2853      0.00000
    111       9.5057      0.00000
    112       9.5057      0.00000
    113       9.6627      0.00000
    114       9.6627      0.00000
    115       9.8509      0.00000
    116       9.8509      0.00000
    117      10.1739      0.00000
    118      10.1739      0.00000
    119      10.4392      0.00000
    120      10.4392      0.00000
    121      10.5979      0.00000
    122      10.5979      0.00000
    123      10.6690      0.00000
    124      10.6690      0.00000
    125      10.8569      0.00000
    126      10.8569      0.00000
    127      11.1096      0.00000
    128      11.1096      0.00000
    129      11.3608      0.00000
    130      11.3608      0.00000
    131      11.5662      0.00000
    132      11.5662      0.00000
    133      11.6303      0.00000
    134      11.6303      0.00000
    135      11.9008      0.00000
    136      11.9008      0.00000
    137      12.1259      0.00000
    138      12.1259      0.00000
    139      12.1909      0.00000
    140      12.1909      0.00000
    141      12.4324      0.00000
    142      12.4324      0.00000
    143      12.4998      0.00000
    144      12.4998      0.00000

 k-point    67 :       0.3333    0.1111    0.5000
  band No.  band energies     occupation 
      1     -20.0575      2.00000
      2     -20.0575      2.00000
      3     -20.0553      2.00000
      4     -20.0553      2.00000
      5     -11.9164      2.00000
      6     -11.9164      2.00000
      7     -11.8462      2.00000
      8     -11.8462      2.00000
      9     -10.8339      2.00000
     10     -10.8339      2.00000
     11     -10.7721      2.00000
     12     -10.7721      2.00000
     13     -10.0868      2.00000
     14     -10.0868      2.00000
     15     -10.0650      2.00000
     16     -10.0650      2.00000
     17      -6.9202      2.00000
     18      -6.9202      2.00000
     19      -6.9045      2.00000
     20      -6.9045      2.00000
     21      -6.8866      2.00000
     22      -6.8866      2.00000
     23      -6.8777      2.00000
     24      -6.8777      2.00000
     25      -6.8542      2.00000
     26      -6.8542      2.00000
     27      -6.8367      2.00000
     28      -6.8367      2.00000
     29      -3.2002      2.00000
     30      -3.2002      2.00000
     31      -3.0934      2.00000
     32      -3.0934      2.00000
     33      -1.6271      2.00000
     34      -1.6271      2.00000
     35      -1.5850      2.00000
     36      -1.5850      2.00000
     37      -1.3250      2.00000
     38      -1.3250      2.00000
     39      -1.1910      2.00000
     40      -1.1910      2.00000
     41      -0.8088      2.00000
     42      -0.8088      2.00000
     43      -0.6052      2.00000
     44      -0.6052      2.00000
     45      -0.5289      2.00000
     46      -0.5289      2.00000
     47      -0.3806      2.00000
     48      -0.3806      2.00000
     49      -0.3470      2.00000
     50      -0.3470      2.00000
     51      -0.3086      2.00000
     52      -0.3086      2.00000
     53       0.0135      2.00000
     54       0.0135      2.00000
     55       0.1056      2.00000
     56       0.1056      2.00000
     57       0.1891      2.00000
     58       0.1891      2.00000
     59       0.2313      2.00000
     60       0.2313      2.00000
     61       2.3964      0.00000
     62       2.3964      0.00000
     63       2.4590      0.00000
     64       2.4590      0.00000
     65       5.3492      0.00000
     66       5.3492      0.00000
     67       5.5898      0.00000
     68       5.5898      0.00000
     69       5.8353      0.00000
     70       5.8353      0.00000
     71       6.1110      0.00000
     72       6.1110      0.00000
     73       6.2363      0.00000
     74       6.2363      0.00000
     75       6.4521      0.00000
     76       6.4521      0.00000
     77       6.5697      0.00000
     78       6.5697      0.00000
     79       6.6823      0.00000
     80       6.6823      0.00000
     81       6.8345      0.00000
     82       6.8345      0.00000
     83       6.9460      0.00000
     84       6.9460      0.00000
     85       7.0867      0.00000
     86       7.0867      0.00000
     87       7.2523      0.00000
     88       7.2523      0.00000
     89       7.4068      0.00000
     90       7.4068      0.00000
     91       7.6078      0.00000
     92       7.6078      0.00000
     93       7.8849      0.00000
     94       7.8849      0.00000
     95       8.1236      0.00000
     96       8.1236      0.00000
     97       8.2648      0.00000
     98       8.2648      0.00000
     99       8.3820      0.00000
    100       8.3820      0.00000
    101       8.6940      0.00000
    102       8.6940      0.00000
    103       8.8354      0.00000
    104       8.8354      0.00000
    105       8.9644      0.00000
    106       8.9644      0.00000
    107       9.3592      0.00000
    108       9.3592      0.00000
    109       9.4188      0.00000
    110       9.4188      0.00000
    111       9.5841      0.00000
    112       9.5841      0.00000
    113       9.7579      0.00000
    114       9.7579      0.00000
    115       9.8699      0.00000
    116       9.8699      0.00000
    117      10.2633      0.00000
    118      10.2633      0.00000
    119      10.4263      0.00000
    120      10.4263      0.00000
    121      10.5335      0.00000
    122      10.5335      0.00000
    123      10.7373      0.00000
    124      10.7373      0.00000
    125      10.8587      0.00000
    126      10.8587      0.00000
    127      11.1306      0.00000
    128      11.1306      0.00000
    129      11.2350      0.00000
    130      11.2350      0.00000
    131      11.4638      0.00000
    132      11.4638      0.00000
    133      11.5720      0.00000
    134      11.5720      0.00000
    135      11.8056      0.00000
    136      11.8056      0.00000
    137      12.0080      0.00000
    138      12.0080      0.00000
    139      12.1063      0.00000
    140      12.1063      0.00000
    141      12.3542      0.00000
    142      12.3542      0.00000
    143      12.5418      0.00000
    144      12.5433      0.00000

 k-point    68 :       0.5000    0.1111    0.5000
  band No.  band energies     occupation 
      1     -20.0575      2.00000
      2     -20.0575      2.00000
      3     -20.0553      2.00000
      4     -20.0553      2.00000
      5     -11.9108      2.00000
      6     -11.9108      2.00000
      7     -11.8531      2.00000
      8     -11.8531      2.00000
      9     -10.8225      2.00000
     10     -10.8225      2.00000
     11     -10.7803      2.00000
     12     -10.7803      2.00000
     13     -10.0827      2.00000
     14     -10.0827      2.00000
     15     -10.0715      2.00000
     16     -10.0715      2.00000
     17      -6.9197      2.00000
     18      -6.9197      2.00000
     19      -6.9057      2.00000
     20      -6.9057      2.00000
     21      -6.8865      2.00000
     22      -6.8865      2.00000
     23      -6.8795      2.00000
     24      -6.8795      2.00000
     25      -6.8525      2.00000
     26      -6.8525      2.00000
     27      -6.8348      2.00000
     28      -6.8348      2.00000
     29      -3.1500      2.00000
     30      -3.1500      2.00000
     31      -3.1484      2.00000
     32      -3.1484      2.00000
     33      -1.6214      2.00000
     34      -1.6214      2.00000
     35      -1.6027      2.00000
     36      -1.6027      2.00000
     37      -1.3120      2.00000
     38      -1.3120      2.00000
     39      -1.2018      2.00000
     40      -1.2018      2.00000
     41      -0.7776      2.00000
     42      -0.7776      2.00000
     43      -0.5859      2.00000
     44      -0.5859      2.00000
     45      -0.4845      2.00000
     46      -0.4845      2.00000
     47      -0.4211      2.00000
     48      -0.4211      2.00000
     49      -0.3600      2.00000
     50      -0.3600      2.00000
     51      -0.3225      2.00000
     52      -0.3225      2.00000
     53       0.0712      2.00000
     54       0.0712      2.00000
     55       0.0921      2.00000
     56       0.0921      2.00000
     57       0.1569      2.00000
     58       0.1569      2.00000
     59       0.1894      2.00000
     60       0.1894      2.00000
     61       2.4284      0.00000
     62       2.4284      0.00000
     63       2.4599      0.00000
     64       2.4599      0.00000
     65       5.4453      0.00000
     66       5.4453      0.00000
     67       5.4633      0.00000
     68       5.4633      0.00000
     69       5.8516      0.00000
     70       5.8516      0.00000
     71       6.1373      0.00000
     72       6.1373      0.00000
     73       6.2176      0.00000
     74       6.2176      0.00000
     75       6.4678      0.00000
     76       6.4678      0.00000
     77       6.6045      0.00000
     78       6.6045      0.00000
     79       6.6570      0.00000
     80       6.6570      0.00000
     81       6.7894      0.00000
     82       6.7894      0.00000
     83       6.9205      0.00000
     84       6.9205      0.00000
     85       6.9751      0.00000
     86       6.9751      0.00000
     87       7.2132      0.00000
     88       7.2132      0.00000
     89       7.3770      0.00000
     90       7.3770      0.00000
     91       7.6220      0.00000
     92       7.6220      0.00000
     93       7.8936      0.00000
     94       7.8936      0.00000
     95       8.0771      0.00000
     96       8.0771      0.00000
     97       8.2663      0.00000
     98       8.2663      0.00000
     99       8.6080      0.00000
    100       8.6080      0.00000
    101       8.6253      0.00000
    102       8.6253      0.00000
    103       8.9413      0.00000
    104       8.9413      0.00000
    105       9.0959      0.00000
    106       9.0959      0.00000
    107       9.3290      0.00000
    108       9.3290      0.00000
    109       9.4362      0.00000
    110       9.4362      0.00000
    111       9.5956      0.00000
    112       9.5956      0.00000
    113       9.8013      0.00000
    114       9.8013      0.00000
    115       9.9283      0.00000
    116       9.9283      0.00000
    117      10.1912      0.00000
    118      10.1912      0.00000
    119      10.3858      0.00000
    120      10.3858      0.00000
    121      10.6529      0.00000
    122      10.6529      0.00000
    123      10.7266      0.00000
    124      10.7266      0.00000
    125      11.0312      0.00000
    126      11.0312      0.00000
    127      11.0353      0.00000
    128      11.0353      0.00000
    129      11.2991      0.00000
    130      11.2991      0.00000
    131      11.3060      0.00000
    132      11.3060      0.00000
    133      11.6160      0.00000
    134      11.6160      0.00000
    135      11.7371      0.00000
    136      11.7371      0.00000
    137      11.8685      0.00000
    138      11.8685      0.00000
    139      12.1850      0.00000
    140      12.1850      0.00000
    141      12.3371      0.00000
    142      12.3372      0.00000
    143      12.3541      0.00000
    144      12.3542      0.00000

 k-point    69 :       0.0000    0.2222    0.5000
  band No.  band energies     occupation 
      1     -20.0572      2.00000
      2     -20.0572      2.00000
      3     -20.0554      2.00000
      4     -20.0554      2.00000
      5     -11.9268      2.00000
      6     -11.9268      2.00000
      7     -11.8337      2.00000
      8     -11.8337      2.00000
      9     -10.8585      2.00000
     10     -10.8585      2.00000
     11     -10.7604      2.00000
     12     -10.7604      2.00000
     13     -10.0905      2.00000
     14     -10.0905      2.00000
     15     -10.0545      2.00000
     16     -10.0545      2.00000
     17      -6.9089      2.00000
     18      -6.9089      2.00000
     19      -6.9000      2.00000
     20      -6.9000      2.00000
     21      -6.8769      2.00000
     22      -6.8769      2.00000
     23      -6.8708      2.00000
     24      -6.8708      2.00000
     25      -6.8609      2.00000
     26      -6.8609      2.00000
     27      -6.8455      2.00000
     28      -6.8455      2.00000
     29      -3.2412      2.00000
     30      -3.2412      2.00000
     31      -3.0310      2.00000
     32      -3.0310      2.00000
     33      -1.7155      2.00000
     34      -1.7155      2.00000
     35      -1.5264      2.00000
     36      -1.5264      2.00000
     37      -1.3381      2.00000
     38      -1.3381      2.00000
     39      -1.1590      2.00000
     40      -1.1590      2.00000
     41      -0.8863      2.00000
     42      -0.8863      2.00000
     43      -0.6874      2.00000
     44      -0.6874      2.00000
     45      -0.5274      2.00000
     46      -0.5274      2.00000
     47      -0.3854      2.00000
     48      -0.3854      2.00000
     49      -0.3276      2.00000
     50      -0.3276      2.00000
     51      -0.3029      2.00000
     52      -0.3029      2.00000
     53       0.0201      2.00000
     54       0.0201      2.00000
     55       0.1163      2.00000
     56       0.1163      2.00000
     57       0.2254      2.00000
     58       0.2254      2.00000
     59       0.3245      2.00000
     60       0.3245      2.00000
     61       2.3365      0.00000
     62       2.3365      0.00000
     63       2.4462      0.00000
     64       2.4462      0.00000
     65       5.4484      0.00000
     66       5.4484      0.00000
     67       5.6669      0.00000
     68       5.6669      0.00000
     69       5.8640      0.00000
     70       5.8640      0.00000
     71       6.0691      0.00000
     72       6.0691      0.00000
     73       6.2910      0.00000
     74       6.2910      0.00000
     75       6.3919      0.00000
     76       6.3919      0.00000
     77       6.5682      0.00000
     78       6.5682      0.00000
     79       6.7406      0.00000
     80       6.7406      0.00000
     81       6.9009      0.00000
     82       6.9009      0.00000
     83       7.0080      0.00000
     84       7.0080      0.00000
     85       7.1605      0.00000
     86       7.1605      0.00000
     87       7.2285      0.00000
     88       7.2285      0.00000
     89       7.4714      0.00000
     90       7.4714      0.00000
     91       7.7373      0.00000
     92       7.7373      0.00000
     93       7.9275      0.00000
     94       7.9275      0.00000
     95       8.0742      0.00000
     96       8.0742      0.00000
     97       8.1541      0.00000
     98       8.1541      0.00000
     99       8.4168      0.00000
    100       8.4168      0.00000
    101       8.6202      0.00000
    102       8.6202      0.00000
    103       8.6412      0.00000
    104       8.6412      0.00000
    105       8.7810      0.00000
    106       8.7810      0.00000
    107       8.9531      0.00000
    108       8.9531      0.00000
    109       9.1809      0.00000
    110       9.1809      0.00000
    111       9.3483      0.00000
    112       9.3483      0.00000
    113       9.5943      0.00000
    114       9.5943      0.00000
    115       9.9288      0.00000
    116       9.9288      0.00000
    117       9.9756      0.00000
    118       9.9756      0.00000
    119      10.3176      0.00000
    120      10.3176      0.00000
    121      10.5524      0.00000
    122      10.5524      0.00000
    123      10.7714      0.00000
    124      10.7714      0.00000
    125      10.9022      0.00000
    126      10.9022      0.00000
    127      11.1920      0.00000
    128      11.1920      0.00000
    129      11.3214      0.00000
    130      11.3214      0.00000
    131      11.6671      0.00000
    132      11.6671      0.00000
    133      11.7806      0.00000
    134      11.7806      0.00000
    135      11.8288      0.00000
    136      11.8288      0.00000
    137      12.0422      0.00000
    138      12.0422      0.00000
    139      12.3104      0.00000
    140      12.3104      0.00000
    141      12.4562      0.00000
    142      12.4562      0.00000
    143      12.6024      0.00000
    144      12.6025      0.00000

 k-point    70 :       0.1667    0.2222    0.5000
  band No.  band energies     occupation 
      1     -20.0572      2.00000
      2     -20.0572      2.00000
      3     -20.0555      2.00000
      4     -20.0555      2.00000
      5     -11.9229      2.00000
      6     -11.9229      2.00000
      7     -11.8390      2.00000
      8     -11.8390      2.00000
      9     -10.8512      2.00000
     10     -10.8512      2.00000
     11     -10.7646      2.00000
     12     -10.7646      2.00000
     13     -10.0894      2.00000
     14     -10.0894      2.00000
     15     -10.0579      2.00000
     16     -10.0579      2.00000
     17      -6.9090      2.00000
     18      -6.9090      2.00000
     19      -6.9011      2.00000
     20      -6.9011      2.00000
     21      -6.8784      2.00000
     22      -6.8784      2.00000
     23      -6.8720      2.00000
     24      -6.8720      2.00000
     25      -6.8584      2.00000
     26      -6.8584      2.00000
     27      -6.8431      2.00000
     28      -6.8431      2.00000
     29      -3.2292      2.00000
     30      -3.2292      2.00000
     31      -3.0490      2.00000
     32      -3.0490      2.00000
     33      -1.6998      2.00000
     34      -1.6998      2.00000
     35      -1.5486      2.00000
     36      -1.5486      2.00000
     37      -1.3246      2.00000
     38      -1.3246      2.00000
     39      -1.1796      2.00000
     40      -1.1796      2.00000
     41      -0.8587      2.00000
     42      -0.8587      2.00000
     43      -0.6653      2.00000
     44      -0.6653      2.00000
     45      -0.5338      2.00000
     46      -0.5338      2.00000
     47      -0.3886      2.00000
     48      -0.3886      2.00000
     49      -0.3399      2.00000
     50      -0.3399      2.00000
     51      -0.2816      2.00000
     52      -0.2816      2.00000
     53      -0.0032      2.00000
     54      -0.0032      2.00000
     55       0.1290      2.00000
     56       0.1290      2.00000
     57       0.2173      2.00000
     58       0.2173      2.00000
     59       0.2995      2.00000
     60       0.2995      2.00000
     61       2.3573      0.00000
     62       2.3573      0.00000
     63       2.4530      0.00000
     64       2.4530      0.00000
     65       5.4618      0.00000
     66       5.4618      0.00000
     67       5.6619      0.00000
     68       5.6619      0.00000
     69       5.8708      0.00000
     70       5.8708      0.00000
     71       6.0439      0.00000
     72       6.0439      0.00000
     73       6.2982      0.00000
     74       6.2982      0.00000
     75       6.4058      0.00000
     76       6.4058      0.00000
     77       6.5401      0.00000
     78       6.5401      0.00000
     79       6.7272      0.00000
     80       6.7272      0.00000
     81       6.8750      0.00000
     82       6.8750      0.00000
     83       7.0193      0.00000
     84       7.0193      0.00000
     85       7.0764      0.00000
     86       7.0764      0.00000
     87       7.2114      0.00000
     88       7.2114      0.00000
     89       7.4814      0.00000
     90       7.4814      0.00000
     91       7.6896      0.00000
     92       7.6896      0.00000
     93       7.8525      0.00000
     94       7.8525      0.00000
     95       8.0967      0.00000
     96       8.0967      0.00000
     97       8.1972      0.00000
     98       8.1972      0.00000
     99       8.4255      0.00000
    100       8.4255      0.00000
    101       8.5982      0.00000
    102       8.5982      0.00000
    103       8.6226      0.00000
    104       8.6226      0.00000
    105       8.7971      0.00000
    106       8.7971      0.00000
    107       9.1465      0.00000
    108       9.1465      0.00000
    109       9.2543      0.00000
    110       9.2543      0.00000
    111       9.4232      0.00000
    112       9.4232      0.00000
    113       9.6877      0.00000
    114       9.6877      0.00000
    115       9.9579      0.00000
    116       9.9579      0.00000
    117      10.0266      0.00000
    118      10.0266      0.00000
    119      10.3193      0.00000
    120      10.3193      0.00000
    121      10.5751      0.00000
    122      10.5751      0.00000
    123      10.7743      0.00000
    124      10.7743      0.00000
    125      10.9137      0.00000
    126      10.9137      0.00000
    127      11.1676      0.00000
    128      11.1676      0.00000
    129      11.2762      0.00000
    130      11.2762      0.00000
    131      11.6272      0.00000
    132      11.6272      0.00000
    133      11.7310      0.00000
    134      11.7310      0.00000
    135      11.8544      0.00000
    136      11.8544      0.00000
    137      11.9457      0.00000
    138      11.9457      0.00000
    139      12.1376      0.00000
    140      12.1376      0.00000
    141      12.4893      0.00000
    142      12.4893      0.00000
    143      12.6579      0.00000
    144      12.6643      0.00000

 k-point    71 :       0.3333    0.2222    0.5000
  band No.  band energies     occupation 
      1     -20.0572      2.00000
      2     -20.0572      2.00000
      3     -20.0555      2.00000
      4     -20.0555      2.00000
      5     -11.9131      2.00000
      6     -11.9131      2.00000
      7     -11.8514      2.00000
      8     -11.8514      2.00000
      9     -10.8334      2.00000
     10     -10.8334      2.00000
     11     -10.7762      2.00000
     12     -10.7762      2.00000
     13     -10.0857      2.00000
     14     -10.0857      2.00000
     15     -10.0661      2.00000
     16     -10.0661      2.00000
     17      -6.9086      2.00000
     18      -6.9086      2.00000
     19      -6.9037      2.00000
     20      -6.9037      2.00000
     21      -6.8811      2.00000
     22      -6.8811      2.00000
     23      -6.8733      2.00000
     24      -6.8733      2.00000
     25      -6.8542      2.00000
     26      -6.8542      2.00000
     27      -6.8390      2.00000
     28      -6.8390      2.00000
     29      -3.1958      2.00000
     30      -3.1958      2.00000
     31      -3.0937      2.00000
     32      -3.0937      2.00000
     33      -1.6659      2.00000
     34      -1.6659      2.00000
     35      -1.5908      2.00000
     36      -1.5908      2.00000
     37      -1.3027      2.00000
     38      -1.3027      2.00000
     39      -1.2136      2.00000
     40      -1.2136      2.00000
     41      -0.7995      2.00000
     42      -0.7995      2.00000
     43      -0.6324      2.00000
     44      -0.6324      2.00000
     45      -0.5323      2.00000
     46      -0.5323      2.00000
     47      -0.4165      2.00000
     48      -0.4165      2.00000
     49      -0.3325      2.00000
     50      -0.3325      2.00000
     51      -0.2791      2.00000
     52      -0.2791      2.00000
     53      -0.0037      2.00000
     54      -0.0037      2.00000
     55       0.1393      2.00000
     56       0.1393      2.00000
     57       0.1894      2.00000
     58       0.1894      2.00000
     59       0.2462      2.00000
     60       0.2462      2.00000
     61       2.4033      0.00000
     62       2.4033      0.00000
     63       2.4621      0.00000
     64       2.4621      0.00000
     65       5.5017      0.00000
     66       5.5017      0.00000
     67       5.6324      0.00000
     68       5.6324      0.00000
     69       5.8570      0.00000
     70       5.8570      0.00000
     71       6.0695      0.00000
     72       6.0695      0.00000
     73       6.2736      0.00000
     74       6.2736      0.00000
     75       6.4077      0.00000
     76       6.4077      0.00000
     77       6.5593      0.00000
     78       6.5593      0.00000
     79       6.6472      0.00000
     80       6.6472      0.00000
     81       6.8397      0.00000
     82       6.8397      0.00000
     83       6.9715      0.00000
     84       6.9715      0.00000
     85       7.0404      0.00000
     86       7.0404      0.00000
     87       7.1539      0.00000
     88       7.1539      0.00000
     89       7.3721      0.00000
     90       7.3721      0.00000
     91       7.5300      0.00000
     92       7.5300      0.00000
     93       7.9593      0.00000
     94       7.9593      0.00000
     95       8.1261      0.00000
     96       8.1261      0.00000
     97       8.1534      0.00000
     98       8.1534      0.00000
     99       8.4281      0.00000
    100       8.4281      0.00000
    101       8.6680      0.00000
    102       8.6680      0.00000
    103       8.7580      0.00000
    104       8.7580      0.00000
    105       8.8947      0.00000
    106       8.8947      0.00000
    107       9.2743      0.00000
    108       9.2743      0.00000
    109       9.3793      0.00000
    110       9.3793      0.00000
    111       9.5362      0.00000
    112       9.5362      0.00000
    113       9.8839      0.00000
    114       9.8839      0.00000
    115       9.9081      0.00000
    116       9.9081      0.00000
    117      10.1533      0.00000
    118      10.1533      0.00000
    119      10.4207      0.00000
    120      10.4207      0.00000
    121      10.5639      0.00000
    122      10.5639      0.00000
    123      10.8394      0.00000
    124      10.8394      0.00000
    125      10.9554      0.00000
    126      10.9554      0.00000
    127      11.0504      0.00000
    128      11.0504      0.00000
    129      11.3143      0.00000
    130      11.3143      0.00000
    131      11.4445      0.00000
    132      11.4445      0.00000
    133      11.7063      0.00000
    134      11.7063      0.00000
    135      11.7948      0.00000
    136      11.7948      0.00000
    137      11.9214      0.00000
    138      11.9214      0.00000
    139      12.0941      0.00000
    140      12.0941      0.00000
    141      12.3828      0.00000
    142      12.3830      0.00000
    143      12.5168      0.00000
    144      12.5230      0.00000

 k-point    72 :       0.5000    0.2222    0.5000
  band No.  band energies     occupation 
      1     -20.0572      2.00000
      2     -20.0572      2.00000
      3     -20.0555      2.00000
      4     -20.0555      2.00000
      5     -11.9064      2.00000
      6     -11.9064      2.00000
      7     -11.8594      2.00000
      8     -11.8594      2.00000
      9     -10.8203      2.00000
     10     -10.8203      2.00000
     11     -10.7861      2.00000
     12     -10.7861      2.00000
     13     -10.0817      2.00000
     14     -10.0817      2.00000
     15     -10.0725      2.00000
     16     -10.0725      2.00000
     17      -6.9078      2.00000
     18      -6.9078      2.00000
     19      -6.9057      2.00000
     20      -6.9057      2.00000
     21      -6.8822      2.00000
     22      -6.8822      2.00000
     23      -6.8738      2.00000
     24      -6.8738      2.00000
     25      -6.8523      2.00000
     26      -6.8523      2.00000
     27      -6.8373      2.00000
     28      -6.8373      2.00000
     29      -3.1475      2.00000
     30      -3.1475      2.00000
     31      -3.1473      2.00000
     32      -3.1473      2.00000
     33      -1.6317      2.00000
     34      -1.6317      2.00000
     35      -1.6280      2.00000
     36      -1.6280      2.00000
     37      -1.2924      2.00000
     38      -1.2924      2.00000
     39      -1.2290      2.00000
     40      -1.2290      2.00000
     41      -0.7646      2.00000
     42      -0.7646      2.00000
     43      -0.6274      2.00000
     44      -0.6274      2.00000
     45      -0.4933      2.00000
     46      -0.4933      2.00000
     47      -0.4656      2.00000
     48      -0.4656      2.00000
     49      -0.3344      2.00000
     50      -0.3344      2.00000
     51      -0.2832      2.00000
     52      -0.2832      2.00000
     53       0.0595      2.00000
     54       0.0595      2.00000
     55       0.0841      2.00000
     56       0.0841      2.00000
     57       0.1834      2.00000
     58       0.1834      2.00000
     59       0.2205      2.00000
     60       0.2205      2.00000
     61       2.4335      0.00000
     62       2.4335      0.00000
     63       2.4595      0.00000
     64       2.4595      0.00000
     65       5.5631      0.00000
     66       5.5631      0.00000
     67       5.5696      0.00000
     68       5.5696      0.00000
     69       5.8506      0.00000
     70       5.8506      0.00000
     71       6.1149      0.00000
     72       6.1149      0.00000
     73       6.2342      0.00000
     74       6.2342      0.00000
     75       6.3879      0.00000
     76       6.3879      0.00000
     77       6.5992      0.00000
     78       6.5992      0.00000
     79       6.6386      0.00000
     80       6.6386      0.00000
     81       6.8415      0.00000
     82       6.8415      0.00000
     83       6.8700      0.00000
     84       6.8700      0.00000
     85       7.0549      0.00000
     86       7.0549      0.00000
     87       7.1067      0.00000
     88       7.1067      0.00000
     89       7.3127      0.00000
     90       7.3127      0.00000
     91       7.4667      0.00000
     92       7.4667      0.00000
     93       8.0152      0.00000
     94       8.0152      0.00000
     95       8.0810      0.00000
     96       8.0810      0.00000
     97       8.2167      0.00000
     98       8.2167      0.00000
     99       8.3868      0.00000
    100       8.3868      0.00000
    101       8.7466      0.00000
    102       8.7466      0.00000
    103       8.9016      0.00000
    104       8.9016      0.00000
    105       8.9670      0.00000
    106       8.9670      0.00000
    107       9.2842      0.00000
    108       9.2842      0.00000
    109       9.3267      0.00000
    110       9.3267      0.00000
    111       9.6438      0.00000
    112       9.6438      0.00000
    113       9.8126      0.00000
    114       9.8126      0.00000
    115       9.9919      0.00000
    116       9.9919      0.00000
    117      10.2674      0.00000
    118      10.2674      0.00000
    119      10.3592      0.00000
    120      10.3592      0.00000
    121      10.6993      0.00000
    122      10.6993      0.00000
    123      10.7826      0.00000
    124      10.7826      0.00000
    125      11.0078      0.00000
    126      11.0078      0.00000
    127      11.0638      0.00000
    128      11.0638      0.00000
    129      11.2914      0.00000
    130      11.2914      0.00000
    131      11.4191      0.00000
    132      11.4191      0.00000
    133      11.6902      0.00000
    134      11.6902      0.00000
    135      11.8416      0.00000
    136      11.8416      0.00000
    137      11.8574      0.00000
    138      11.8574      0.00000
    139      12.1890      0.00000
    140      12.1890      0.00000
    141      12.1921      0.00000
    142      12.1921      0.00000
    143      12.3962      0.00000
    144      12.4260      0.00000

 k-point    73 :       0.0000    0.3333    0.5000
  band No.  band energies     occupation 
      1     -20.0569      2.00000
      2     -20.0569      2.00000
      3     -20.0557      2.00000
      4     -20.0557      2.00000
      5     -11.9245      2.00000
      6     -11.9245      2.00000
      7     -11.8381      2.00000
      8     -11.8381      2.00000
      9     -10.8595      2.00000
     10     -10.8595      2.00000
     11     -10.7635      2.00000
     12     -10.7635      2.00000
     13     -10.0887      2.00000
     14     -10.0887      2.00000
     15     -10.0564      2.00000
     16     -10.0564      2.00000
     17      -6.9004      2.00000
     18      -6.9004      2.00000
     19      -6.8946      2.00000
     20      -6.8946      2.00000
     21      -6.8759      2.00000
     22      -6.8759      2.00000
     23      -6.8687      2.00000
     24      -6.8687      2.00000
     25      -6.8554      2.00000
     26      -6.8554      2.00000
     27      -6.8455      2.00000
     28      -6.8455      2.00000
     29      -3.2327      2.00000
     30      -3.2327      2.00000
     31      -3.0327      2.00000
     32      -3.0327      2.00000
     33      -1.7738      2.00000
     34      -1.7738      2.00000
     35      -1.5410      2.00000
     36      -1.5410      2.00000
     37      -1.3193      2.00000
     38      -1.3193      2.00000
     39      -1.1476      2.00000
     40      -1.1476      2.00000
     41      -0.9003      2.00000
     42      -0.9003      2.00000
     43      -0.6999      2.00000
     44      -0.6999      2.00000
     45      -0.4725      2.00000
     46      -0.4725      2.00000
     47      -0.3927      2.00000
     48      -0.3927      2.00000
     49      -0.3534      2.00000
     50      -0.3534      2.00000
     51      -0.3147      2.00000
     52      -0.3147      2.00000
     53       0.0033      2.00000
     54       0.0033      2.00000
     55       0.1582      2.00000
     56       0.1582      2.00000
     57       0.2105      2.00000
     58       0.2105      2.00000
     59       0.3322      2.00000
     60       0.3322      2.00000
     61       2.3522      0.00000
     62       2.3522      0.00000
     63       2.4569      0.00000
     64       2.4569      0.00000
     65       5.6612      0.00000
     66       5.6612      0.00000
     67       5.7084      0.00000
     68       5.7084      0.00000
     69       5.8651      0.00000
     70       5.8651      0.00000
     71       6.0795      0.00000
     72       6.0795      0.00000
     73       6.3044      0.00000
     74       6.3044      0.00000
     75       6.4045      0.00000
     76       6.4045      0.00000
     77       6.5611      0.00000
     78       6.5611      0.00000
     79       6.6917      0.00000
     80       6.6917      0.00000
     81       6.7725      0.00000
     82       6.7725      0.00000
     83       6.9144      0.00000
     84       6.9144      0.00000
     85       7.0919      0.00000
     86       7.0919      0.00000
     87       7.2297      0.00000
     88       7.2297      0.00000
     89       7.5579      0.00000
     90       7.5579      0.00000
     91       7.6030      0.00000
     92       7.6030      0.00000
     93       7.8399      0.00000
     94       7.8399      0.00000
     95       7.9061      0.00000
     96       7.9061      0.00000
     97       8.2062      0.00000
     98       8.2062      0.00000
     99       8.5406      0.00000
    100       8.5406      0.00000
    101       8.5835      0.00000
    102       8.5835      0.00000
    103       8.6575      0.00000
    104       8.6575      0.00000
    105       8.7815      0.00000
    106       8.7815      0.00000
    107       8.8699      0.00000
    108       8.8699      0.00000
    109       9.2339      0.00000
    110       9.2339      0.00000
    111       9.3280      0.00000
    112       9.3280      0.00000
    113       9.4679      0.00000
    114       9.4679      0.00000
    115      10.0151      0.00000
    116      10.0151      0.00000
    117      10.0694      0.00000
    118      10.0694      0.00000
    119      10.3177      0.00000
    120      10.3177      0.00000
    121      10.5744      0.00000
    122      10.5744      0.00000
    123      10.7511      0.00000
    124      10.7511      0.00000
    125      10.8950      0.00000
    126      10.8950      0.00000
    127      11.1714      0.00000
    128      11.1714      0.00000
    129      11.3088      0.00000
    130      11.3088      0.00000
    131      11.5378      0.00000
    132      11.5378      0.00000
    133      11.7673      0.00000
    134      11.7673      0.00000
    135      11.9646      0.00000
    136      11.9646      0.00000
    137      12.1060      0.00000
    138      12.1060      0.00000
    139      12.1434      0.00000
    140      12.1434      0.00000
    141      12.3445      0.00000
    142      12.3445      0.00000
    143      12.6941      0.00000
    144      12.6942      0.00000

 k-point    74 :       0.1667    0.3333    0.5000
  band No.  band energies     occupation 
      1     -20.0569      2.00000
      2     -20.0569      2.00000
      3     -20.0557      2.00000
      4     -20.0557      2.00000
      5     -11.9201      2.00000
      6     -11.9201      2.00000
      7     -11.8439      2.00000
      8     -11.8439      2.00000
      9     -10.8518      2.00000
     10     -10.8518      2.00000
     11     -10.7680      2.00000
     12     -10.7680      2.00000
     13     -10.0877      2.00000
     14     -10.0877      2.00000
     15     -10.0596      2.00000
     16     -10.0596      2.00000
     17      -6.9030      2.00000
     18      -6.9030      2.00000
     19      -6.8942      2.00000
     20      -6.8942      2.00000
     21      -6.8775      2.00000
     22      -6.8775      2.00000
     23      -6.8668      2.00000
     24      -6.8668      2.00000
     25      -6.8539      2.00000
     26      -6.8539      2.00000
     27      -6.8441      2.00000
     28      -6.8441      2.00000
     29      -3.2216      2.00000
     30      -3.2216      2.00000
     31      -3.0504      2.00000
     32      -3.0504      2.00000
     33      -1.7520      2.00000
     34      -1.7520      2.00000
     35      -1.5633      2.00000
     36      -1.5633      2.00000
     37      -1.3060      2.00000
     38      -1.3060      2.00000
     39      -1.1741      2.00000
     40      -1.1741      2.00000
     41      -0.8692      2.00000
     42      -0.8692      2.00000
     43      -0.6818      2.00000
     44      -0.6818      2.00000
     45      -0.5020      2.00000
     46      -0.5020      2.00000
     47      -0.4133      2.00000
     48      -0.4133      2.00000
     49      -0.3404      2.00000
     50      -0.3404      2.00000
     51      -0.2824      2.00000
     52      -0.2824      2.00000
     53      -0.0151      2.00000
     54      -0.0151      2.00000
     55       0.1679      2.00000
     56       0.1679      2.00000
     57       0.2100      2.00000
     58       0.2100      2.00000
     59       0.3066      2.00000
     60       0.3066      2.00000
     61       2.3702      0.00000
     62       2.3702      0.00000
     63       2.4611      0.00000
     64       2.4611      0.00000
     65       5.6704      0.00000
     66       5.6704      0.00000
     67       5.7100      0.00000
     68       5.7100      0.00000
     69       5.8804      0.00000
     70       5.8804      0.00000
     71       6.0802      0.00000
     72       6.0802      0.00000
     73       6.3113      0.00000
     74       6.3113      0.00000
     75       6.3919      0.00000
     76       6.3919      0.00000
     77       6.5355      0.00000
     78       6.5355      0.00000
     79       6.6721      0.00000
     80       6.6721      0.00000
     81       6.7465      0.00000
     82       6.7465      0.00000
     83       6.9416      0.00000
     84       6.9416      0.00000
     85       7.0375      0.00000
     86       7.0375      0.00000
     87       7.1554      0.00000
     88       7.1554      0.00000
     89       7.5264      0.00000
     90       7.5264      0.00000
     91       7.5815      0.00000
     92       7.5815      0.00000
     93       7.7710      0.00000
     94       7.7710      0.00000
     95       8.0033      0.00000
     96       8.0033      0.00000
     97       8.1908      0.00000
     98       8.1908      0.00000
     99       8.4170      0.00000
    100       8.4170      0.00000
    101       8.5594      0.00000
    102       8.5594      0.00000
    103       8.7205      0.00000
    104       8.7205      0.00000
    105       8.8969      0.00000
    106       8.8969      0.00000
    107       9.0296      0.00000
    108       9.0296      0.00000
    109       9.2963      0.00000
    110       9.2963      0.00000
    111       9.4005      0.00000
    112       9.4005      0.00000
    113       9.5607      0.00000
    114       9.5607      0.00000
    115      10.0305      0.00000
    116      10.0305      0.00000
    117      10.1517      0.00000
    118      10.1517      0.00000
    119      10.3106      0.00000
    120      10.3106      0.00000
    121      10.5638      0.00000
    122      10.5638      0.00000
    123      10.8267      0.00000
    124      10.8267      0.00000
    125      10.9117      0.00000
    126      10.9117      0.00000
    127      11.0701      0.00000
    128      11.0701      0.00000
    129      11.2813      0.00000
    130      11.2813      0.00000
    131      11.5343      0.00000
    132      11.5343      0.00000
    133      11.7108      0.00000
    134      11.7108      0.00000
    135      11.8992      0.00000
    136      11.8992      0.00000
    137      12.0131      0.00000
    138      12.0131      0.00000
    139      12.1711      0.00000
    140      12.1711      0.00000
    141      12.4127      0.00000
    142      12.4127      0.00000
    143      12.6264      0.00000
    144      12.6315      0.00000

 k-point    75 :       0.3333    0.3333    0.5000
  band No.  band energies     occupation 
      1     -20.0568      2.00000
      2     -20.0568      2.00000
      3     -20.0557      2.00000
      4     -20.0557      2.00000
      5     -11.9086      2.00000
      6     -11.9086      2.00000
      7     -11.8581      2.00000
      8     -11.8581      2.00000
      9     -10.8326      2.00000
     10     -10.8326      2.00000
     11     -10.7810      2.00000
     12     -10.7810      2.00000
     13     -10.0844      2.00000
     14     -10.0844      2.00000
     15     -10.0675      2.00000
     16     -10.0675      2.00000
     17      -6.9062      2.00000
     18      -6.9062      2.00000
     19      -6.8961      2.00000
     20      -6.8961      2.00000
     21      -6.8781      2.00000
     22      -6.8781      2.00000
     23      -6.8649      2.00000
     24      -6.8649      2.00000
     25      -6.8509      2.00000
     26      -6.8509      2.00000
     27      -6.8414      2.00000
     28      -6.8414      2.00000
     29      -3.1905      2.00000
     30      -3.1905      2.00000
     31      -3.0938      2.00000
     32      -3.0938      2.00000
     33      -1.7030      2.00000
     34      -1.7030      2.00000
     35      -1.6062      2.00000
     36      -1.6062      2.00000
     37      -1.2857      2.00000
     38      -1.2857      2.00000
     39      -1.2216      2.00000
     40      -1.2216      2.00000
     41      -0.7975      2.00000
     42      -0.7975      2.00000
     43      -0.6555      2.00000
     44      -0.6555      2.00000
     45      -0.5426      2.00000
     46      -0.5426      2.00000
     47      -0.4565      2.00000
     48      -0.4565      2.00000
     49      -0.3117      2.00000
     50      -0.3117      2.00000
     51      -0.2585      2.00000
     52      -0.2585      2.00000
     53      -0.0088      2.00000
     54      -0.0088      2.00000
     55       0.1606      2.00000
     56       0.1606      2.00000
     57       0.2083      2.00000
     58       0.2083      2.00000
     59       0.2550      2.00000
     60       0.2550      2.00000
     61       2.4109      0.00000
     62       2.4109      0.00000
     63       2.4650      0.00000
     64       2.4650      0.00000
     65       5.6924      0.00000
     66       5.6924      0.00000
     67       5.7098      0.00000
     68       5.7098      0.00000
     69       5.8955      0.00000
     70       5.8955      0.00000
     71       6.1132      0.00000
     72       6.1132      0.00000
     73       6.3092      0.00000
     74       6.3092      0.00000
     75       6.3649      0.00000
     76       6.3649      0.00000
     77       6.5135      0.00000
     78       6.5135      0.00000
     79       6.6247      0.00000
     80       6.6247      0.00000
     81       6.7619      0.00000
     82       6.7619      0.00000
     83       6.8569      0.00000
     84       6.8569      0.00000
     85       6.9823      0.00000
     86       6.9823      0.00000
     87       7.0907      0.00000
     88       7.0907      0.00000
     89       7.3636      0.00000
     90       7.3636      0.00000
     91       7.4042      0.00000
     92       7.4042      0.00000
     93       7.9012      0.00000
     94       7.9012      0.00000
     95       8.0106      0.00000
     96       8.0106      0.00000
     97       8.1808      0.00000
     98       8.1808      0.00000
     99       8.4414      0.00000
    100       8.4414      0.00000
    101       8.6273      0.00000
    102       8.6273      0.00000
    103       8.8184      0.00000
    104       8.8184      0.00000
    105       9.0036      0.00000
    106       9.0036      0.00000
    107       9.2712      0.00000
    108       9.2712      0.00000
    109       9.3677      0.00000
    110       9.3677      0.00000
    111       9.4902      0.00000
    112       9.4902      0.00000
    113       9.7410      0.00000
    114       9.7410      0.00000
    115      10.0786      0.00000
    116      10.0786      0.00000
    117      10.1389      0.00000
    118      10.1389      0.00000
    119      10.4282      0.00000
    120      10.4282      0.00000
    121      10.5871      0.00000
    122      10.5871      0.00000
    123      10.8280      0.00000
    124      10.8280      0.00000
    125      10.9830      0.00000
    126      10.9830      0.00000
    127      11.0690      0.00000
    128      11.0690      0.00000
    129      11.2506      0.00000
    130      11.2506      0.00000
    131      11.3798      0.00000
    132      11.3798      0.00000
    133      11.6790      0.00000
    134      11.6790      0.00000
    135      11.8026      0.00000
    136      11.8026      0.00000
    137      12.0925      0.00000
    138      12.0925      0.00000
    139      12.1574      0.00000
    140      12.1574      0.00000
    141      12.3550      0.00000
    142      12.3551      0.00000
    143      12.4255      0.00000
    144      12.4259      0.00000

 k-point    76 :       0.5000    0.3333    0.5000
  band No.  band energies     occupation 
      1     -20.0568      2.00000
      2     -20.0568      2.00000
      3     -20.0557      2.00000
      4     -20.0557      2.00000
      5     -11.8993      2.00000
      6     -11.8993      2.00000
      7     -11.8687      2.00000
      8     -11.8687      2.00000
      9     -10.8164      2.00000
     10     -10.8164      2.00000
     11     -10.7941      2.00000
     12     -10.7941      2.00000
     13     -10.0800      2.00000
     14     -10.0800      2.00000
     15     -10.0740      2.00000
     16     -10.0740      2.00000
     17      -6.9074      2.00000
     18      -6.9074      2.00000
     19      -6.8975      2.00000
     20      -6.8975      2.00000
     21      -6.8778      2.00000
     22      -6.8778      2.00000
     23      -6.8645      2.00000
     24      -6.8645      2.00000
     25      -6.8493      2.00000
     26      -6.8493      2.00000
     27      -6.8401      2.00000
     28      -6.8401      2.00000
     29      -3.1455      2.00000
     30      -3.1455      2.00000
     31      -3.1447      2.00000
     32      -3.1447      2.00000
     33      -1.6597      2.00000
     34      -1.6597      2.00000
     35      -1.6443      2.00000
     36      -1.6443      2.00000
     37      -1.2728      2.00000
     38      -1.2728      2.00000
     39      -1.2485      2.00000
     40      -1.2485      2.00000
     41      -0.7420      2.00000
     42      -0.7420      2.00000
     43      -0.6686      2.00000
     44      -0.6686      2.00000
     45      -0.5205      2.00000
     46      -0.5205      2.00000
     47      -0.5123      2.00000
     48      -0.5123      2.00000
     49      -0.2979      2.00000
     50      -0.2979      2.00000
     51      -0.2621      2.00000
     52      -0.2621      2.00000
     53       0.0573      2.00000
     54       0.0573      2.00000
     55       0.0927      2.00000
     56       0.0927      2.00000
     57       0.2127      2.00000
     58       0.2127      2.00000
     59       0.2375      2.00000
     60       0.2375      2.00000
     61       2.4405      0.00000
     62       2.4405      0.00000
     63       2.4578      0.00000
     64       2.4578      0.00000
     65       5.7005      0.00000
     66       5.7005      0.00000
     67       5.7129      0.00000
     68       5.7129      0.00000
     69       5.8968      0.00000
     70       5.8968      0.00000
     71       6.1587      0.00000
     72       6.1587      0.00000
     73       6.2638      0.00000
     74       6.2638      0.00000
     75       6.3657      0.00000
     76       6.3657      0.00000
     77       6.5282      0.00000
     78       6.5282      0.00000
     79       6.6095      0.00000
     80       6.6095      0.00000
     81       6.7270      0.00000
     82       6.7270      0.00000
     83       6.8408      0.00000
     84       6.8408      0.00000
     85       7.0054      0.00000
     86       7.0054      0.00000
     87       7.0413      0.00000
     88       7.0413      0.00000
     89       7.2667      0.00000
     90       7.2667      0.00000
     91       7.2919      0.00000
     92       7.2919      0.00000
     93       7.9416      0.00000
     94       7.9416      0.00000
     95       7.9814      0.00000
     96       7.9814      0.00000
     97       8.3361      0.00000
     98       8.3361      0.00000
     99       8.3522      0.00000
    100       8.3522      0.00000
    101       8.7700      0.00000
    102       8.7700      0.00000
    103       8.8880      0.00000
    104       8.8880      0.00000
    105       9.0075      0.00000
    106       9.0075      0.00000
    107       9.2962      0.00000
    108       9.2962      0.00000
    109       9.3386      0.00000
    110       9.3386      0.00000
    111       9.6671      0.00000
    112       9.6671      0.00000
    113       9.8162      0.00000
    114       9.8162      0.00000
    115      10.0380      0.00000
    116      10.0380      0.00000
    117      10.1831      0.00000
    118      10.1831      0.00000
    119      10.2843      0.00000
    120      10.2843      0.00000
    121      10.7745      0.00000
    122      10.7745      0.00000
    123      10.8124      0.00000
    124      10.8124      0.00000
    125      11.0085      0.00000
    126      11.0085      0.00000
    127      11.0975      0.00000
    128      11.0975      0.00000
    129      11.2273      0.00000
    130      11.2273      0.00000
    131      11.3759      0.00000
    132      11.3759      0.00000
    133      11.6995      0.00000
    134      11.6995      0.00000
    135      11.8361      0.00000
    136      11.8361      0.00000
    137      12.0508      0.00000
    138      12.0508      0.00000
    139      12.2097      0.00000
    140      12.2097      0.00000
    141      12.2160      0.00000
    142      12.2160      0.00000
    143      12.3997      0.00000
    144      12.3998      0.00000

 k-point    77 :       0.0000    0.4444    0.5000
  band No.  band energies     occupation 
      1     -20.0564      2.00000
      2     -20.0564      2.00000
      3     -20.0560      2.00000
      4     -20.0560      2.00000
      5     -11.9229      2.00000
      6     -11.9229      2.00000
      7     -11.8412      2.00000
      8     -11.8412      2.00000
      9     -10.8601      2.00000
     10     -10.8601      2.00000
     11     -10.7655      2.00000
     12     -10.7655      2.00000
     13     -10.0874      2.00000
     14     -10.0874      2.00000
     15     -10.0578      2.00000
     16     -10.0578      2.00000
     17      -6.8964      2.00000
     18      -6.8964      2.00000
     19      -6.8918      2.00000
     20      -6.8918      2.00000
     21      -6.8777      2.00000
     22      -6.8777      2.00000
     23      -6.8676      2.00000
     24      -6.8676      2.00000
     25      -6.8504      2.00000
     26      -6.8504      2.00000
     27      -6.8418      2.00000
     28      -6.8418      2.00000
     29      -3.2269      2.00000
     30      -3.2269      2.00000
     31      -3.0338      2.00000
     32      -3.0338      2.00000
     33      -1.8070      2.00000
     34      -1.8070      2.00000
     35      -1.5514      2.00000
     36      -1.5514      2.00000
     37      -1.3139      2.00000
     38      -1.3139      2.00000
     39      -1.1321      2.00000
     40      -1.1321      2.00000
     41      -0.9182      2.00000
     42      -0.9182      2.00000
     43      -0.7036      2.00000
     44      -0.7036      2.00000
     45      -0.4441      2.00000
     46      -0.4441      2.00000
     47      -0.3982      2.00000
     48      -0.3982      2.00000
     49      -0.3583      2.00000
     50      -0.3583      2.00000
     51      -0.3237      2.00000
     52      -0.3237      2.00000
     53      -0.0081      2.00000
     54      -0.0081      2.00000
     55       0.1618      2.00000
     56       0.1618      2.00000
     57       0.2223      2.00000
     58       0.2223      2.00000
     59       0.3373      2.00000
     60       0.3373      2.00000
     61       2.3618      0.00000
     62       2.3618      0.00000
     63       2.4631      0.00000
     64       2.4631      0.00000
     65       5.7319      0.00000
     66       5.7319      0.00000
     67       5.8367      0.00000
     68       5.8367      0.00000
     69       5.9168      0.00000
     70       5.9168      0.00000
     71       6.1453      0.00000
     72       6.1453      0.00000
     73       6.2788      0.00000
     74       6.2788      0.00000
     75       6.3240      0.00000
     76       6.3240      0.00000
     77       6.5414      0.00000
     78       6.5414      0.00000
     79       6.5800      0.00000
     80       6.5800      0.00000
     81       6.6995      0.00000
     82       6.6995      0.00000
     83       6.9630      0.00000
     84       6.9630      0.00000
     85       7.0783      0.00000
     86       7.0783      0.00000
     87       7.2492      0.00000
     88       7.2492      0.00000
     89       7.4397      0.00000
     90       7.4397      0.00000
     91       7.6571      0.00000
     92       7.6571      0.00000
     93       7.7829      0.00000
     94       7.7829      0.00000
     95       7.8773      0.00000
     96       7.8773      0.00000
     97       8.0465      0.00000
     98       8.0465      0.00000
     99       8.4342      0.00000
    100       8.4342      0.00000
    101       8.5284      0.00000
    102       8.5284      0.00000
    103       8.6975      0.00000
    104       8.6975      0.00000
    105       8.8215      0.00000
    106       8.8215      0.00000
    107       8.8631      0.00000
    108       8.8631      0.00000
    109       9.2501      0.00000
    110       9.2501      0.00000
    111       9.4038      0.00000
    112       9.4038      0.00000
    113       9.4884      0.00000
    114       9.4884      0.00000
    115      10.1396      0.00000
    116      10.1396      0.00000
    117      10.3002      0.00000
    118      10.3002      0.00000
    119      10.4634      0.00000
    120      10.4634      0.00000
    121      10.5182      0.00000
    122      10.5182      0.00000
    123      10.6385      0.00000
    124      10.6385      0.00000
    125      10.8595      0.00000
    126      10.8595      0.00000
    127      11.0591      0.00000
    128      11.0591      0.00000
    129      11.1909      0.00000
    130      11.1909      0.00000
    131      11.5729      0.00000
    132      11.5729      0.00000
    133      11.6423      0.00000
    134      11.6423      0.00000
    135      11.9602      0.00000
    136      11.9602      0.00000
    137      12.0090      0.00000
    138      12.0090      0.00000
    139      12.1111      0.00000
    140      12.1111      0.00000
    141      12.4075      0.00000
    142      12.4075      0.00000
    143      12.6628      0.00000
    144      12.6629      0.00000

 k-point    78 :       0.1667    0.4444    0.5000
  band No.  band energies     occupation 
      1     -20.0564      2.00000
      2     -20.0564      2.00000
      3     -20.0560      2.00000
      4     -20.0560      2.00000
      5     -11.9181      2.00000
      6     -11.9181      2.00000
      7     -11.8473      2.00000
      8     -11.8473      2.00000
      9     -10.8522      2.00000
     10     -10.8522      2.00000
     11     -10.7703      2.00000
     12     -10.7703      2.00000
     13     -10.0865      2.00000
     14     -10.0865      2.00000
     15     -10.0609      2.00000
     16     -10.0609      2.00000
     17      -6.8996      2.00000
     18      -6.8996      2.00000
     19      -6.8939      2.00000
     20      -6.8939      2.00000
     21      -6.8742      2.00000
     22      -6.8742      2.00000
     23      -6.8663      2.00000
     24      -6.8663      2.00000
     25      -6.8486      2.00000
     26      -6.8486      2.00000
     27      -6.8420      2.00000
     28      -6.8420      2.00000
     29      -3.2164      2.00000
     30      -3.2164      2.00000
     31      -3.0512      2.00000
     32      -3.0512      2.00000
     33      -1.7823      2.00000
     34      -1.7823      2.00000
     35      -1.5747      2.00000
     36      -1.5747      2.00000
     37      -1.3006      2.00000
     38      -1.3006      2.00000
     39      -1.1604      2.00000
     40      -1.1604      2.00000
     41      -0.8839      2.00000
     42      -0.8839      2.00000
     43      -0.6934      2.00000
     44      -0.6934      2.00000
     45      -0.4739      2.00000
     46      -0.4739      2.00000
     47      -0.4396      2.00000
     48      -0.4396      2.00000
     49      -0.3251      2.00000
     50      -0.3251      2.00000
     51      -0.2934      2.00000
     52      -0.2934      2.00000
     53      -0.0180      2.00000
     54      -0.0180      2.00000
     55       0.1686      2.00000
     56       0.1686      2.00000
     57       0.2270      2.00000
     58       0.2270      2.00000
     59       0.3108      2.00000
     60       0.3108      2.00000
     61       2.3781      0.00000
     62       2.3781      0.00000
     63       2.4658      0.00000
     64       2.4658      0.00000
     65       5.7448      0.00000
     66       5.7448      0.00000
     67       5.8293      0.00000
     68       5.8293      0.00000
     69       5.9496      0.00000
     70       5.9496      0.00000
     71       6.1593      0.00000
     72       6.1593      0.00000
     73       6.2805      0.00000
     74       6.2805      0.00000
     75       6.3386      0.00000
     76       6.3386      0.00000
     77       6.4550      0.00000
     78       6.4550      0.00000
     79       6.6046      0.00000
     80       6.6046      0.00000
     81       6.6933      0.00000
     82       6.6933      0.00000
     83       6.9276      0.00000
     84       6.9276      0.00000
     85       7.0318      0.00000
     86       7.0318      0.00000
     87       7.1500      0.00000
     88       7.1500      0.00000
     89       7.4204      0.00000
     90       7.4204      0.00000
     91       7.5598      0.00000
     92       7.5598      0.00000
     93       7.7694      0.00000
     94       7.7694      0.00000
     95       7.8957      0.00000
     96       7.8957      0.00000
     97       8.1575      0.00000
     98       8.1575      0.00000
     99       8.3879      0.00000
    100       8.3879      0.00000
    101       8.4761      0.00000
    102       8.4761      0.00000
    103       8.7489      0.00000
    104       8.7489      0.00000
    105       8.9515      0.00000
    106       8.9515      0.00000
    107       9.0349      0.00000
    108       9.0349      0.00000
    109       9.3301      0.00000
    110       9.3301      0.00000
    111       9.4615      0.00000
    112       9.4615      0.00000
    113       9.5790      0.00000
    114       9.5790      0.00000
    115      10.0894      0.00000
    116      10.0894      0.00000
    117      10.2891      0.00000
    118      10.2891      0.00000
    119      10.4105      0.00000
    120      10.4105      0.00000
    121      10.5450      0.00000
    122      10.5450      0.00000
    123      10.7202      0.00000
    124      10.7202      0.00000
    125      10.8133      0.00000
    126      10.8133      0.00000
    127      11.0887      0.00000
    128      11.0887      0.00000
    129      11.2242      0.00000
    130      11.2242      0.00000
    131      11.5151      0.00000
    132      11.5151      0.00000
    133      11.7028      0.00000
    134      11.7028      0.00000
    135      11.8123      0.00000
    136      11.8123      0.00000
    137      12.0139      0.00000
    138      12.0139      0.00000
    139      12.1088      0.00000
    140      12.1088      0.00000
    141      12.4235      0.00000
    142      12.4235      0.00000
    143      12.5213      0.00000
    144      12.5213      0.00000

 k-point    79 :       0.3333    0.4444    0.5000
  band No.  band energies     occupation 
      1     -20.0564      2.00000
      2     -20.0564      2.00000
      3     -20.0560      2.00000
      4     -20.0560      2.00000
      5     -11.9049      2.00000
      6     -11.9049      2.00000
      7     -11.8632      2.00000
      8     -11.8632      2.00000
      9     -10.8319      2.00000
     10     -10.8319      2.00000
     11     -10.7843      2.00000
     12     -10.7843      2.00000
     13     -10.0833      2.00000
     14     -10.0833      2.00000
     15     -10.0685      2.00000
     16     -10.0685      2.00000
     17      -6.9035      2.00000
     18      -6.9035      2.00000
     19      -6.8984      2.00000
     20      -6.8984      2.00000
     21      -6.8691      2.00000
     22      -6.8691      2.00000
     23      -6.8640      2.00000
     24      -6.8640      2.00000
     25      -6.8456      2.00000
     26      -6.8456      2.00000
     27      -6.8421      2.00000
     28      -6.8421      2.00000
     29      -3.1868      2.00000
     30      -3.1868      2.00000
     31      -3.0938      2.00000
     32      -3.0938      2.00000
     33      -1.7257      2.00000
     34      -1.7257      2.00000
     35      -1.6194      2.00000
     36      -1.6194      2.00000
     37      -1.2806      2.00000
     38      -1.2806      2.00000
     39      -1.2148      2.00000
     40      -1.2148      2.00000
     41      -0.8020      2.00000
     42      -0.8020      2.00000
     43      -0.6717      2.00000
     44      -0.6717      2.00000
     45      -0.5347      2.00000
     46      -0.5347      2.00000
     47      -0.4967      2.00000
     48      -0.4967      2.00000
     49      -0.2895      2.00000
     50      -0.2895      2.00000
     51      -0.2567      2.00000
     52      -0.2567      2.00000
     53      -0.0030      2.00000
     54      -0.0030      2.00000
     55       0.1626      2.00000
     56       0.1626      2.00000
     57       0.2333      2.00000
     58       0.2333      2.00000
     59       0.2558      2.00000
     60       0.2558      2.00000
     61       2.4159      0.00000
     62       2.4159      0.00000
     63       2.4665      0.00000
     64       2.4665      0.00000
     65       5.7784      0.00000
     66       5.7784      0.00000
     67       5.8297      0.00000
     68       5.8297      0.00000
     69       5.9846      0.00000
     70       5.9846      0.00000
     71       6.1427      0.00000
     72       6.1427      0.00000
     73       6.2963      0.00000
     74       6.2963      0.00000
     75       6.3527      0.00000
     76       6.3527      0.00000
     77       6.4621      0.00000
     78       6.4621      0.00000
     79       6.6088      0.00000
     80       6.6088      0.00000
     81       6.6784      0.00000
     82       6.6784      0.00000
     83       6.8753      0.00000
     84       6.8753      0.00000
     85       6.9149      0.00000
     86       6.9149      0.00000
     87       7.0096      0.00000
     88       7.0096      0.00000
     89       7.2334      0.00000
     90       7.2334      0.00000
     91       7.3164      0.00000
     92       7.3164      0.00000
     93       7.8607      0.00000
     94       7.8607      0.00000
     95       7.9599      0.00000
     96       7.9599      0.00000
     97       8.2156      0.00000
     98       8.2156      0.00000
     99       8.3734      0.00000
    100       8.3734      0.00000
    101       8.6487      0.00000
    102       8.6487      0.00000
    103       8.9729      0.00000
    104       8.9729      0.00000
    105       9.1285      0.00000
    106       9.1285      0.00000
    107       9.2591      0.00000
    108       9.2591      0.00000
    109       9.4049      0.00000
    110       9.4049      0.00000
    111       9.4953      0.00000
    112       9.4953      0.00000
    113       9.6809      0.00000
    114       9.6809      0.00000
    115       9.9776      0.00000
    116       9.9776      0.00000
    117      10.1899      0.00000
    118      10.1899      0.00000
    119      10.4378      0.00000
    120      10.4378      0.00000
    121      10.6242      0.00000
    122      10.6242      0.00000
    123      10.7625      0.00000
    124      10.7625      0.00000
    125      10.8964      0.00000
    126      10.8964      0.00000
    127      11.1671      0.00000
    128      11.1671      0.00000
    129      11.2366      0.00000
    130      11.2366      0.00000
    131      11.3507      0.00000
    132      11.3507      0.00000
    133      11.7384      0.00000
    134      11.7384      0.00000
    135      11.8862      0.00000
    136      11.8862      0.00000
    137      11.9890      0.00000
    138      11.9890      0.00000
    139      12.1101      0.00000
    140      12.1101      0.00000
    141      12.2902      0.00000
    142      12.2903      0.00000
    143      12.3994      0.00000
    144      12.3997      0.00000

 k-point    80 :       0.5000    0.4444    0.5000
  band No.  band energies     occupation 
      1     -20.0564      2.00000
      2     -20.0564      2.00000
      3     -20.0560      2.00000
      4     -20.0560      2.00000
      5     -11.8900      2.00000
      6     -11.8900      2.00000
      7     -11.8794      2.00000
      8     -11.8794      2.00000
      9     -10.8104      2.00000
     10     -10.8104      2.00000
     11     -10.8027      2.00000
     12     -10.8027      2.00000
     13     -10.0781      2.00000
     14     -10.0781      2.00000
     15     -10.0760      2.00000
     16     -10.0760      2.00000
     17      -6.9048      2.00000
     18      -6.9048      2.00000
     19      -6.9007      2.00000
     20      -6.9007      2.00000
     21      -6.8671      2.00000
     22      -6.8671      2.00000
     23      -6.8628      2.00000
     24      -6.8628      2.00000
     25      -6.8444      2.00000
     26      -6.8444      2.00000
     27      -6.8421      2.00000
     28      -6.8421      2.00000
     29      -3.1436      2.00000
     30      -3.1436      2.00000
     31      -3.1431      2.00000
     32      -3.1431      2.00000
     33      -1.6719      2.00000
     34      -1.6719      2.00000
     35      -1.6639      2.00000
     36      -1.6639      2.00000
     37      -1.2601      2.00000
     38      -1.2601      2.00000
     39      -1.2550      2.00000
     40      -1.2550      2.00000
     41      -0.7164      2.00000
     42      -0.7164      2.00000
     43      -0.6957      2.00000
     44      -0.6957      2.00000
     45      -0.5476      2.00000
     46      -0.5476      2.00000
     47      -0.5474      2.00000
     48      -0.5474      2.00000
     49      -0.2691      2.00000
     50      -0.2691      2.00000
     51      -0.2573      2.00000
     52      -0.2573      2.00000
     53       0.0738      2.00000
     54       0.0738      2.00000
     55       0.0891      2.00000
     56       0.0891      2.00000
     57       0.2339      2.00000
     58       0.2339      2.00000
     59       0.2421      2.00000
     60       0.2421      2.00000
     61       2.4478      0.00000
     62       2.4478      0.00000
     63       2.4539      0.00000
     64       2.4539      0.00000
     65       5.8009      0.00000
     66       5.8009      0.00000
     67       5.8337      0.00000
     68       5.8337      0.00000
     69       5.9853      0.00000
     70       5.9853      0.00000
     71       6.1197      0.00000
     72       6.1197      0.00000
     73       6.3261      0.00000
     74       6.3261      0.00000
     75       6.3485      0.00000
     76       6.3485      0.00000
     77       6.5337      0.00000
     78       6.5337      0.00000
     79       6.5433      0.00000
     80       6.5433      0.00000
     81       6.7488      0.00000
     82       6.7488      0.00000
     83       6.8012      0.00000
     84       6.8012      0.00000
     85       6.9339      0.00000
     86       6.9339      0.00000
     87       6.9565      0.00000
     88       6.9565      0.00000
     89       7.1033      0.00000
     90       7.1033      0.00000
     91       7.1363      0.00000
     92       7.1363      0.00000
     93       7.9043      0.00000
     94       7.9043      0.00000
     95       7.9229      0.00000
     96       7.9229      0.00000
     97       8.3503      0.00000
     98       8.3503      0.00000
     99       8.3624      0.00000
    100       8.3624      0.00000
    101       8.9466      0.00000
    102       8.9466      0.00000
    103       8.9753      0.00000
    104       8.9753      0.00000
    105       9.1417      0.00000
    106       9.1417      0.00000
    107       9.2566      0.00000
    108       9.2566      0.00000
    109       9.4611      0.00000
    110       9.4611      0.00000
    111       9.5865      0.00000
    112       9.5865      0.00000
    113       9.6712      0.00000
    114       9.6712      0.00000
    115       9.9098      0.00000
    116       9.9098      0.00000
    117      10.2433      0.00000
    118      10.2433      0.00000
    119      10.2505      0.00000
    120      10.2505      0.00000
    121      10.7338      0.00000
    122      10.7338      0.00000
    123      10.7641      0.00000
    124      10.7641      0.00000
    125      11.0484      0.00000
    126      11.0484      0.00000
    127      11.1308      0.00000
    128      11.1308      0.00000
    129      11.2501      0.00000
    130      11.2501      0.00000
    131      11.3692      0.00000
    132      11.3692      0.00000
    133      11.7950      0.00000
    134      11.7950      0.00000
    135      11.9618      0.00000
    136      11.9618      0.00000
    137      11.9803      0.00000
    138      11.9803      0.00000
    139      12.0863      0.00000
    140      12.0863      0.00000
    141      12.2426      0.00000
    142      12.2435      0.00000
    143      12.3736      0.00000
    144      12.3767      0.00000


--------------------------------------------------------------------------------------------------------


 soft charge-density along one line, spin component           1
         0         1         2         3         4         5         6         7         8         9
 total charge-density along one line
 
 pseudopotential strength for first ion, spin component:           1
 18.181  -4.767  -0.000  -0.003   0.000   0.000   0.004  -0.001
 -4.767   1.255   0.000   0.001  -0.000  -0.000  -0.001   0.000
 -0.000   0.000   2.261  -0.000   0.000  -2.687   0.000  -0.000
 -0.003   0.001  -0.000   2.261  -0.001   0.000  -2.686   0.001
  0.000  -0.000   0.000  -0.001   2.262  -0.000   0.001  -2.688
  0.000  -0.000  -2.687   0.000  -0.000   3.234  -0.000   0.000
  0.004  -0.001   0.000  -2.686   0.001  -0.000   3.233  -0.001
 -0.001   0.000  -0.000   0.001  -2.688   0.000  -0.001   3.235
  0.000  -0.000   0.000  -0.000  -0.000  -0.000   0.000   0.000
 -0.000   0.000  -0.001   0.000  -0.000   0.001  -0.000   0.000
 -0.001   0.000   0.000  -0.001  -0.000  -0.000   0.002   0.000
 -0.001   0.000  -0.000   0.000  -0.001   0.000  -0.000   0.001
  0.000  -0.000   0.000  -0.000   0.000  -0.000   0.000  -0.000
 total augmentation occupancy for first ion, spin component:           1
  1.987  -0.037   0.000  -0.001   0.000   0.000  -0.001   0.000   0.000   0.000  -0.001  -0.001   0.000
 -0.037   0.143   0.000  -0.006   0.001   0.000   0.003   0.000   0.000   0.000   0.001   0.002  -0.001
  0.000   0.000   2.003   0.000   0.000  -0.001   0.000   0.000   0.001  -0.003   0.000   0.000  -0.000
 -0.001  -0.006   0.000   2.002  -0.001   0.000  -0.002  -0.001   0.000   0.000  -0.000   0.002   0.000
  0.000   0.001   0.000  -0.001   2.004   0.000  -0.001   0.000   0.000   0.000   0.001  -0.002  -0.001
  0.000   0.000  -0.001   0.000   0.000   0.008   0.000   0.000  -0.001   0.002   0.000  -0.000   0.000
 -0.001   0.003   0.000  -0.002  -0.001   0.000   0.008   0.001  -0.000   0.000  -0.001  -0.002  -0.001
  0.000   0.000   0.000  -0.001   0.000   0.000   0.001   0.007   0.000   0.000  -0.002   0.001   0.001
  0.000   0.000   0.001   0.000   0.000  -0.001  -0.000   0.000   0.003   0.001  -0.000   0.000   0.000
  0.000   0.000  -0.003   0.000   0.000   0.002   0.000   0.000   0.001   0.005  -0.000  -0.000   0.000
 -0.001   0.001   0.000  -0.000   0.001   0.000  -0.001  -0.002  -0.000  -0.000   0.004   0.002   0.001
 -0.001   0.002   0.000   0.002  -0.002  -0.000  -0.002   0.001   0.000  -0.000   0.002   0.007  -0.001
  0.000  -0.001  -0.000   0.000  -0.001   0.000  -0.001   0.001   0.000   0.000   0.001  -0.001   0.007


------------------------ aborting loop because EDIFF is reached ----------------------------------------


 MLWF driver (Wannier functions)
 ===============================
 Calling wannier_setup of wannier90 in library mode
 Wannier90 mode
 Computing MMN (overlap matrix elements)
 Writing MMN to wannier90.mmn
 Writing EIG to wannier90.eig
 
 LOCPROJ orbitals
 -------------------------------------------------------------------------------
 ---------------
  n  l  m   za        pos                       proj_x                    proj_z
 -------------------------------------------------------------------------------
 ---------------
  1  1  1   1.890     0.165   0.250   0.368     1.000   0.000   0.000     0.000   0.000   1.000
  1  1  2   1.890     0.165   0.250   0.368     1.000   0.000   0.000     0.000   0.000   1.000
  1  1  3   1.890     0.165   0.250   0.368     1.000   0.000   0.000     0.000   0.000   1.000
  1  1  1   1.890    -0.165  -0.250  -0.368     1.000   0.000   0.000     0.000   0.000   1.000
  1  1  2   1.890    -0.165  -0.250  -0.368     1.000   0.000   0.000     0.000   0.000   1.000
  1  1  3   1.890    -0.165  -0.250  -0.368     1.000   0.000   0.000     0.000   0.000   1.000
  1  1  1   1.890     0.335  -0.250  -0.132     1.000   0.000   0.000     0.000   0.000   1.000
  1  1  2   1.890     0.335  -0.250  -0.132     1.000   0.000   0.000     0.000   0.000   1.000
  1  1  3   1.890     0.335  -0.250  -0.132     1.000   0.000   0.000     0.000   0.000   1.000
  1  1  1   1.890    -0.335   0.250   0.132     1.000   0.000   0.000     0.000   0.000   1.000
  1  1  2   1.890    -0.335   0.250   0.132     1.000   0.000   0.000     0.000   0.000   1.000
  1  1  3   1.890    -0.335   0.250   0.132     1.000   0.000   0.000     0.000   0.000   1.000
  1  1  1   1.890     0.368   0.250  -0.443     1.000   0.000   0.000     0.000   0.000   1.000
  1  1  2   1.890     0.368   0.250  -0.443     1.000   0.000   0.000     0.000   0.000   1.000
  1  1  3   1.890     0.368   0.250  -0.443     1.000   0.000   0.000     0.000   0.000   1.000
  1  1  1   1.890    -0.368  -0.250   0.443     1.000   0.000   0.000     0.000   0.000   1.000
  1  1  2   1.890    -0.368  -0.250   0.443     1.000   0.000   0.000     0.000   0.000   1.000
  1  1  3   1.890    -0.368  -0.250   0.443     1.000   0.000   0.000     0.000   0.000   1.000
  1  1  1   1.890     0.132  -0.250   0.057     1.000   0.000   0.000     0.000   0.000   1.000
  1  1  2   1.890     0.132  -0.250   0.057     1.000   0.000   0.000     0.000   0.000   1.000
  1  1  3   1.890     0.132  -0.250   0.057     1.000   0.000   0.000     0.000   0.000   1.000
  1  1  1   1.890    -0.132   0.250  -0.057     1.000   0.000   0.000     0.000   0.000   1.000
  1  1  2   1.890    -0.132   0.250  -0.057     1.000   0.000   0.000     0.000   0.000   1.000
  1  1  3   1.890    -0.132   0.250  -0.057     1.000   0.000   0.000     0.000   0.000   1.000
  1  1  1   1.890    -0.438   0.250  -0.262     1.000   0.000   0.000     0.000   0.000   1.000
  1  1  2   1.890    -0.438   0.250  -0.262     1.000   0.000   0.000     0.000   0.000   1.000
  1  1  3   1.890    -0.438   0.250  -0.262     1.000   0.000   0.000     0.000   0.000   1.000
  1  1  1   1.890     0.438  -0.250   0.262     1.000   0.000   0.000     0.000   0.000   1.000
  1  1  2   1.890     0.438  -0.250   0.262     1.000   0.000   0.000     0.000   0.000   1.000
  1  1  3   1.890     0.438  -0.250   0.262     1.000   0.000   0.000     0.000   0.000   1.000
  1  1  1   1.890    -0.062  -0.250   0.238     1.000   0.000   0.000     0.000   0.000   1.000
  1  1  2   1.890    -0.062  -0.250   0.238     1.000   0.000   0.000     0.000   0.000   1.000
  1  1  3   1.890    -0.062  -0.250   0.238     1.000   0.000   0.000     0.000   0.000   1.000
  1  1  1   1.890     0.062   0.250  -0.238     1.000   0.000   0.000     0.000   0.000   1.000
  1  1  2   1.890     0.062   0.250  -0.238     1.000   0.000   0.000     0.000   0.000   1.000
  1  1  3   1.890     0.062   0.250  -0.238     1.000   0.000   0.000     0.000   0.000   1.000
 
 Computing AMN (projections onto localized orbitals)
 Writing AMN to wannier90.amn
  Writing WANPROJ file

 MMN -> overlap matrix elements
 AMM -> projections of Bloch states onto localized states
 UMN -> unitary matrix transforming from Bloch states to Wannier states

 Parameters of MLWF datastructure
 num_band =          144
 num_wann =           36

 Computiation of AMN
 proj = Wannier90

 Transformation from AMN to UMN
 trafo = One-shot SVD method

------------------------ end of MLWF driver reached ----------------------------------------------------



 total charge

# of ion       s       p       d       tot
------------------------------------------
    1        1.831   4.707   0.019   6.558
    2        1.831   4.707   0.019   6.558
    3        1.831   4.707   0.019   6.558
    4        1.831   4.707   0.019   6.558
    5        1.509   2.768   0.009   4.285
    6        1.509   2.768   0.009   4.285
    7        1.509   2.768   0.009   4.285
    8        1.509   2.768   0.009   4.285
    9        1.549   2.618   0.034   4.202
   10        1.549   2.618   0.034   4.202
   11        1.549   2.618   0.034   4.202
   12        1.549   2.618   0.034   4.202
   13        1.516   2.735   0.012   4.264
   14        1.516   2.735   0.012   4.264
   15        1.516   2.735   0.012   4.264
   16        1.516   2.735   0.012   4.264
--------------------------------------------------
tot         25.620  51.315   0.299  77.234
 
    CHARGE:  cpu time      2.1580: real time      2.1738
    FORLOC:  cpu time      0.0167: real time      0.0169
    FORNL :  cpu time      6.9286: real time      7.0007
    STRESS:  cpu time     39.7244: real time     40.0907
    FORCOR:  cpu time      0.0992: real time      0.1005
    FORHAR:  cpu time      0.0313: real time      0.0315
    MIXING:  cpu time      0.0051: real time      0.0051
    OFIELD:  cpu time      0.0001: real time      0.0001

  FORCE on cell =-STRESS in cart. coord.  units (eV):
  Direction    XX          YY          ZZ          XY          YZ          ZX
  --------------------------------------------------------------------------------------
  Alpha Z   148.31138   148.31138   148.31138
  Ewald   -1460.77660 -1819.10646 -1562.01200     0.00000     0.00000     0.00000
  Hartree   359.35142   253.03627   325.56403    -0.00000    -0.00000    -0.00000
  E(xc)    -492.53795  -497.20372  -493.62642    -0.00000    -0.00000    -0.00000
  Local   -1100.63603  -732.22564  -989.87514     0.00000     0.00000    -0.00000
  n-local  1678.24046  1729.41208  1690.41180    -0.00347    -0.01928     0.15624
  augment  -487.28778  -511.73809  -493.21396     0.00000     0.00000     0.00000
  Kinetic  1355.37790  1429.50915  1374.46626    -0.01478    -0.01062     0.23410
  Fock        0.00000     0.00000     0.00000     0.00000     0.00000     0.00000
  -------------------------------------------------------------------------------------
  Total       0.04279    -0.00504     0.02596     0.00000     0.00000     0.00000
  in kB       0.07995    -0.00942     0.04850     0.00000     0.00000     0.00000
  external pressure =        0.04 kB  Pullay stress =        0.00 kB


 VOLUME and BASIS-vectors are now :
 -----------------------------------------------------------------------------
  energy-cutoff  :      550.00
  volume of cell :      857.51
      direct lattice vectors                 reciprocal lattice vectors
    11.269044902  0.000000000  0.000000000     0.088738665  0.000000000  0.000000000
     0.000000000  7.246742723  0.000000000     0.000000000  0.137993032  0.000000000
     0.000000000  0.000000000 10.500504023     0.000000000  0.000000000  0.095233524

  length of vectors
    11.269044902  7.246742723 10.500504023     0.088738665  0.137993032  0.095233524


 FORCES acting on ions
    electron-ion (+dipol)            ewald-force                    non-local-force                 convergence-correction
 -----------------------------------------------------------------------------------------------
   0.283E+01 -.171E-11 0.133E+02   -.285E+01 0.736E-15 -.131E+02   0.170E-01 0.506E-19 -.125E+00   -.772E-05 -.123E-13 0.121E-04
   -.283E+01 -.169E-12 -.133E+02   0.285E+01 -.147E-14 0.131E+02   -.170E-01 -.383E-19 0.125E+00   0.772E-05 0.250E-13 -.121E-04
   -.283E+01 0.119E-11 0.133E+02   0.285E+01 0.357E-14 -.131E+02   -.170E-01 -.189E-19 -.125E+00   0.772E-05 -.142E-13 0.121E-04
   0.283E+01 0.417E-12 -.133E+02   -.285E+01 0.781E-15 0.131E+02   0.170E-01 0.116E-19 0.125E+00   -.772E-05 -.288E-13 -.121E-04
   0.200E+02 0.495E-13 0.335E+02   -.217E+02 0.760E-14 -.353E+02   0.170E+01 -.575E-19 0.171E+01   -.146E-03 0.616E-14 -.916E-04
   -.200E+02 -.123E-11 -.335E+02   0.217E+02 -.124E-13 0.353E+02   -.170E+01 0.635E-19 -.171E+01   0.146E-03 0.197E-14 0.916E-04
   -.200E+02 -.852E-12 0.335E+02   0.217E+02 0.746E-14 -.353E+02   -.170E+01 0.180E-18 0.171E+01   0.146E-03 0.679E-13 -.916E-04
   0.200E+02 -.224E-11 -.335E+02   -.217E+02 -.139E-13 0.353E+02   0.170E+01 -.252E-18 -.171E+01   -.146E-03 -.267E-13 0.916E-04
   -.169E+02 0.359E-12 0.942E+01   0.163E+02 0.310E-14 -.103E+02   0.594E+00 0.166E-18 0.901E+00   -.229E-04 0.247E-13 0.263E-04
   0.169E+02 0.332E-11 -.942E+01   -.163E+02 0.287E-14 0.103E+02   -.594E+00 -.181E-18 -.901E+00   0.229E-04 0.253E-13 -.263E-04
   0.169E+02 -.310E-12 0.942E+01   -.163E+02 0.297E-14 -.103E+02   -.594E+00 0.188E-18 0.901E+00   0.229E-04 0.219E-13 0.263E-04
   -.169E+02 0.103E-11 -.942E+01   0.163E+02 0.156E-14 0.103E+02   0.594E+00 0.383E-19 -.901E+00   -.229E-04 -.155E-13 -.263E-04
   -.163E+02 -.558E-11 -.756E+01   0.188E+02 -.269E-14 0.964E+01   -.256E+01 0.288E-18 -.208E+01   0.138E-03 -.234E-13 0.169E-03
   0.163E+02 0.184E-12 0.756E+01   -.188E+02 0.423E-14 -.964E+01   0.256E+01 -.131E-18 0.208E+01   -.138E-03 0.244E-13 -.169E-03
   0.163E+02 -.548E-11 -.756E+01   -.188E+02 -.283E-14 0.964E+01   0.256E+01 -.108E-18 -.208E+01   -.138E-03 0.383E-13 0.169E-03
   -.163E+02 0.982E-12 0.756E+01   0.188E+02 0.377E-14 -.964E+01   -.256E+01 -.596E-19 0.208E+01   0.138E-03 -.686E-13 -.169E-03
 -----------------------------------------------------------------------------------------------
   -.670E-09 -.100E-10 0.260E-09   -.284E-13 0.533E-14 -.711E-14   0.444E-15 0.140E-18 0.000E+00   0.742E-13 0.461E-13 -.307E-13
 
 
 POSITION                                       TOTAL-FORCE (eV/Angst)
 -----------------------------------------------------------------------------------
      9.23013      1.81169      4.93086        -0.000854     -0.000000      0.001806
      2.03892      5.43506      5.56964         0.000854      0.000000     -0.001806
      7.67344      5.43506     10.18112         0.000854      0.000000      0.001806
      3.59560      1.81169      0.31939        -0.000854      0.000000     -0.001806
      1.86259      1.81169      3.86789        -0.003075      0.000000     -0.003266
      9.40646      5.43506      6.63261         0.003075     -0.000000      0.003266
      3.77194      5.43506      9.11814         0.003075      0.000000     -0.003266
      7.49711      1.81169      1.38236        -0.003075     -0.000000      0.003266
      4.14226      1.81169      5.84559         0.005537     -0.000000      0.000977
      7.12678      5.43506      4.65492        -0.005537      0.000000     -0.000977
      1.49226      5.43506      0.59533        -0.005537      0.000000      0.000977
      9.77679      1.81169      9.90517         0.005537      0.000000     -0.000977
      6.33186      1.81169      7.74950        -0.000932      0.000000     -0.004666
      4.93718      5.43506      2.75100         0.000932     -0.000000      0.004666
     10.57170      5.43506      2.49925         0.000932     -0.000000     -0.004666
      0.69734      1.81169      8.00125        -0.000932      0.000000      0.004666
 -----------------------------------------------------------------------------------
    total drift:                               -0.000000     -0.000000      0.000000


--------------------------------------------------------------------------------------------------------



  FREE ENERGIE OF THE ION-ELECTRON SYSTEM (eV)
  ---------------------------------------------------
  free  energy   TOTEN  =       -35.16956546 eV

  energy  without entropy=      -35.16956546  energy(sigma->0) =      -35.16956546
 


--------------------------------------------------------------------------------------------------------


    POTLOK:  cpu time      0.3353: real time      0.3405


--------------------------------------------------------------------------------------------------------


 writing wavefunctions
     LOOP+:  cpu time   2394.5155: real time   2597.1995
    4ORBIT:  cpu time      0.0000: real time      0.0000



 total charge

# of ion       s       p       d       tot
------------------------------------------
    1        1.831   4.707   0.019   6.558
    2        1.831   4.707   0.019   6.558
    3        1.831   4.707   0.019   6.558
    4        1.831   4.707   0.019   6.558
    5        1.509   2.768   0.009   4.285
    6        1.509   2.768   0.009   4.285
    7        1.509   2.768   0.009   4.285
    8        1.509   2.768   0.009   4.285
    9        1.549   2.618   0.034   4.202
   10        1.549   2.618   0.034   4.202
   11        1.549   2.618   0.034   4.202
   12        1.549   2.618   0.034   4.202
   13        1.516   2.735   0.012   4.264
   14        1.516   2.735   0.012   4.264
   15        1.516   2.735   0.012   4.264
   16        1.516   2.735   0.012   4.264
--------------------------------------------------
tot         25.620  51.315   0.299  77.234
 

 total amount of memory used by VASP MPI-rank0   917589. kBytes
=======================================================================

   base      :      30000. kBytes
   nonl-proj :     425170. kBytes
   fftplans  :      41059. kBytes
   grid      :      31395. kBytes
   one-center:        129. kBytes
   wavefun   :     389836. kBytes
 
  
  
 General timing and accounting informations for this job:
 ========================================================
  
                  Total CPU time used (sec):     2431.616
                            User time (sec):     2188.326
                          System time (sec):      243.290
                         Elapsed time (sec):     2662.275
  
                   Maximum memory used (kb):     5292004.
                   Average memory used (kb):          N/A
  
                          Minor page faults:       579682
                          Major page faults:          289
                 Voluntary context switches:      3326899
