 vasp.6.4.2 20Jul23 (build May 01 2025 16:49:15) complex                        
  
 executed on             LinuxIFC date 2026.04.02  11:29:41
 running   12 mpi-ranks, with    1 threads/rank, on    1 nodes
 distrk:  each k-point on   12 cores,    1 groups
 distr:  one band on NCORE=   1 cores,   12 groups


--------------------------------------------------------------------------------------------------------


 INCAR:
   ENCUT = 550        (Cut-off energy for plane wave basis set, in eV)
   PREC = Accurate      (Accurate strictly avoids any aliasing or wrap around errors)
   ISMEAR = 0            (gaussian smearing method)
   SIGMA = 0.05         (please check the width of the smearing)
   LORBIT = 11           (PAW radii for projected DOS)
   NELM = 200           (Max electronic SCF steps)
   EDIFF = 1E-08        (SCF energy convergence, in eV)
   LWANNIER90 = .TRUE.
   LWRITE_MMN_AMN = .TRUE.
   LWRITE_WANPROJ = .TRUE.
   LWRITE_UNK = .FALSE.
   NUM_WANN = 7
   WANNIER90_WIN = \"\
FERMI_ENERGY \= -0.5350\
\#LWRITE_UNK \= .TRUE.\
DIS_FROZ_MIN \= -5\
DIS_FROZ_MAX \= 11\
DIS_WIN_MIN \= -5\
DIS_WIN_MAX \= 18\
NUM_ITER \= 200\
WRITE_HR \= TRUE\
begin projections\
Na:s,p\
Cl:p\
end projections\
\"
   NBANDS = 30
   ISTART = 0

 POTCAR:    PAW_PBE Na_pv 19Sep2006               
 POTCAR:    PAW_PBE Cl 06Sep2000                  
 POTCAR:    PAW_PBE Na_pv 19Sep2006               
   SHA256 =  6a2f546d9e11350984debacf3dc457d8cffc0868e817d445faca461816a32b94 Na_pv/POTCAR          
   COPYR  = (c) Copyright 19Sep2006 Georg Kresse                                                    
   COPYR  = This file is part of the software VASP. Any use, copying, and all other rights are regul
   COPYR  = If you do not have a valid VASP license, you may not use, copy or distribute this file. 
   VRHFIN =Na: p6s1                                                                                 
   LEXCH  = PE                                                                                      
   EATOM  =   766.0439 eV,   56.3026 Ry                                                             
                                                                                                    
   TITEL  = PAW_PBE Na_pv 19Sep2006                                                                 
   LULTRA =        F    use ultrasoft PP ?                                                          
   IUNSCR =        1    unscreen: 0-lin 1-nonlin 2-no                                               
   RPACOR =    1.800    partial core radius                                                         
   POMASS =   22.990; ZVAL   =    7.000    mass and valenz                                          
   RCORE  =    2.200    outmost cutoff radius                                                       
   RWIGS  =    2.200; RWIGS  =    1.164    wigner-seitz radius (au A)                               
   ENMAX  =  259.561; ENMIN  =  194.671 eV                                                          
   ICORE  =        2    local potential                                                             
   LCOR   =        T    correct aug charges                                                         
   LPAW   =        T    paw PP                                                                      
   EAUG   =  368.056                                                                                
   DEXC   =    0.000                                                                                
   RMAX   =    2.245    core radius for proj-oper                                                   
   RAUG   =    1.300    factor for augmentation sphere                                              
   RDEP   =    2.259    radius for radial grids                                                     
   RDEPT  =    1.738    core radius for aug-charge                                                  
                                                                                                    
   Atomic configuration                                                                             
    5 entries                                                                                       
     n  l   j            E        occ.                                                              
     1  0  0.50     -1033.6933   2.0000                                                             
     2  0  0.50       -56.7526   2.0000                                                             
     2  1  1.50       -28.6721   6.0000                                                             
     3  0  0.50        -2.7440   1.0000                                                             
     3  2  1.50        -1.3606   0.0000                                                             
   Description                                                                                      
     l       E           TYP  RCUT    TYP  RCUT                                                     
     1    -28.6720912     23  2.000                                                                 
     1      6.8029130     23  2.000                                                                 
     0     -2.7439560     23  2.200                                                                 
     0     34.0145650     23  2.200                                                                 
     2     -1.3605826     23  2.200                                                                 
  local pseudopotential read in
  partial core-charges read in
  partial kinetic energy density read in
  atomic valenz-charges read in
  non local Contribution for L=           1  read in
    real space projection operators read in
  non local Contribution for L=           1  read in
    real space projection operators read in
  non local Contribution for L=           0  read in
    real space projection operators read in
  non local Contribution for L=           0  read in
    real space projection operators read in
    PAW grid and wavefunctions read in
 
   number of l-projection  operators is LMAX  =           4
   number of lm-projection operators is LMMAX =           8
 
 POTCAR:    PAW_PBE Cl 06Sep2000                  
   SHA256 =  9f1b6e6ed4247ac726a768b330d26d7667cc3c95a39ff49c1d064c2d9dcce931 Cl/POTCAR             
   COPYR  = (c) Copyright 06Sep2000 Georg Kresse                                                    
   COPYR  = This file is part of the software VASP. Any use, copying, and all other rights are regul
   COPYR  = If you do not have a valid VASP license, you may not use, copy or distribute this file. 
   VRHFIN =Cl: s2p5                                                                                 
   LEXCH  = PE                                                                                      
   EATOM  =   409.7259 eV,   30.1140 Ry                                                             
                                                                                                    
   TITEL  = PAW_PBE Cl 06Sep2000                                                                    
   LULTRA =        F    use ultrasoft PP ?                                                          
   IUNSCR =        1    unscreen: 0-lin 1-nonlin 2-no                                               
   RPACOR =    1.500    partial core radius                                                         
   POMASS =   35.453; ZVAL   =    7.000    mass and valenz                                          
   RCORE  =    1.900    outmost cutoff radius                                                       
   RWIGS  =    2.100; RWIGS  =    1.111    wigner-seitz radius (au A)                               
   ENMAX  =  262.472; ENMIN  =  196.854 eV                                                          
   ICORE  =        2    local potential                                                             
   LCOR   =        T    correct aug charges                                                         
   LPAW   =        T    paw PP                                                                      
   EAUG   =  356.192                                                                                
   DEXC   =    0.000                                                                                
   RMAX   =    1.945    core radius for proj-oper                                                   
   RAUG   =    1.300    factor for augmentation sphere                                              
   RDEP   =    2.020    radius for radial grids                                                     
   RDEPT  =    1.678    core radius for aug-charge                                                  
                                                                                                    
   Atomic configuration                                                                             
    6 entries                                                                                       
     n  l   j            E        occ.                                                              
     1  0  0.50     -2751.1850   2.0000                                                             
     2  0  0.50      -252.6861   2.0000                                                             
     2  1  1.50      -191.6157   6.0000                                                             
     3  0  0.50       -20.6916   2.0000                                                             
     3  1  0.50        -8.5949   5.0000                                                             
     3  2  1.50        -8.1635   0.0000                                                             
   Description                                                                                      
     l       E           TYP  RCUT    TYP  RCUT                                                     
     0    -20.6915656     23  1.900                                                                 
     0    -22.0521482     23  1.900                                                                 
     1     -8.5948577     23  1.900                                                                 
     1     -5.3847331     23  1.900                                                                 
     2     -8.1634956     23  1.900                                                                 
  local pseudopotential read in
  partial core-charges read in
  partial kinetic energy density read in
  atomic valenz-charges read in
  non local Contribution for L=           0  read in
    real space projection operators read in
  non local Contribution for L=           0  read in
    real space projection operators read in
  non local Contribution for L=           1  read in
    real space projection operators read in
  non local Contribution for L=           1  read in
    real space projection operators read in
    PAW grid and wavefunctions read in
 
   number of l-projection  operators is LMAX  =           4
   number of lm-projection operators is LMMAX =           8
 
  PAW_PBE Na_pv 19Sep2006               :
 energy of atom  1       EATOM= -766.0439
 kinetic energy error for atom=    0.0018 (will be added to EATOM!!)
  PAW_PBE Cl 06Sep2000                  :
 energy of atom  2       EATOM= -409.7259
 kinetic energy error for atom=    0.0017 (will be added to EATOM!!)
 
 
 POSCAR: Generated by VASPKIT code
  positions in direct lattice
  velocities in cartesian coordinates
 exchange correlation table for  LEXCH =        8
   RHO(1)=    0.500       N(1)  =     2000
   RHO(2)=  100.500       N(2)  =     4000
 


--------------------------------------------------------------------------------------------------------


 ion  position               nearest neighbor table
   1  0.000  0.000  0.000-
   2  0.500  0.500  0.500-
 
  LATTYP: Found a face centered cubic cell.
 ALAT       =     5.6943672562
  
  Lattice vectors:
  
 A1 = (   0.0000000000,   2.8471836281,   2.8471836281)
 A2 = (   2.8471836281,   0.0000000000,   2.8471836281)
 A3 = (   2.8471836281,   2.8471836281,   0.0000000000)


Analysis of symmetry for initial positions (statically):
=====================================================================
 Subroutine PRICEL returns:
 Original cell was already a primitive cell.
 

 Routine SETGRP: Setting up the symmetry group for a 
 face centered cubic supercell.


 Subroutine GETGRP returns: Found 48 space group operations
 (whereof 48 operations were pure point group operations)
 out of a pool of 48 trial point group operations.


The static configuration has the point symmetry O_h .


Analysis of symmetry for dynamics (positions and initial velocities):
=====================================================================
 Subroutine PRICEL returns:
 Original cell was already a primitive cell.
 

 Routine SETGRP: Setting up the symmetry group for a 
 face centered cubic supercell.


 Subroutine GETGRP returns: Found 48 space group operations
 (whereof 48 operations were pure point group operations)
 out of a pool of 48 trial point group operations.


The dynamic configuration has the point symmetry O_h .


 Subroutine INISYM returns: Found 48 space group operations
 (whereof 48 operations are pure point group operations),
 and found     1 'primitive' translations


----------------------------------------------------------------------------------------

                                     Primitive cell                                     

  volume of cell :      46.1611

  direct lattice vectors                    reciprocal lattice vectors
     0.000000000  2.847183628  2.847183628    -0.175612137  0.175612137  0.175612137
     2.847183628  0.000000000  2.847183628     0.175612137 -0.175612137  0.175612137
     2.847183628  2.847183628  0.000000000     0.175612137  0.175612137 -0.175612137

  length of vectors
     4.026525701  4.026525701  4.026525701     0.304169143  0.304169143  0.304169143

  position of ions in fractional coordinates (direct lattice)
     0.000000000  0.000000000  0.000000000
     0.500000000  0.500000000  0.500000000

  ion indices of the primitive-cell ions
   primitive index   ion index
                 1           1
                 2           2

----------------------------------------------------------------------------------------

 
 
 KPOINTS: K-Spacing Value to Generate K-Mesh: 0.02

Automatic generation of k-mesh.
 Grid dimensions read from file:
 generate k-points for:   15   15   15

 Generating k-lattice:

  Cartesian coordinates                     Fractional coordinates (reciprocal lattice)
    -0.011707476  0.011707476  0.011707476     0.066666667  0.000000000  0.000000000
     0.011707476 -0.011707476  0.011707476     0.000000000  0.066666667 -0.000000000
     0.011707476  0.011707476 -0.011707476    -0.000000000 -0.000000000  0.066666667

  Length of vectors
     0.020277943  0.020277943  0.020277943

  Shift w.r.t. Gamma in fractional coordinates (k-lattice)
     0.000000000  0.000000000  0.000000000

 
 Subroutine IBZKPT returns following result:
 ===========================================
 
 Found    120 irreducible k-points:
 
 Following reciprocal coordinates:
            Coordinates               Weight
  0.000000  0.000000  0.000000      1.000000
  0.066667  0.000000  0.000000      8.000000
  0.133333  0.000000  0.000000      8.000000
  0.200000  0.000000  0.000000      8.000000
  0.266667  0.000000  0.000000      8.000000
  0.333333  0.000000  0.000000      8.000000
  0.400000  0.000000  0.000000      8.000000
  0.466667  0.000000  0.000000      8.000000
  0.066667  0.066667  0.000000      6.000000
  0.133333  0.066667  0.000000     24.000000
  0.200000  0.066667  0.000000     24.000000
  0.266667  0.066667  0.000000     24.000000
  0.333333  0.066667  0.000000     24.000000
  0.400000  0.066667  0.000000     24.000000
  0.466667  0.066667  0.000000     24.000000
 -0.466667  0.066667  0.000000     24.000000
 -0.400000  0.066667  0.000000     24.000000
 -0.333333  0.066667  0.000000     24.000000
 -0.266667  0.066667  0.000000     24.000000
 -0.200000  0.066667  0.000000     24.000000
 -0.133333  0.066667  0.000000     24.000000
 -0.066667  0.066667  0.000000     12.000000
  0.133333  0.133333  0.000000      6.000000
  0.200000  0.133333  0.000000     24.000000
  0.266667  0.133333  0.000000     24.000000
  0.333333  0.133333  0.000000     24.000000
  0.400000  0.133333  0.000000     24.000000
  0.466667  0.133333  0.000000     24.000000
 -0.466667  0.133333  0.000000     24.000000
 -0.400000  0.133333  0.000000     24.000000
 -0.333333  0.133333  0.000000     24.000000
 -0.266667  0.133333  0.000000     24.000000
 -0.200000  0.133333  0.000000     24.000000
 -0.133333  0.133333  0.000000     12.000000
  0.200000  0.200000  0.000000      6.000000
  0.266667  0.200000  0.000000     24.000000
  0.333333  0.200000  0.000000     24.000000
  0.400000  0.200000  0.000000     24.000000
  0.466667  0.200000  0.000000     24.000000
 -0.466667  0.200000  0.000000     24.000000
 -0.400000  0.200000  0.000000     24.000000
 -0.333333  0.200000  0.000000     24.000000
 -0.266667  0.200000  0.000000     24.000000
 -0.200000  0.200000  0.000000     12.000000
  0.266667  0.266667  0.000000      6.000000
  0.333333  0.266667  0.000000     24.000000
  0.400000  0.266667  0.000000     24.000000
  0.466667  0.266667  0.000000     24.000000
 -0.466667  0.266667  0.000000     24.000000
 -0.400000  0.266667  0.000000     24.000000
 -0.333333  0.266667  0.000000     24.000000
 -0.266667  0.266667  0.000000     12.000000
  0.333333  0.333333  0.000000      6.000000
  0.400000  0.333333  0.000000     24.000000
  0.466667  0.333333  0.000000     24.000000
 -0.466667  0.333333  0.000000     24.000000
 -0.400000  0.333333  0.000000     24.000000
 -0.333333  0.333333  0.000000     12.000000
  0.400000  0.400000  0.000000      6.000000
  0.466667  0.400000  0.000000     24.000000
 -0.466667  0.400000  0.000000     24.000000
 -0.400000  0.400000  0.000000     12.000000
  0.466667  0.466667  0.000000      6.000000
 -0.466667  0.466667  0.000000     12.000000
  0.200000  0.133333  0.066667     24.000000
  0.266667  0.133333  0.066667     48.000000
  0.333333  0.133333  0.066667     48.000000
  0.400000  0.133333  0.066667     48.000000
  0.466667  0.133333  0.066667     48.000000
 -0.466667  0.133333  0.066667     48.000000
  0.266667  0.200000  0.066667     24.000000
  0.333333  0.200000  0.066667     48.000000
  0.400000  0.200000  0.066667     48.000000
  0.466667  0.200000  0.066667     48.000000
 -0.466667  0.200000  0.066667     48.000000
 -0.400000  0.200000  0.066667     48.000000
 -0.333333  0.200000  0.066667     48.000000
 -0.266667  0.200000  0.066667     48.000000
 -0.200000  0.200000  0.066667     48.000000
 -0.133333  0.200000  0.066667     24.000000
  0.333333  0.266667  0.066667     24.000000
  0.400000  0.266667  0.066667     48.000000
  0.466667  0.266667  0.066667     48.000000
 -0.466667  0.266667  0.066667     48.000000
 -0.400000  0.266667  0.066667     48.000000
 -0.333333  0.266667  0.066667     48.000000
 -0.266667  0.266667  0.066667     48.000000
 -0.200000  0.266667  0.066667     24.000000
  0.400000  0.333333  0.066667     24.000000
  0.466667  0.333333  0.066667     48.000000
 -0.466667  0.333333  0.066667     48.000000
 -0.400000  0.333333  0.066667     48.000000
 -0.333333  0.333333  0.066667     48.000000
 -0.266667  0.333333  0.066667     24.000000
  0.466667  0.400000  0.066667     24.000000
 -0.466667  0.400000  0.066667     48.000000
 -0.400000  0.400000  0.066667     48.000000
 -0.333333  0.400000  0.066667     24.000000
 -0.466667  0.466667  0.066667     24.000000
 -0.400000  0.466667  0.066667     24.000000
  0.400000  0.266667  0.133333     24.000000
  0.466667  0.266667  0.133333     48.000000
 -0.466667  0.266667  0.133333     48.000000
 -0.400000  0.266667  0.133333     48.000000
  0.466667  0.333333  0.133333     24.000000
 -0.466667  0.333333  0.133333     48.000000
 -0.400000  0.333333  0.133333     48.000000
 -0.333333  0.333333  0.133333     48.000000
 -0.266667  0.333333  0.133333     48.000000
 -0.200000  0.333333  0.133333     24.000000
 -0.466667  0.400000  0.133333     24.000000
 -0.400000  0.400000  0.133333     48.000000
 -0.333333  0.400000  0.133333     48.000000
 -0.266667  0.400000  0.133333     24.000000
 -0.400000  0.466667  0.133333     24.000000
 -0.333333  0.466667  0.133333     24.000000
 -0.400000  0.400000  0.200000     24.000000
 -0.333333  0.400000  0.200000     48.000000
 -0.333333  0.466667  0.200000     24.000000
 -0.266667  0.466667  0.200000     24.000000
 
 Following cartesian coordinates:
            Coordinates               Weight
  0.000000  0.000000  0.000000      1.000000
 -0.011707  0.011707  0.011707      8.000000
 -0.023415  0.023415  0.023415      8.000000
 -0.035122  0.035122  0.035122      8.000000
 -0.046830  0.046830  0.046830      8.000000
 -0.058537  0.058537  0.058537      8.000000
 -0.070245  0.070245  0.070245      8.000000
 -0.081952  0.081952  0.081952      8.000000
  0.000000  0.000000  0.023415      6.000000
 -0.011707  0.011707  0.035122     24.000000
 -0.023415  0.023415  0.046830     24.000000
 -0.035122  0.035122  0.058537     24.000000
 -0.046830  0.046830  0.070245     24.000000
 -0.058537  0.058537  0.081952     24.000000
 -0.070245  0.070245  0.093660     24.000000
  0.093660 -0.093660 -0.070245     24.000000
  0.081952 -0.081952 -0.058537     24.000000
  0.070245 -0.070245 -0.046830     24.000000
  0.058537 -0.058537 -0.035122     24.000000
  0.046830 -0.046830 -0.023415     24.000000
  0.035122 -0.035122 -0.011707     24.000000
  0.023415 -0.023415  0.000000     12.000000
  0.000000  0.000000  0.046830      6.000000
 -0.011707  0.011707  0.058537     24.000000
 -0.023415  0.023415  0.070245     24.000000
 -0.035122  0.035122  0.081952     24.000000
 -0.046830  0.046830  0.093660     24.000000
 -0.058537  0.058537  0.105367     24.000000
  0.105367 -0.105367 -0.058537     24.000000
  0.093660 -0.093660 -0.046830     24.000000
  0.081952 -0.081952 -0.035122     24.000000
  0.070245 -0.070245 -0.023415     24.000000
  0.058537 -0.058537 -0.011707     24.000000
  0.046830 -0.046830  0.000000     12.000000
  0.000000  0.000000  0.070245      6.000000
 -0.011707  0.011707  0.081952     24.000000
 -0.023415  0.023415  0.093660     24.000000
 -0.035122  0.035122  0.105367     24.000000
 -0.046830  0.046830  0.117075     24.000000
  0.117075 -0.117075 -0.046830     24.000000
  0.105367 -0.105367 -0.035122     24.000000
  0.093660 -0.093660 -0.023415     24.000000
  0.081952 -0.081952 -0.011707     24.000000
  0.070245 -0.070245  0.000000     12.000000
  0.000000  0.000000  0.093660      6.000000
 -0.011707  0.011707  0.105367     24.000000
 -0.023415  0.023415  0.117075     24.000000
 -0.035122  0.035122  0.128782     24.000000
  0.128782 -0.128782 -0.035122     24.000000
  0.117075 -0.117075 -0.023415     24.000000
  0.105367 -0.105367 -0.011707     24.000000
  0.093660 -0.093660  0.000000     12.000000
  0.000000  0.000000  0.117075      6.000000
 -0.011707  0.011707  0.128782     24.000000
 -0.023415  0.023415  0.140490     24.000000
  0.140490 -0.140490 -0.023415     24.000000
  0.128782 -0.128782 -0.011707     24.000000
  0.117075 -0.117075  0.000000     12.000000
  0.000000  0.000000  0.140490      6.000000
 -0.011707  0.011707  0.152197     24.000000
  0.152197 -0.152197 -0.011707     24.000000
  0.140490 -0.140490  0.000000     12.000000
  0.000000  0.000000  0.163905      6.000000
  0.163905 -0.163905  0.000000     12.000000
  0.000000  0.023415  0.046830     24.000000
 -0.011707  0.035122  0.058537     48.000000
 -0.023415  0.046830  0.070245     48.000000
 -0.035122  0.058537  0.081952     48.000000
 -0.046830  0.070245  0.093660     48.000000
  0.117075 -0.093660 -0.070245     48.000000
  0.000000  0.023415  0.070245     24.000000
 -0.011707  0.035122  0.081952     48.000000
 -0.023415  0.046830  0.093660     48.000000
 -0.035122  0.058537  0.105367     48.000000
  0.128782 -0.105367 -0.058537     48.000000
  0.117075 -0.093660 -0.046830     48.000000
  0.105367 -0.081952 -0.035122     48.000000
  0.093660 -0.070245 -0.023415     48.000000
  0.081952 -0.058537 -0.011707     48.000000
  0.070245 -0.046830  0.000000     24.000000
  0.000000  0.023415  0.093660     24.000000
 -0.011707  0.035122  0.105367     48.000000
 -0.023415  0.046830  0.117075     48.000000
  0.140490 -0.117075 -0.046830     48.000000
  0.128782 -0.105367 -0.035122     48.000000
  0.117075 -0.093660 -0.023415     48.000000
  0.105367 -0.081952 -0.011707     48.000000
  0.093660 -0.070245  0.000000     24.000000
  0.000000  0.023415  0.117075     24.000000
 -0.011707  0.035122  0.128782     48.000000
  0.152197 -0.128782 -0.035122     48.000000
  0.140490 -0.117075 -0.023415     48.000000
  0.128782 -0.105367 -0.011707     48.000000
  0.117075 -0.093660  0.000000     24.000000
  0.000000  0.023415  0.140490     24.000000
  0.163905 -0.140490 -0.023415     48.000000
  0.152197 -0.128782 -0.011707     48.000000
  0.140490 -0.117075  0.000000     24.000000
  0.175612 -0.152197 -0.011707     24.000000
  0.163905 -0.140490  0.000000     24.000000
  0.000000  0.046830  0.093660     24.000000
 -0.011707  0.058537  0.105367     48.000000
  0.152197 -0.105367 -0.058537     48.000000
  0.140490 -0.093660 -0.046830     48.000000
  0.000000  0.046830  0.117075     24.000000
  0.163905 -0.117075 -0.046830     48.000000
  0.152197 -0.105367 -0.035122     48.000000
  0.140490 -0.093660 -0.023415     48.000000
  0.128782 -0.081952 -0.011707     48.000000
  0.117075 -0.070245  0.000000     24.000000
  0.175612 -0.128782 -0.035122     24.000000
  0.163905 -0.117075 -0.023415     48.000000
  0.152197 -0.105367 -0.011707     48.000000
  0.140490 -0.093660  0.000000     24.000000
  0.175612 -0.128782 -0.011707     24.000000
  0.163905 -0.117075  0.000000     24.000000
  0.175612 -0.105367 -0.035122     24.000000
  0.163905 -0.093660 -0.023415     48.000000
  0.175612 -0.105367 -0.011707     24.000000
  0.163905 -0.093660  0.000000     24.000000
 
 
 Subroutine IBZKPT_HF returns following result:
 ==============================================
 
 Found   3375 k-points in 1st BZ
 the following   3375 k-points will be used (e.g. in the exchange kernel)
 Following reciprocal coordinates:   # in IRBZ
  0.000000  0.000000  0.000000    0.00029630   1 t-inv F
  0.066667  0.000000  0.000000    0.00029630   2 t-inv F
  0.133333  0.000000  0.000000    0.00029630   3 t-inv F
  0.200000  0.000000  0.000000    0.00029630   4 t-inv F
  0.266667  0.000000  0.000000    0.00029630   5 t-inv F
  0.333333  0.000000  0.000000    0.00029630   6 t-inv F
  0.400000  0.000000  0.000000    0.00029630   7 t-inv F
  0.466667  0.000000  0.000000    0.00029630   8 t-inv F
  0.066667  0.066667  0.000000    0.00029630   9 t-inv F
  0.133333  0.066667  0.000000    0.00029630  10 t-inv F
  0.200000  0.066667  0.000000    0.00029630  11 t-inv F
  0.266667  0.066667  0.000000    0.00029630  12 t-inv F
  0.333333  0.066667  0.000000    0.00029630  13 t-inv F
  0.400000  0.066667  0.000000    0.00029630  14 t-inv F
  0.466667  0.066667  0.000000    0.00029630  15 t-inv F
 -0.466667  0.066667  0.000000    0.00029630  16 t-inv F
 -0.400000  0.066667  0.000000    0.00029630  17 t-inv F
 -0.333333  0.066667  0.000000    0.00029630  18 t-inv F
 -0.266667  0.066667  0.000000    0.00029630  19 t-inv F
 -0.200000  0.066667  0.000000    0.00029630  20 t-inv F
 -0.133333  0.066667  0.000000    0.00029630  21 t-inv F
 -0.066667  0.066667  0.000000    0.00029630  22 t-inv F
  0.133333  0.133333  0.000000    0.00029630  23 t-inv F
  0.200000  0.133333  0.000000    0.00029630  24 t-inv F
  0.266667  0.133333  0.000000    0.00029630  25 t-inv F
  0.333333  0.133333  0.000000    0.00029630  26 t-inv F
  0.400000  0.133333  0.000000    0.00029630  27 t-inv F
  0.466667  0.133333  0.000000    0.00029630  28 t-inv F
 -0.466667  0.133333  0.000000    0.00029630  29 t-inv F
 -0.400000  0.133333  0.000000    0.00029630  30 t-inv F
 -0.333333  0.133333  0.000000    0.00029630  31 t-inv F
 -0.266667  0.133333  0.000000    0.00029630  32 t-inv F
 -0.200000  0.133333  0.000000    0.00029630  33 t-inv F
 -0.133333  0.133333  0.000000    0.00029630  34 t-inv F
  0.200000  0.200000  0.000000    0.00029630  35 t-inv F
  0.266667  0.200000  0.000000    0.00029630  36 t-inv F
  0.333333  0.200000  0.000000    0.00029630  37 t-inv F
  0.400000  0.200000  0.000000    0.00029630  38 t-inv F
  0.466667  0.200000  0.000000    0.00029630  39 t-inv F
 -0.466667  0.200000  0.000000    0.00029630  40 t-inv F
 -0.400000  0.200000  0.000000    0.00029630  41 t-inv F
 -0.333333  0.200000  0.000000    0.00029630  42 t-inv F
 -0.266667  0.200000  0.000000    0.00029630  43 t-inv F
 -0.200000  0.200000  0.000000    0.00029630  44 t-inv F
  0.266667  0.266667  0.000000    0.00029630  45 t-inv F
  0.333333  0.266667  0.000000    0.00029630  46 t-inv F
  0.400000  0.266667  0.000000    0.00029630  47 t-inv F
  0.466667  0.266667  0.000000    0.00029630  48 t-inv F
 -0.466667  0.266667  0.000000    0.00029630  49 t-inv F
 -0.400000  0.266667  0.000000    0.00029630  50 t-inv F
 -0.333333  0.266667  0.000000    0.00029630  51 t-inv F
 -0.266667  0.266667  0.000000    0.00029630  52 t-inv F
  0.333333  0.333333  0.000000    0.00029630  53 t-inv F
  0.400000  0.333333  0.000000    0.00029630  54 t-inv F
  0.466667  0.333333  0.000000    0.00029630  55 t-inv F
 -0.466667  0.333333  0.000000    0.00029630  56 t-inv F
 -0.400000  0.333333  0.000000    0.00029630  57 t-inv F
 -0.333333  0.333333  0.000000    0.00029630  58 t-inv F
  0.400000  0.400000  0.000000    0.00029630  59 t-inv F
  0.466667  0.400000  0.000000    0.00029630  60 t-inv F
 -0.466667  0.400000  0.000000    0.00029630  61 t-inv F
 -0.400000  0.400000  0.000000    0.00029630  62 t-inv F
  0.466667  0.466667  0.000000    0.00029630  63 t-inv F
 -0.466667  0.466667  0.000000    0.00029630  64 t-inv F
  0.200000  0.133333  0.066667    0.00029630  65 t-inv F
  0.266667  0.133333  0.066667    0.00029630  66 t-inv F
  0.333333  0.133333  0.066667    0.00029630  67 t-inv F
  0.400000  0.133333  0.066667    0.00029630  68 t-inv F
  0.466667  0.133333  0.066667    0.00029630  69 t-inv F
 -0.466667  0.133333  0.066667    0.00029630  70 t-inv F
  0.266667  0.200000  0.066667    0.00029630  71 t-inv F
  0.333333  0.200000  0.066667    0.00029630  72 t-inv F
  0.400000  0.200000  0.066667    0.00029630  73 t-inv F
  0.466667  0.200000  0.066667    0.00029630  74 t-inv F
 -0.466667  0.200000  0.066667    0.00029630  75 t-inv F
 -0.400000  0.200000  0.066667    0.00029630  76 t-inv F
 -0.333333  0.200000  0.066667    0.00029630  77 t-inv F
 -0.266667  0.200000  0.066667    0.00029630  78 t-inv F
 -0.200000  0.200000  0.066667    0.00029630  79 t-inv F
 -0.133333  0.200000  0.066667    0.00029630  80 t-inv F
  0.333333  0.266667  0.066667    0.00029630  81 t-inv F
  0.400000  0.266667  0.066667    0.00029630  82 t-inv F
  0.466667  0.266667  0.066667    0.00029630  83 t-inv F
 -0.466667  0.266667  0.066667    0.00029630  84 t-inv F
 -0.400000  0.266667  0.066667    0.00029630  85 t-inv F
 -0.333333  0.266667  0.066667    0.00029630  86 t-inv F
 -0.266667  0.266667  0.066667    0.00029630  87 t-inv F
 -0.200000  0.266667  0.066667    0.00029630  88 t-inv F
  0.400000  0.333333  0.066667    0.00029630  89 t-inv F
  0.466667  0.333333  0.066667    0.00029630  90 t-inv F
 -0.466667  0.333333  0.066667    0.00029630  91 t-inv F
 -0.400000  0.333333  0.066667    0.00029630  92 t-inv F
 -0.333333  0.333333  0.066667    0.00029630  93 t-inv F
 -0.266667  0.333333  0.066667    0.00029630  94 t-inv F
  0.466667  0.400000  0.066667    0.00029630  95 t-inv F
 -0.466667  0.400000  0.066667    0.00029630  96 t-inv F
 -0.400000  0.400000  0.066667    0.00029630  97 t-inv F
 -0.333333  0.400000  0.066667    0.00029630  98 t-inv F
 -0.466667  0.466667  0.066667    0.00029630  99 t-inv F
 -0.400000  0.466667  0.066667    0.00029630 100 t-inv F
  0.400000  0.266667  0.133333    0.00029630 101 t-inv F
  0.466667  0.266667  0.133333    0.00029630 102 t-inv F
 -0.466667  0.266667  0.133333    0.00029630 103 t-inv F
 -0.400000  0.266667  0.133333    0.00029630 104 t-inv F
  0.466667  0.333333  0.133333    0.00029630 105 t-inv F
 -0.466667  0.333333  0.133333    0.00029630 106 t-inv F
 -0.400000  0.333333  0.133333    0.00029630 107 t-inv F
 -0.333333  0.333333  0.133333    0.00029630 108 t-inv F
 -0.266667  0.333333  0.133333    0.00029630 109 t-inv F
 -0.200000  0.333333  0.133333    0.00029630 110 t-inv F
 -0.466667  0.400000  0.133333    0.00029630 111 t-inv F
 -0.400000  0.400000  0.133333    0.00029630 112 t-inv F
 -0.333333  0.400000  0.133333    0.00029630 113 t-inv F
 -0.266667  0.400000  0.133333    0.00029630 114 t-inv F
 -0.400000  0.466667  0.133333    0.00029630 115 t-inv F
 -0.333333  0.466667  0.133333    0.00029630 116 t-inv F
 -0.400000  0.400000  0.200000    0.00029630 117 t-inv F
 -0.333333  0.400000  0.200000    0.00029630 118 t-inv F
 -0.333333  0.466667  0.200000    0.00029630 119 t-inv F
 -0.266667  0.466667  0.200000    0.00029630 120 t-inv F
 -0.066667 -0.000000 -0.000000    0.00029630   2 t-inv F
  0.000000  0.066667  0.000000    0.00029630   2 t-inv F
 -0.000000 -0.066667 -0.000000    0.00029630   2 t-inv F
  0.000000  0.000000  0.066667    0.00029630   2 t-inv F
 -0.000000 -0.000000 -0.066667    0.00029630   2 t-inv F
  0.066667  0.066667  0.066667    0.00029630   2 t-inv F
 -0.066667 -0.066667 -0.066667    0.00029630   2 t-inv F
 -0.133333 -0.000000 -0.000000    0.00029630   3 t-inv F
  0.000000  0.133333  0.000000    0.00029630   3 t-inv F
 -0.000000 -0.133333 -0.000000    0.00029630   3 t-inv F
  0.000000  0.000000  0.133333    0.00029630   3 t-inv F
 -0.000000 -0.000000 -0.133333    0.00029630   3 t-inv F
  0.133333  0.133333  0.133333    0.00029630   3 t-inv F
 -0.133333 -0.133333 -0.133333    0.00029630   3 t-inv F
 -0.200000 -0.000000 -0.000000    0.00029630   4 t-inv F
  0.000000  0.200000  0.000000    0.00029630   4 t-inv F
 -0.000000 -0.200000 -0.000000    0.00029630   4 t-inv F
  0.000000  0.000000  0.200000    0.00029630   4 t-inv F
 -0.000000 -0.000000 -0.200000    0.00029630   4 t-inv F
  0.200000  0.200000  0.200000    0.00029630   4 t-inv F
 -0.200000 -0.200000 -0.200000    0.00029630   4 t-inv F
 -0.266667 -0.000000 -0.000000    0.00029630   5 t-inv F
  0.000000  0.266667  0.000000    0.00029630   5 t-inv F
 -0.000000 -0.266667 -0.000000    0.00029630   5 t-inv F
  0.000000  0.000000  0.266667    0.00029630   5 t-inv F
 -0.000000 -0.000000 -0.266667    0.00029630   5 t-inv F
  0.266667  0.266667  0.266667    0.00029630   5 t-inv F
 -0.266667 -0.266667 -0.266667    0.00029630   5 t-inv F
 -0.333333 -0.000000 -0.000000    0.00029630   6 t-inv F
  0.000000  0.333333  0.000000    0.00029630   6 t-inv F
 -0.000000 -0.333333 -0.000000    0.00029630   6 t-inv F
  0.000000  0.000000  0.333333    0.00029630   6 t-inv F
 -0.000000 -0.000000 -0.333333    0.00029630   6 t-inv F
  0.333333  0.333333  0.333333    0.00029630   6 t-inv F
 -0.333333 -0.333333 -0.333333    0.00029630   6 t-inv F
 -0.400000 -0.000000 -0.000000    0.00029630   7 t-inv F
  0.000000  0.400000  0.000000    0.00029630   7 t-inv F
 -0.000000 -0.400000 -0.000000    0.00029630   7 t-inv F
  0.000000  0.000000  0.400000    0.00029630   7 t-inv F
 -0.000000 -0.000000 -0.400000    0.00029630   7 t-inv F
  0.400000  0.400000  0.400000    0.00029630   7 t-inv F
 -0.400000 -0.400000 -0.400000    0.00029630   7 t-inv F
 -0.466667 -0.000000 -0.000000    0.00029630   8 t-inv F
  0.000000  0.466667  0.000000    0.00029630   8 t-inv F
 -0.000000 -0.466667 -0.000000    0.00029630   8 t-inv F
  0.000000  0.000000  0.466667    0.00029630   8 t-inv F
 -0.000000 -0.000000 -0.466667    0.00029630   8 t-inv F
  0.466667  0.466667  0.466667    0.00029630   8 t-inv F
 -0.466667 -0.466667 -0.466667    0.00029630   8 t-inv F
 -0.066667 -0.066667 -0.000000    0.00029630   9 t-inv F
  0.000000  0.066667  0.066667    0.00029630   9 t-inv F
 -0.000000 -0.066667 -0.066667    0.00029630   9 t-inv F
  0.066667  0.000000  0.066667    0.00029630   9 t-inv F
 -0.066667 -0.000000 -0.066667    0.00029630   9 t-inv F
 -0.133333 -0.066667 -0.000000    0.00029630  10 t-inv F
  0.000000  0.133333  0.066667    0.00029630  10 t-inv F
 -0.000000 -0.133333 -0.066667    0.00029630  10 t-inv F
  0.066667  0.000000  0.133333    0.00029630  10 t-inv F
 -0.066667 -0.000000 -0.133333    0.00029630  10 t-inv F
  0.066667  0.066667 -0.066667    0.00029630  10 t-inv F
 -0.066667 -0.066667  0.066667    0.00029630  10 t-inv F
  0.133333  0.066667  0.133333    0.00029630  10 t-inv F
 -0.133333 -0.066667 -0.133333    0.00029630  10 t-inv F
  0.066667  0.133333 -0.000000    0.00029630  10 t-inv F
 -0.066667 -0.133333  0.000000    0.00029630  10 t-inv F
  0.066667 -0.066667 -0.066667    0.00029630  10 t-inv F
 -0.066667  0.066667  0.066667    0.00029630  10 t-inv F
  0.133333  0.133333  0.066667    0.00029630  10 t-inv F
 -0.133333 -0.133333 -0.066667    0.00029630  10 t-inv F
 -0.000000  0.066667  0.133333    0.00029630  10 t-inv F
  0.000000 -0.066667 -0.133333    0.00029630  10 t-inv F
 -0.066667  0.066667 -0.066667    0.00029630  10 t-inv F
  0.066667 -0.066667  0.066667    0.00029630  10 t-inv F
  0.066667  0.133333  0.133333    0.00029630  10 t-inv F
 -0.066667 -0.133333 -0.133333    0.00029630  10 t-inv F
  0.133333 -0.000000  0.066667    0.00029630  10 t-inv F
 -0.133333  0.000000 -0.066667    0.00029630  10 t-inv F
 -0.200000 -0.066667 -0.000000    0.00029630  11 t-inv F
  0.000000  0.200000  0.066667    0.00029630  11 t-inv F
 -0.000000 -0.200000 -0.066667    0.00029630  11 t-inv F
  0.066667  0.000000  0.200000    0.00029630  11 t-inv F
 -0.066667 -0.000000 -0.200000    0.00029630  11 t-inv F
  0.066667  0.066667 -0.133333    0.00029630  11 t-inv F
 -0.066667 -0.066667  0.133333    0.00029630  11 t-inv F
  0.200000  0.133333  0.200000    0.00029630  11 t-inv F
 -0.200000 -0.133333 -0.200000    0.00029630  11 t-inv F
  0.066667  0.200000 -0.000000    0.00029630  11 t-inv F
 -0.066667 -0.200000  0.000000    0.00029630  11 t-inv F
  0.133333 -0.066667 -0.066667    0.00029630  11 t-inv F
 -0.133333  0.066667  0.066667    0.00029630  11 t-inv F
  0.200000  0.200000  0.133333    0.00029630  11 t-inv F
 -0.200000 -0.200000 -0.133333    0.00029630  11 t-inv F
 -0.000000  0.066667  0.200000    0.00029630  11 t-inv F
  0.000000 -0.066667 -0.200000    0.00029630  11 t-inv F
 -0.066667  0.133333 -0.066667    0.00029630  11 t-inv F
  0.066667 -0.133333  0.066667    0.00029630  11 t-inv F
  0.133333  0.200000  0.200000    0.00029630  11 t-inv F
 -0.133333 -0.200000 -0.200000    0.00029630  11 t-inv F
  0.200000 -0.000000  0.066667    0.00029630  11 t-inv F
 -0.200000  0.000000 -0.066667    0.00029630  11 t-inv F
 -0.266667 -0.066667 -0.000000    0.00029630  12 t-inv F
  0.000000  0.266667  0.066667    0.00029630  12 t-inv F
 -0.000000 -0.266667 -0.066667    0.00029630  12 t-inv F
  0.066667  0.000000  0.266667    0.00029630  12 t-inv F
 -0.066667 -0.000000 -0.266667    0.00029630  12 t-inv F
  0.066667  0.066667 -0.200000    0.00029630  12 t-inv F
 -0.066667 -0.066667  0.200000    0.00029630  12 t-inv F
  0.266667  0.200000  0.266667    0.00029630  12 t-inv F
 -0.266667 -0.200000 -0.266667    0.00029630  12 t-inv F
  0.066667  0.266667 -0.000000    0.00029630  12 t-inv F
 -0.066667 -0.266667  0.000000    0.00029630  12 t-inv F
  0.200000 -0.066667 -0.066667    0.00029630  12 t-inv F
 -0.200000  0.066667  0.066667    0.00029630  12 t-inv F
  0.266667  0.266667  0.200000    0.00029630  12 t-inv F
 -0.266667 -0.266667 -0.200000    0.00029630  12 t-inv F
 -0.000000  0.066667  0.266667    0.00029630  12 t-inv F
  0.000000 -0.066667 -0.266667    0.00029630  12 t-inv F
 -0.066667  0.200000 -0.066667    0.00029630  12 t-inv F
  0.066667 -0.200000  0.066667    0.00029630  12 t-inv F
  0.200000  0.266667  0.266667    0.00029630  12 t-inv F
 -0.200000 -0.266667 -0.266667    0.00029630  12 t-inv F
  0.266667 -0.000000  0.066667    0.00029630  12 t-inv F
 -0.266667  0.000000 -0.066667    0.00029630  12 t-inv F
 -0.333333 -0.066667 -0.000000    0.00029630  13 t-inv F
  0.000000  0.333333  0.066667    0.00029630  13 t-inv F
 -0.000000 -0.333333 -0.066667    0.00029630  13 t-inv F
  0.066667  0.000000  0.333333    0.00029630  13 t-inv F
 -0.066667 -0.000000 -0.333333    0.00029630  13 t-inv F
  0.066667  0.066667 -0.266667    0.00029630  13 t-inv F
 -0.066667 -0.066667  0.266667    0.00029630  13 t-inv F
  0.333333  0.266667  0.333333    0.00029630  13 t-inv F
 -0.333333 -0.266667 -0.333333    0.00029630  13 t-inv F
  0.066667  0.333333 -0.000000    0.00029630  13 t-inv F
 -0.066667 -0.333333  0.000000    0.00029630  13 t-inv F
  0.266667 -0.066667 -0.066667    0.00029630  13 t-inv F
 -0.266667  0.066667  0.066667    0.00029630  13 t-inv F
  0.333333  0.333333  0.266667    0.00029630  13 t-inv F
 -0.333333 -0.333333 -0.266667    0.00029630  13 t-inv F
 -0.000000  0.066667  0.333333    0.00029630  13 t-inv F
  0.000000 -0.066667 -0.333333    0.00029630  13 t-inv F
 -0.066667  0.266667 -0.066667    0.00029630  13 t-inv F
  0.066667 -0.266667  0.066667    0.00029630  13 t-inv F
  0.266667  0.333333  0.333333    0.00029630  13 t-inv F
 -0.266667 -0.333333 -0.333333    0.00029630  13 t-inv F
  0.333333 -0.000000  0.066667    0.00029630  13 t-inv F
 -0.333333  0.000000 -0.066667    0.00029630  13 t-inv F
 -0.400000 -0.066667 -0.000000    0.00029630  14 t-inv F
  0.000000  0.400000  0.066667    0.00029630  14 t-inv F
 -0.000000 -0.400000 -0.066667    0.00029630  14 t-inv F
  0.066667  0.000000  0.400000    0.00029630  14 t-inv F
 -0.066667 -0.000000 -0.400000    0.00029630  14 t-inv F
  0.066667  0.066667 -0.333333    0.00029630  14 t-inv F
 -0.066667 -0.066667  0.333333    0.00029630  14 t-inv F
  0.400000  0.333333  0.400000    0.00029630  14 t-inv F
 -0.400000 -0.333333 -0.400000    0.00029630  14 t-inv F
  0.066667  0.400000 -0.000000    0.00029630  14 t-inv F
 -0.066667 -0.400000  0.000000    0.00029630  14 t-inv F
  0.333333 -0.066667 -0.066667    0.00029630  14 t-inv F
 -0.333333  0.066667  0.066667    0.00029630  14 t-inv F
  0.400000  0.400000  0.333333    0.00029630  14 t-inv F
 -0.400000 -0.400000 -0.333333    0.00029630  14 t-inv F
 -0.000000  0.066667  0.400000    0.00029630  14 t-inv F
  0.000000 -0.066667 -0.400000    0.00029630  14 t-inv F
 -0.066667  0.333333 -0.066667    0.00029630  14 t-inv F
  0.066667 -0.333333  0.066667    0.00029630  14 t-inv F
  0.333333  0.400000  0.400000    0.00029630  14 t-inv F
 -0.333333 -0.400000 -0.400000    0.00029630  14 t-inv F
  0.400000 -0.000000  0.066667    0.00029630  14 t-inv F
 -0.400000  0.000000 -0.066667    0.00029630  14 t-inv F
 -0.466667 -0.066667 -0.000000    0.00029630  15 t-inv F
  0.000000  0.466667  0.066667    0.00029630  15 t-inv F
 -0.000000 -0.466667 -0.066667    0.00029630  15 t-inv F
  0.066667  0.000000  0.466667    0.00029630  15 t-inv F
 -0.066667 -0.000000 -0.466667    0.00029630  15 t-inv F
  0.066667  0.066667 -0.400000    0.00029630  15 t-inv F
 -0.066667 -0.066667  0.400000    0.00029630  15 t-inv F
  0.466667  0.400000  0.466667    0.00029630  15 t-inv F
 -0.466667 -0.400000 -0.466667    0.00029630  15 t-inv F
  0.066667  0.466667 -0.000000    0.00029630  15 t-inv F
 -0.066667 -0.466667  0.000000    0.00029630  15 t-inv F
  0.400000 -0.066667 -0.066667    0.00029630  15 t-inv F
 -0.400000  0.066667  0.066667    0.00029630  15 t-inv F
  0.466667  0.466667  0.400000    0.00029630  15 t-inv F
 -0.466667 -0.466667 -0.400000    0.00029630  15 t-inv F
 -0.000000  0.066667  0.466667    0.00029630  15 t-inv F
  0.000000 -0.066667 -0.466667    0.00029630  15 t-inv F
 -0.066667  0.400000 -0.066667    0.00029630  15 t-inv F
  0.066667 -0.400000  0.066667    0.00029630  15 t-inv F
  0.400000  0.466667  0.466667    0.00029630  15 t-inv F
 -0.400000 -0.466667 -0.466667    0.00029630  15 t-inv F
  0.466667 -0.000000  0.066667    0.00029630  15 t-inv F
 -0.466667  0.000000 -0.066667    0.00029630  15 t-inv F
  0.466667 -0.066667 -0.000000    0.00029630  16 t-inv F
  0.000000 -0.466667  0.066667    0.00029630  16 t-inv F
 -0.000000  0.466667 -0.066667    0.00029630  16 t-inv F
  0.066667  0.000000 -0.466667    0.00029630  16 t-inv F
 -0.066667 -0.000000  0.466667    0.00029630  16 t-inv F
  0.066667  0.066667  0.533333    0.00029630  16 t-inv F
 -0.066667 -0.066667 -0.533333    0.00029630  16 t-inv F
 -0.466667 -0.533333 -0.466667    0.00029630  16 t-inv F
  0.466667  0.533333  0.466667    0.00029630  16 t-inv F
  0.066667 -0.466667 -0.000000    0.00029630  16 t-inv F
 -0.066667  0.466667  0.000000    0.00029630  16 t-inv F
 -0.533333 -0.066667 -0.066667    0.00029630  16 t-inv F
  0.533333  0.066667  0.066667    0.00029630  16 t-inv F
 -0.466667 -0.466667 -0.533333    0.00029630  16 t-inv F
  0.466667  0.466667  0.533333    0.00029630  16 t-inv F
 -0.000000  0.066667 -0.466667    0.00029630  16 t-inv F
  0.000000 -0.066667  0.466667    0.00029630  16 t-inv F
 -0.066667 -0.533333 -0.066667    0.00029630  16 t-inv F
  0.066667  0.533333  0.066667    0.00029630  16 t-inv F
 -0.533333 -0.466667 -0.466667    0.00029630  16 t-inv F
  0.533333  0.466667  0.466667    0.00029630  16 t-inv F
 -0.466667 -0.000000  0.066667    0.00029630  16 t-inv F
  0.466667  0.000000 -0.066667    0.00029630  16 t-inv F
  0.400000 -0.066667 -0.000000    0.00029630  17 t-inv F
  0.000000 -0.400000  0.066667    0.00029630  17 t-inv F
 -0.000000  0.400000 -0.066667    0.00029630  17 t-inv F
  0.066667  0.000000 -0.400000    0.00029630  17 t-inv F
 -0.066667 -0.000000  0.400000    0.00029630  17 t-inv F
  0.066667  0.066667  0.466667    0.00029630  17 t-inv F
 -0.066667 -0.066667 -0.466667    0.00029630  17 t-inv F
 -0.400000 -0.466667 -0.400000    0.00029630  17 t-inv F
  0.400000  0.466667  0.400000    0.00029630  17 t-inv F
  0.066667 -0.400000 -0.000000    0.00029630  17 t-inv F
 -0.066667  0.400000  0.000000    0.00029630  17 t-inv F
 -0.466667 -0.066667 -0.066667    0.00029630  17 t-inv F
  0.466667  0.066667  0.066667    0.00029630  17 t-inv F
 -0.400000 -0.400000 -0.466667    0.00029630  17 t-inv F
  0.400000  0.400000  0.466667    0.00029630  17 t-inv F
 -0.000000  0.066667 -0.400000    0.00029630  17 t-inv F
  0.000000 -0.066667  0.400000    0.00029630  17 t-inv F
 -0.066667 -0.466667 -0.066667    0.00029630  17 t-inv F
  0.066667  0.466667  0.066667    0.00029630  17 t-inv F
 -0.466667 -0.400000 -0.400000    0.00029630  17 t-inv F
  0.466667  0.400000  0.400000    0.00029630  17 t-inv F
 -0.400000 -0.000000  0.066667    0.00029630  17 t-inv F
  0.400000  0.000000 -0.066667    0.00029630  17 t-inv F
  0.333333 -0.066667 -0.000000    0.00029630  18 t-inv F
  0.000000 -0.333333  0.066667    0.00029630  18 t-inv F
 -0.000000  0.333333 -0.066667    0.00029630  18 t-inv F
  0.066667  0.000000 -0.333333    0.00029630  18 t-inv F
 -0.066667 -0.000000  0.333333    0.00029630  18 t-inv F
  0.066667  0.066667  0.400000    0.00029630  18 t-inv F
 -0.066667 -0.066667 -0.400000    0.00029630  18 t-inv F
 -0.333333 -0.400000 -0.333333    0.00029630  18 t-inv F
  0.333333  0.400000  0.333333    0.00029630  18 t-inv F
  0.066667 -0.333333 -0.000000    0.00029630  18 t-inv F
 -0.066667  0.333333  0.000000    0.00029630  18 t-inv F
 -0.400000 -0.066667 -0.066667    0.00029630  18 t-inv F
  0.400000  0.066667  0.066667    0.00029630  18 t-inv F
 -0.333333 -0.333333 -0.400000    0.00029630  18 t-inv F
  0.333333  0.333333  0.400000    0.00029630  18 t-inv F
 -0.000000  0.066667 -0.333333    0.00029630  18 t-inv F
  0.000000 -0.066667  0.333333    0.00029630  18 t-inv F
 -0.066667 -0.400000 -0.066667    0.00029630  18 t-inv F
  0.066667  0.400000  0.066667    0.00029630  18 t-inv F
 -0.400000 -0.333333 -0.333333    0.00029630  18 t-inv F
  0.400000  0.333333  0.333333    0.00029630  18 t-inv F
 -0.333333 -0.000000  0.066667    0.00029630  18 t-inv F
  0.333333  0.000000 -0.066667    0.00029630  18 t-inv F
  0.266667 -0.066667 -0.000000    0.00029630  19 t-inv F
  0.000000 -0.266667  0.066667    0.00029630  19 t-inv F
 -0.000000  0.266667 -0.066667    0.00029630  19 t-inv F
  0.066667  0.000000 -0.266667    0.00029630  19 t-inv F
 -0.066667 -0.000000  0.266667    0.00029630  19 t-inv F
  0.066667  0.066667  0.333333    0.00029630  19 t-inv F
 -0.066667 -0.066667 -0.333333    0.00029630  19 t-inv F
 -0.266667 -0.333333 -0.266667    0.00029630  19 t-inv F
  0.266667  0.333333  0.266667    0.00029630  19 t-inv F
  0.066667 -0.266667 -0.000000    0.00029630  19 t-inv F
 -0.066667  0.266667  0.000000    0.00029630  19 t-inv F
 -0.333333 -0.066667 -0.066667    0.00029630  19 t-inv F
  0.333333  0.066667  0.066667    0.00029630  19 t-inv F
 -0.266667 -0.266667 -0.333333    0.00029630  19 t-inv F
  0.266667  0.266667  0.333333    0.00029630  19 t-inv F
 -0.000000  0.066667 -0.266667    0.00029630  19 t-inv F
  0.000000 -0.066667  0.266667    0.00029630  19 t-inv F
 -0.066667 -0.333333 -0.066667    0.00029630  19 t-inv F
  0.066667  0.333333  0.066667    0.00029630  19 t-inv F
 -0.333333 -0.266667 -0.266667    0.00029630  19 t-inv F
  0.333333  0.266667  0.266667    0.00029630  19 t-inv F
 -0.266667 -0.000000  0.066667    0.00029630  19 t-inv F
  0.266667  0.000000 -0.066667    0.00029630  19 t-inv F
  0.200000 -0.066667 -0.000000    0.00029630  20 t-inv F
  0.000000 -0.200000  0.066667    0.00029630  20 t-inv F
 -0.000000  0.200000 -0.066667    0.00029630  20 t-inv F
  0.066667  0.000000 -0.200000    0.00029630  20 t-inv F
 -0.066667 -0.000000  0.200000    0.00029630  20 t-inv F
  0.066667  0.066667  0.266667    0.00029630  20 t-inv F
 -0.066667 -0.066667 -0.266667    0.00029630  20 t-inv F
 -0.200000 -0.266667 -0.200000    0.00029630  20 t-inv F
  0.200000  0.266667  0.200000    0.00029630  20 t-inv F
  0.066667 -0.200000 -0.000000    0.00029630  20 t-inv F
 -0.066667  0.200000  0.000000    0.00029630  20 t-inv F
 -0.266667 -0.066667 -0.066667    0.00029630  20 t-inv F
  0.266667  0.066667  0.066667    0.00029630  20 t-inv F
 -0.200000 -0.200000 -0.266667    0.00029630  20 t-inv F
  0.200000  0.200000  0.266667    0.00029630  20 t-inv F
 -0.000000  0.066667 -0.200000    0.00029630  20 t-inv F
  0.000000 -0.066667  0.200000    0.00029630  20 t-inv F
 -0.066667 -0.266667 -0.066667    0.00029630  20 t-inv F
  0.066667  0.266667  0.066667    0.00029630  20 t-inv F
 -0.266667 -0.200000 -0.200000    0.00029630  20 t-inv F
  0.266667  0.200000  0.200000    0.00029630  20 t-inv F
 -0.200000 -0.000000  0.066667    0.00029630  20 t-inv F
  0.200000  0.000000 -0.066667    0.00029630  20 t-inv F
  0.133333 -0.066667 -0.000000    0.00029630  21 t-inv F
  0.000000 -0.133333  0.066667    0.00029630  21 t-inv F
 -0.000000  0.133333 -0.066667    0.00029630  21 t-inv F
  0.066667  0.000000 -0.133333    0.00029630  21 t-inv F
 -0.066667 -0.000000  0.133333    0.00029630  21 t-inv F
  0.066667  0.066667  0.200000    0.00029630  21 t-inv F
 -0.066667 -0.066667 -0.200000    0.00029630  21 t-inv F
 -0.133333 -0.200000 -0.133333    0.00029630  21 t-inv F
  0.133333  0.200000  0.133333    0.00029630  21 t-inv F
  0.066667 -0.133333 -0.000000    0.00029630  21 t-inv F
 -0.066667  0.133333  0.000000    0.00029630  21 t-inv F
 -0.200000 -0.066667 -0.066667    0.00029630  21 t-inv F
  0.200000  0.066667  0.066667    0.00029630  21 t-inv F
 -0.133333 -0.133333 -0.200000    0.00029630  21 t-inv F
  0.133333  0.133333  0.200000    0.00029630  21 t-inv F
 -0.000000  0.066667 -0.133333    0.00029630  21 t-inv F
  0.000000 -0.066667  0.133333    0.00029630  21 t-inv F
 -0.066667 -0.200000 -0.066667    0.00029630  21 t-inv F
  0.066667  0.200000  0.066667    0.00029630  21 t-inv F
 -0.200000 -0.133333 -0.133333    0.00029630  21 t-inv F
  0.200000  0.133333  0.133333    0.00029630  21 t-inv F
 -0.133333 -0.000000  0.066667    0.00029630  21 t-inv F
  0.133333  0.000000 -0.066667    0.00029630  21 t-inv F
  0.066667 -0.066667 -0.000000    0.00029630  22 t-inv F
  0.000000 -0.066667  0.066667    0.00029630  22 t-inv F
 -0.000000  0.066667 -0.066667    0.00029630  22 t-inv F
  0.066667  0.000000 -0.066667    0.00029630  22 t-inv F
 -0.066667 -0.000000  0.066667    0.00029630  22 t-inv F
  0.066667  0.066667  0.133333    0.00029630  22 t-inv F
 -0.066667 -0.066667 -0.133333    0.00029630  22 t-inv F
 -0.066667 -0.133333 -0.066667    0.00029630  22 t-inv F
  0.066667  0.133333  0.066667    0.00029630  22 t-inv F
 -0.133333 -0.066667 -0.066667    0.00029630  22 t-inv F
  0.133333  0.066667  0.066667    0.00029630  22 t-inv F
 -0.133333 -0.133333 -0.000000    0.00029630  23 t-inv F
  0.000000  0.133333  0.133333    0.00029630  23 t-inv F
 -0.000000 -0.133333 -0.133333    0.00029630  23 t-inv F
  0.133333  0.000000  0.133333    0.00029630  23 t-inv F
 -0.133333 -0.000000 -0.133333    0.00029630  23 t-inv F
 -0.200000 -0.133333 -0.000000    0.00029630  24 t-inv F
  0.000000  0.200000  0.133333    0.00029630  24 t-inv F
 -0.000000 -0.200000 -0.133333    0.00029630  24 t-inv F
  0.133333  0.000000  0.200000    0.00029630  24 t-inv F
 -0.133333 -0.000000 -0.200000    0.00029630  24 t-inv F
  0.133333  0.133333 -0.066667    0.00029630  24 t-inv F
 -0.133333 -0.133333  0.066667    0.00029630  24 t-inv F
  0.200000  0.066667  0.200000    0.00029630  24 t-inv F
 -0.200000 -0.066667 -0.200000    0.00029630  24 t-inv F
  0.133333  0.200000 -0.000000    0.00029630  24 t-inv F
 -0.133333 -0.200000  0.000000    0.00029630  24 t-inv F
  0.066667 -0.133333 -0.133333    0.00029630  24 t-inv F
 -0.066667  0.133333  0.133333    0.00029630  24 t-inv F
  0.200000  0.200000  0.066667    0.00029630  24 t-inv F
 -0.200000 -0.200000 -0.066667    0.00029630  24 t-inv F
 -0.000000  0.133333  0.200000    0.00029630  24 t-inv F
  0.000000 -0.133333 -0.200000    0.00029630  24 t-inv F
 -0.133333  0.066667 -0.133333    0.00029630  24 t-inv F
  0.133333 -0.066667  0.133333    0.00029630  24 t-inv F
  0.066667  0.200000  0.200000    0.00029630  24 t-inv F
 -0.066667 -0.200000 -0.200000    0.00029630  24 t-inv F
  0.200000 -0.000000  0.133333    0.00029630  24 t-inv F
 -0.200000  0.000000 -0.133333    0.00029630  24 t-inv F
 -0.266667 -0.133333 -0.000000    0.00029630  25 t-inv F
  0.000000  0.266667  0.133333    0.00029630  25 t-inv F
 -0.000000 -0.266667 -0.133333    0.00029630  25 t-inv F
  0.133333  0.000000  0.266667    0.00029630  25 t-inv F
 -0.133333 -0.000000 -0.266667    0.00029630  25 t-inv F
  0.133333  0.133333 -0.133333    0.00029630  25 t-inv F
 -0.133333 -0.133333  0.133333    0.00029630  25 t-inv F
  0.266667  0.133333  0.266667    0.00029630  25 t-inv F
 -0.266667 -0.133333 -0.266667    0.00029630  25 t-inv F
  0.133333  0.266667 -0.000000    0.00029630  25 t-inv F
 -0.133333 -0.266667  0.000000    0.00029630  25 t-inv F
  0.133333 -0.133333 -0.133333    0.00029630  25 t-inv F
 -0.133333  0.133333  0.133333    0.00029630  25 t-inv F
  0.266667  0.266667  0.133333    0.00029630  25 t-inv F
 -0.266667 -0.266667 -0.133333    0.00029630  25 t-inv F
 -0.000000  0.133333  0.266667    0.00029630  25 t-inv F
  0.000000 -0.133333 -0.266667    0.00029630  25 t-inv F
 -0.133333  0.133333 -0.133333    0.00029630  25 t-inv F
  0.133333 -0.133333  0.133333    0.00029630  25 t-inv F
  0.133333  0.266667  0.266667    0.00029630  25 t-inv F
 -0.133333 -0.266667 -0.266667    0.00029630  25 t-inv F
  0.266667 -0.000000  0.133333    0.00029630  25 t-inv F
 -0.266667  0.000000 -0.133333    0.00029630  25 t-inv F
 -0.333333 -0.133333 -0.000000    0.00029630  26 t-inv F
  0.000000  0.333333  0.133333    0.00029630  26 t-inv F
 -0.000000 -0.333333 -0.133333    0.00029630  26 t-inv F
  0.133333  0.000000  0.333333    0.00029630  26 t-inv F
 -0.133333 -0.000000 -0.333333    0.00029630  26 t-inv F
  0.133333  0.133333 -0.200000    0.00029630  26 t-inv F
 -0.133333 -0.133333  0.200000    0.00029630  26 t-inv F
  0.333333  0.200000  0.333333    0.00029630  26 t-inv F
 -0.333333 -0.200000 -0.333333    0.00029630  26 t-inv F
  0.133333  0.333333 -0.000000    0.00029630  26 t-inv F
 -0.133333 -0.333333  0.000000    0.00029630  26 t-inv F
  0.200000 -0.133333 -0.133333    0.00029630  26 t-inv F
 -0.200000  0.133333  0.133333    0.00029630  26 t-inv F
  0.333333  0.333333  0.200000    0.00029630  26 t-inv F
 -0.333333 -0.333333 -0.200000    0.00029630  26 t-inv F
 -0.000000  0.133333  0.333333    0.00029630  26 t-inv F
  0.000000 -0.133333 -0.333333    0.00029630  26 t-inv F
 -0.133333  0.200000 -0.133333    0.00029630  26 t-inv F
  0.133333 -0.200000  0.133333    0.00029630  26 t-inv F
  0.200000  0.333333  0.333333    0.00029630  26 t-inv F
 -0.200000 -0.333333 -0.333333    0.00029630  26 t-inv F
  0.333333 -0.000000  0.133333    0.00029630  26 t-inv F
 -0.333333  0.000000 -0.133333    0.00029630  26 t-inv F
 -0.400000 -0.133333 -0.000000    0.00029630  27 t-inv F
  0.000000  0.400000  0.133333    0.00029630  27 t-inv F
 -0.000000 -0.400000 -0.133333    0.00029630  27 t-inv F
  0.133333  0.000000  0.400000    0.00029630  27 t-inv F
 -0.133333 -0.000000 -0.400000    0.00029630  27 t-inv F
  0.133333  0.133333 -0.266667    0.00029630  27 t-inv F
 -0.133333 -0.133333  0.266667    0.00029630  27 t-inv F
  0.400000  0.266667  0.400000    0.00029630  27 t-inv F
 -0.400000 -0.266667 -0.400000    0.00029630  27 t-inv F
  0.133333  0.400000 -0.000000    0.00029630  27 t-inv F
 -0.133333 -0.400000  0.000000    0.00029630  27 t-inv F
  0.266667 -0.133333 -0.133333    0.00029630  27 t-inv F
 -0.266667  0.133333  0.133333    0.00029630  27 t-inv F
  0.400000  0.400000  0.266667    0.00029630  27 t-inv F
 -0.400000 -0.400000 -0.266667    0.00029630  27 t-inv F
 -0.000000  0.133333  0.400000    0.00029630  27 t-inv F
  0.000000 -0.133333 -0.400000    0.00029630  27 t-inv F
 -0.133333  0.266667 -0.133333    0.00029630  27 t-inv F
  0.133333 -0.266667  0.133333    0.00029630  27 t-inv F
  0.266667  0.400000  0.400000    0.00029630  27 t-inv F
 -0.266667 -0.400000 -0.400000    0.00029630  27 t-inv F
  0.400000 -0.000000  0.133333    0.00029630  27 t-inv F
 -0.400000  0.000000 -0.133333    0.00029630  27 t-inv F
 -0.466667 -0.133333 -0.000000    0.00029630  28 t-inv F
  0.000000  0.466667  0.133333    0.00029630  28 t-inv F
 -0.000000 -0.466667 -0.133333    0.00029630  28 t-inv F
  0.133333  0.000000  0.466667    0.00029630  28 t-inv F
 -0.133333 -0.000000 -0.466667    0.00029630  28 t-inv F
  0.133333  0.133333 -0.333333    0.00029630  28 t-inv F
 -0.133333 -0.133333  0.333333    0.00029630  28 t-inv F
  0.466667  0.333333  0.466667    0.00029630  28 t-inv F
 -0.466667 -0.333333 -0.466667    0.00029630  28 t-inv F
  0.133333  0.466667 -0.000000    0.00029630  28 t-inv F
 -0.133333 -0.466667  0.000000    0.00029630  28 t-inv F
  0.333333 -0.133333 -0.133333    0.00029630  28 t-inv F
 -0.333333  0.133333  0.133333    0.00029630  28 t-inv F
  0.466667  0.466667  0.333333    0.00029630  28 t-inv F
 -0.466667 -0.466667 -0.333333    0.00029630  28 t-inv F
 -0.000000  0.133333  0.466667    0.00029630  28 t-inv F
  0.000000 -0.133333 -0.466667    0.00029630  28 t-inv F
 -0.133333  0.333333 -0.133333    0.00029630  28 t-inv F
  0.133333 -0.333333  0.133333    0.00029630  28 t-inv F
  0.333333  0.466667  0.466667    0.00029630  28 t-inv F
 -0.333333 -0.466667 -0.466667    0.00029630  28 t-inv F
  0.466667 -0.000000  0.133333    0.00029630  28 t-inv F
 -0.466667  0.000000 -0.133333    0.00029630  28 t-inv F
  0.466667 -0.133333 -0.000000    0.00029630  29 t-inv F
  0.000000 -0.466667  0.133333    0.00029630  29 t-inv F
 -0.000000  0.466667 -0.133333    0.00029630  29 t-inv F
  0.133333  0.000000 -0.466667    0.00029630  29 t-inv F
 -0.133333 -0.000000  0.466667    0.00029630  29 t-inv F
  0.133333  0.133333  0.600000    0.00029630  29 t-inv F
 -0.133333 -0.133333 -0.600000    0.00029630  29 t-inv F
 -0.466667 -0.600000 -0.466667    0.00029630  29 t-inv F
  0.466667  0.600000  0.466667    0.00029630  29 t-inv F
  0.133333 -0.466667 -0.000000    0.00029630  29 t-inv F
 -0.133333  0.466667  0.000000    0.00029630  29 t-inv F
 -0.600000 -0.133333 -0.133333    0.00029630  29 t-inv F
  0.600000  0.133333  0.133333    0.00029630  29 t-inv F
 -0.466667 -0.466667 -0.600000    0.00029630  29 t-inv F
  0.466667  0.466667  0.600000    0.00029630  29 t-inv F
 -0.000000  0.133333 -0.466667    0.00029630  29 t-inv F
  0.000000 -0.133333  0.466667    0.00029630  29 t-inv F
 -0.133333 -0.600000 -0.133333    0.00029630  29 t-inv F
  0.133333  0.600000  0.133333    0.00029630  29 t-inv F
 -0.600000 -0.466667 -0.466667    0.00029630  29 t-inv F
  0.600000  0.466667  0.466667    0.00029630  29 t-inv F
 -0.466667 -0.000000  0.133333    0.00029630  29 t-inv F
  0.466667  0.000000 -0.133333    0.00029630  29 t-inv F
  0.400000 -0.133333 -0.000000    0.00029630  30 t-inv F
  0.000000 -0.400000  0.133333    0.00029630  30 t-inv F
 -0.000000  0.400000 -0.133333    0.00029630  30 t-inv F
  0.133333  0.000000 -0.400000    0.00029630  30 t-inv F
 -0.133333 -0.000000  0.400000    0.00029630  30 t-inv F
  0.133333  0.133333  0.533333    0.00029630  30 t-inv F
 -0.133333 -0.133333 -0.533333    0.00029630  30 t-inv F
 -0.400000 -0.533333 -0.400000    0.00029630  30 t-inv F
  0.400000  0.533333  0.400000    0.00029630  30 t-inv F
  0.133333 -0.400000 -0.000000    0.00029630  30 t-inv F
 -0.133333  0.400000  0.000000    0.00029630  30 t-inv F
 -0.533333 -0.133333 -0.133333    0.00029630  30 t-inv F
  0.533333  0.133333  0.133333    0.00029630  30 t-inv F
 -0.400000 -0.400000 -0.533333    0.00029630  30 t-inv F
  0.400000  0.400000  0.533333    0.00029630  30 t-inv F
 -0.000000  0.133333 -0.400000    0.00029630  30 t-inv F
  0.000000 -0.133333  0.400000    0.00029630  30 t-inv F
 -0.133333 -0.533333 -0.133333    0.00029630  30 t-inv F
  0.133333  0.533333  0.133333    0.00029630  30 t-inv F
 -0.533333 -0.400000 -0.400000    0.00029630  30 t-inv F
  0.533333  0.400000  0.400000    0.00029630  30 t-inv F
 -0.400000 -0.000000  0.133333    0.00029630  30 t-inv F
  0.400000  0.000000 -0.133333    0.00029630  30 t-inv F
  0.333333 -0.133333 -0.000000    0.00029630  31 t-inv F
  0.000000 -0.333333  0.133333    0.00029630  31 t-inv F
 -0.000000  0.333333 -0.133333    0.00029630  31 t-inv F
  0.133333  0.000000 -0.333333    0.00029630  31 t-inv F
 -0.133333 -0.000000  0.333333    0.00029630  31 t-inv F
  0.133333  0.133333  0.466667    0.00029630  31 t-inv F
 -0.133333 -0.133333 -0.466667    0.00029630  31 t-inv F
 -0.333333 -0.466667 -0.333333    0.00029630  31 t-inv F
  0.333333  0.466667  0.333333    0.00029630  31 t-inv F
  0.133333 -0.333333 -0.000000    0.00029630  31 t-inv F
 -0.133333  0.333333  0.000000    0.00029630  31 t-inv F
 -0.466667 -0.133333 -0.133333    0.00029630  31 t-inv F
  0.466667  0.133333  0.133333    0.00029630  31 t-inv F
 -0.333333 -0.333333 -0.466667    0.00029630  31 t-inv F
  0.333333  0.333333  0.466667    0.00029630  31 t-inv F
 -0.000000  0.133333 -0.333333    0.00029630  31 t-inv F
  0.000000 -0.133333  0.333333    0.00029630  31 t-inv F
 -0.133333 -0.466667 -0.133333    0.00029630  31 t-inv F
  0.133333  0.466667  0.133333    0.00029630  31 t-inv F
 -0.466667 -0.333333 -0.333333    0.00029630  31 t-inv F
  0.466667  0.333333  0.333333    0.00029630  31 t-inv F
 -0.333333 -0.000000  0.133333    0.00029630  31 t-inv F
  0.333333  0.000000 -0.133333    0.00029630  31 t-inv F
  0.266667 -0.133333 -0.000000    0.00029630  32 t-inv F
  0.000000 -0.266667  0.133333    0.00029630  32 t-inv F
 -0.000000  0.266667 -0.133333    0.00029630  32 t-inv F
  0.133333  0.000000 -0.266667    0.00029630  32 t-inv F
 -0.133333 -0.000000  0.266667    0.00029630  32 t-inv F
  0.133333  0.133333  0.400000    0.00029630  32 t-inv F
 -0.133333 -0.133333 -0.400000    0.00029630  32 t-inv F
 -0.266667 -0.400000 -0.266667    0.00029630  32 t-inv F
  0.266667  0.400000  0.266667    0.00029630  32 t-inv F
  0.133333 -0.266667 -0.000000    0.00029630  32 t-inv F
 -0.133333  0.266667  0.000000    0.00029630  32 t-inv F
 -0.400000 -0.133333 -0.133333    0.00029630  32 t-inv F
  0.400000  0.133333  0.133333    0.00029630  32 t-inv F
 -0.266667 -0.266667 -0.400000    0.00029630  32 t-inv F
  0.266667  0.266667  0.400000    0.00029630  32 t-inv F
 -0.000000  0.133333 -0.266667    0.00029630  32 t-inv F
  0.000000 -0.133333  0.266667    0.00029630  32 t-inv F
 -0.133333 -0.400000 -0.133333    0.00029630  32 t-inv F
  0.133333  0.400000  0.133333    0.00029630  32 t-inv F
 -0.400000 -0.266667 -0.266667    0.00029630  32 t-inv F
  0.400000  0.266667  0.266667    0.00029630  32 t-inv F
 -0.266667 -0.000000  0.133333    0.00029630  32 t-inv F
  0.266667  0.000000 -0.133333    0.00029630  32 t-inv F
  0.200000 -0.133333 -0.000000    0.00029630  33 t-inv F
  0.000000 -0.200000  0.133333    0.00029630  33 t-inv F
 -0.000000  0.200000 -0.133333    0.00029630  33 t-inv F
  0.133333  0.000000 -0.200000    0.00029630  33 t-inv F
 -0.133333 -0.000000  0.200000    0.00029630  33 t-inv F
  0.133333  0.133333  0.333333    0.00029630  33 t-inv F
 -0.133333 -0.133333 -0.333333    0.00029630  33 t-inv F
 -0.200000 -0.333333 -0.200000    0.00029630  33 t-inv F
  0.200000  0.333333  0.200000    0.00029630  33 t-inv F
  0.133333 -0.200000 -0.000000    0.00029630  33 t-inv F
 -0.133333  0.200000  0.000000    0.00029630  33 t-inv F
 -0.333333 -0.133333 -0.133333    0.00029630  33 t-inv F
  0.333333  0.133333  0.133333    0.00029630  33 t-inv F
 -0.200000 -0.200000 -0.333333    0.00029630  33 t-inv F
  0.200000  0.200000  0.333333    0.00029630  33 t-inv F
 -0.000000  0.133333 -0.200000    0.00029630  33 t-inv F
  0.000000 -0.133333  0.200000    0.00029630  33 t-inv F
 -0.133333 -0.333333 -0.133333    0.00029630  33 t-inv F
  0.133333  0.333333  0.133333    0.00029630  33 t-inv F
 -0.333333 -0.200000 -0.200000    0.00029630  33 t-inv F
  0.333333  0.200000  0.200000    0.00029630  33 t-inv F
 -0.200000 -0.000000  0.133333    0.00029630  33 t-inv F
  0.200000  0.000000 -0.133333    0.00029630  33 t-inv F
  0.133333 -0.133333 -0.000000    0.00029630  34 t-inv F
  0.000000 -0.133333  0.133333    0.00029630  34 t-inv F
 -0.000000  0.133333 -0.133333    0.00029630  34 t-inv F
  0.133333  0.000000 -0.133333    0.00029630  34 t-inv F
 -0.133333 -0.000000  0.133333    0.00029630  34 t-inv F
  0.133333  0.133333  0.266667    0.00029630  34 t-inv F
 -0.133333 -0.133333 -0.266667    0.00029630  34 t-inv F
 -0.133333 -0.266667 -0.133333    0.00029630  34 t-inv F
  0.133333  0.266667  0.133333    0.00029630  34 t-inv F
 -0.266667 -0.133333 -0.133333    0.00029630  34 t-inv F
  0.266667  0.133333  0.133333    0.00029630  34 t-inv F
 -0.200000 -0.200000 -0.000000    0.00029630  35 t-inv F
  0.000000  0.200000  0.200000    0.00029630  35 t-inv F
 -0.000000 -0.200000 -0.200000    0.00029630  35 t-inv F
  0.200000  0.000000  0.200000    0.00029630  35 t-inv F
 -0.200000 -0.000000 -0.200000    0.00029630  35 t-inv F
 -0.266667 -0.200000 -0.000000    0.00029630  36 t-inv F
  0.000000  0.266667  0.200000    0.00029630  36 t-inv F
 -0.000000 -0.266667 -0.200000    0.00029630  36 t-inv F
  0.200000  0.000000  0.266667    0.00029630  36 t-inv F
 -0.200000 -0.000000 -0.266667    0.00029630  36 t-inv F
  0.200000  0.200000 -0.066667    0.00029630  36 t-inv F
 -0.200000 -0.200000  0.066667    0.00029630  36 t-inv F
  0.266667  0.066667  0.266667    0.00029630  36 t-inv F
 -0.266667 -0.066667 -0.266667    0.00029630  36 t-inv F
  0.200000  0.266667 -0.000000    0.00029630  36 t-inv F
 -0.200000 -0.266667  0.000000    0.00029630  36 t-inv F
  0.066667 -0.200000 -0.200000    0.00029630  36 t-inv F
 -0.066667  0.200000  0.200000    0.00029630  36 t-inv F
  0.266667  0.266667  0.066667    0.00029630  36 t-inv F
 -0.266667 -0.266667 -0.066667    0.00029630  36 t-inv F
 -0.000000  0.200000  0.266667    0.00029630  36 t-inv F
  0.000000 -0.200000 -0.266667    0.00029630  36 t-inv F
 -0.200000  0.066667 -0.200000    0.00029630  36 t-inv F
  0.200000 -0.066667  0.200000    0.00029630  36 t-inv F
  0.066667  0.266667  0.266667    0.00029630  36 t-inv F
 -0.066667 -0.266667 -0.266667    0.00029630  36 t-inv F
  0.266667 -0.000000  0.200000    0.00029630  36 t-inv F
 -0.266667  0.000000 -0.200000    0.00029630  36 t-inv F
 -0.333333 -0.200000 -0.000000    0.00029630  37 t-inv F
  0.000000  0.333333  0.200000    0.00029630  37 t-inv F
 -0.000000 -0.333333 -0.200000    0.00029630  37 t-inv F
  0.200000  0.000000  0.333333    0.00029630  37 t-inv F
 -0.200000 -0.000000 -0.333333    0.00029630  37 t-inv F
  0.200000  0.200000 -0.133333    0.00029630  37 t-inv F
 -0.200000 -0.200000  0.133333    0.00029630  37 t-inv F
  0.333333  0.133333  0.333333    0.00029630  37 t-inv F
 -0.333333 -0.133333 -0.333333    0.00029630  37 t-inv F
  0.200000  0.333333 -0.000000    0.00029630  37 t-inv F
 -0.200000 -0.333333  0.000000    0.00029630  37 t-inv F
  0.133333 -0.200000 -0.200000    0.00029630  37 t-inv F
 -0.133333  0.200000  0.200000    0.00029630  37 t-inv F
  0.333333  0.333333  0.133333    0.00029630  37 t-inv F
 -0.333333 -0.333333 -0.133333    0.00029630  37 t-inv F
 -0.000000  0.200000  0.333333    0.00029630  37 t-inv F
  0.000000 -0.200000 -0.333333    0.00029630  37 t-inv F
 -0.200000  0.133333 -0.200000    0.00029630  37 t-inv F
  0.200000 -0.133333  0.200000    0.00029630  37 t-inv F
  0.133333  0.333333  0.333333    0.00029630  37 t-inv F
 -0.133333 -0.333333 -0.333333    0.00029630  37 t-inv F
  0.333333 -0.000000  0.200000    0.00029630  37 t-inv F
 -0.333333  0.000000 -0.200000    0.00029630  37 t-inv F
 -0.400000 -0.200000 -0.000000    0.00029630  38 t-inv F
  0.000000  0.400000  0.200000    0.00029630  38 t-inv F
 -0.000000 -0.400000 -0.200000    0.00029630  38 t-inv F
  0.200000  0.000000  0.400000    0.00029630  38 t-inv F
 -0.200000 -0.000000 -0.400000    0.00029630  38 t-inv F
  0.200000  0.200000 -0.200000    0.00029630  38 t-inv F
 -0.200000 -0.200000  0.200000    0.00029630  38 t-inv F
  0.400000  0.200000  0.400000    0.00029630  38 t-inv F
 -0.400000 -0.200000 -0.400000    0.00029630  38 t-inv F
  0.200000  0.400000 -0.000000    0.00029630  38 t-inv F
 -0.200000 -0.400000  0.000000    0.00029630  38 t-inv F
  0.200000 -0.200000 -0.200000    0.00029630  38 t-inv F
 -0.200000  0.200000  0.200000    0.00029630  38 t-inv F
  0.400000  0.400000  0.200000    0.00029630  38 t-inv F
 -0.400000 -0.400000 -0.200000    0.00029630  38 t-inv F
 -0.000000  0.200000  0.400000    0.00029630  38 t-inv F
  0.000000 -0.200000 -0.400000    0.00029630  38 t-inv F
 -0.200000  0.200000 -0.200000    0.00029630  38 t-inv F
  0.200000 -0.200000  0.200000    0.00029630  38 t-inv F
  0.200000  0.400000  0.400000    0.00029630  38 t-inv F
 -0.200000 -0.400000 -0.400000    0.00029630  38 t-inv F
  0.400000 -0.000000  0.200000    0.00029630  38 t-inv F
 -0.400000  0.000000 -0.200000    0.00029630  38 t-inv F
 -0.466667 -0.200000 -0.000000    0.00029630  39 t-inv F
  0.000000  0.466667  0.200000    0.00029630  39 t-inv F
 -0.000000 -0.466667 -0.200000    0.00029630  39 t-inv F
  0.200000  0.000000  0.466667    0.00029630  39 t-inv F
 -0.200000 -0.000000 -0.466667    0.00029630  39 t-inv F
  0.200000  0.200000 -0.266667    0.00029630  39 t-inv F
 -0.200000 -0.200000  0.266667    0.00029630  39 t-inv F
  0.466667  0.266667  0.466667    0.00029630  39 t-inv F
 -0.466667 -0.266667 -0.466667    0.00029630  39 t-inv F
  0.200000  0.466667 -0.000000    0.00029630  39 t-inv F
 -0.200000 -0.466667  0.000000    0.00029630  39 t-inv F
  0.266667 -0.200000 -0.200000    0.00029630  39 t-inv F
 -0.266667  0.200000  0.200000    0.00029630  39 t-inv F
  0.466667  0.466667  0.266667    0.00029630  39 t-inv F
 -0.466667 -0.466667 -0.266667    0.00029630  39 t-inv F
 -0.000000  0.200000  0.466667    0.00029630  39 t-inv F
  0.000000 -0.200000 -0.466667    0.00029630  39 t-inv F
 -0.200000  0.266667 -0.200000    0.00029630  39 t-inv F
  0.200000 -0.266667  0.200000    0.00029630  39 t-inv F
  0.266667  0.466667  0.466667    0.00029630  39 t-inv F
 -0.266667 -0.466667 -0.466667    0.00029630  39 t-inv F
  0.466667 -0.000000  0.200000    0.00029630  39 t-inv F
 -0.466667  0.000000 -0.200000    0.00029630  39 t-inv F
  0.466667 -0.200000 -0.000000    0.00029630  40 t-inv F
  0.000000 -0.466667  0.200000    0.00029630  40 t-inv F
 -0.000000  0.466667 -0.200000    0.00029630  40 t-inv F
  0.200000  0.000000 -0.466667    0.00029630  40 t-inv F
 -0.200000 -0.000000  0.466667    0.00029630  40 t-inv F
  0.200000  0.200000  0.666667    0.00029630  40 t-inv F
 -0.200000 -0.200000 -0.666667    0.00029630  40 t-inv F
 -0.466667 -0.666667 -0.466667    0.00029630  40 t-inv F
  0.466667  0.666667  0.466667    0.00029630  40 t-inv F
  0.200000 -0.466667 -0.000000    0.00029630  40 t-inv F
 -0.200000  0.466667  0.000000    0.00029630  40 t-inv F
 -0.666667 -0.200000 -0.200000    0.00029630  40 t-inv F
  0.666667  0.200000  0.200000    0.00029630  40 t-inv F
 -0.466667 -0.466667 -0.666667    0.00029630  40 t-inv F
  0.466667  0.466667  0.666667    0.00029630  40 t-inv F
 -0.000000  0.200000 -0.466667    0.00029630  40 t-inv F
  0.000000 -0.200000  0.466667    0.00029630  40 t-inv F
 -0.200000 -0.666667 -0.200000    0.00029630  40 t-inv F
  0.200000  0.666667  0.200000    0.00029630  40 t-inv F
 -0.666667 -0.466667 -0.466667    0.00029630  40 t-inv F
  0.666667  0.466667  0.466667    0.00029630  40 t-inv F
 -0.466667 -0.000000  0.200000    0.00029630  40 t-inv F
  0.466667  0.000000 -0.200000    0.00029630  40 t-inv F
  0.400000 -0.200000 -0.000000    0.00029630  41 t-inv F
  0.000000 -0.400000  0.200000    0.00029630  41 t-inv F
 -0.000000  0.400000 -0.200000    0.00029630  41 t-inv F
  0.200000  0.000000 -0.400000    0.00029630  41 t-inv F
 -0.200000 -0.000000  0.400000    0.00029630  41 t-inv F
  0.200000  0.200000  0.600000    0.00029630  41 t-inv F
 -0.200000 -0.200000 -0.600000    0.00029630  41 t-inv F
 -0.400000 -0.600000 -0.400000    0.00029630  41 t-inv F
  0.400000  0.600000  0.400000    0.00029630  41 t-inv F
  0.200000 -0.400000 -0.000000    0.00029630  41 t-inv F
 -0.200000  0.400000  0.000000    0.00029630  41 t-inv F
 -0.600000 -0.200000 -0.200000    0.00029630  41 t-inv F
  0.600000  0.200000  0.200000    0.00029630  41 t-inv F
 -0.400000 -0.400000 -0.600000    0.00029630  41 t-inv F
  0.400000  0.400000  0.600000    0.00029630  41 t-inv F
 -0.000000  0.200000 -0.400000    0.00029630  41 t-inv F
  0.000000 -0.200000  0.400000    0.00029630  41 t-inv F
 -0.200000 -0.600000 -0.200000    0.00029630  41 t-inv F
  0.200000  0.600000  0.200000    0.00029630  41 t-inv F
 -0.600000 -0.400000 -0.400000    0.00029630  41 t-inv F
  0.600000  0.400000  0.400000    0.00029630  41 t-inv F
 -0.400000 -0.000000  0.200000    0.00029630  41 t-inv F
  0.400000  0.000000 -0.200000    0.00029630  41 t-inv F
  0.333333 -0.200000 -0.000000    0.00029630  42 t-inv F
  0.000000 -0.333333  0.200000    0.00029630  42 t-inv F
 -0.000000  0.333333 -0.200000    0.00029630  42 t-inv F
  0.200000  0.000000 -0.333333    0.00029630  42 t-inv F
 -0.200000 -0.000000  0.333333    0.00029630  42 t-inv F
  0.200000  0.200000  0.533333    0.00029630  42 t-inv F
 -0.200000 -0.200000 -0.533333    0.00029630  42 t-inv F
 -0.333333 -0.533333 -0.333333    0.00029630  42 t-inv F
  0.333333  0.533333  0.333333    0.00029630  42 t-inv F
  0.200000 -0.333333 -0.000000    0.00029630  42 t-inv F
 -0.200000  0.333333  0.000000    0.00029630  42 t-inv F
 -0.533333 -0.200000 -0.200000    0.00029630  42 t-inv F
  0.533333  0.200000  0.200000    0.00029630  42 t-inv F
 -0.333333 -0.333333 -0.533333    0.00029630  42 t-inv F
  0.333333  0.333333  0.533333    0.00029630  42 t-inv F
 -0.000000  0.200000 -0.333333    0.00029630  42 t-inv F
  0.000000 -0.200000  0.333333    0.00029630  42 t-inv F
 -0.200000 -0.533333 -0.200000    0.00029630  42 t-inv F
  0.200000  0.533333  0.200000    0.00029630  42 t-inv F
 -0.533333 -0.333333 -0.333333    0.00029630  42 t-inv F
  0.533333  0.333333  0.333333    0.00029630  42 t-inv F
 -0.333333 -0.000000  0.200000    0.00029630  42 t-inv F
  0.333333  0.000000 -0.200000    0.00029630  42 t-inv F
  0.266667 -0.200000 -0.000000    0.00029630  43 t-inv F
  0.000000 -0.266667  0.200000    0.00029630  43 t-inv F
 -0.000000  0.266667 -0.200000    0.00029630  43 t-inv F
  0.200000  0.000000 -0.266667    0.00029630  43 t-inv F
 -0.200000 -0.000000  0.266667    0.00029630  43 t-inv F
  0.200000  0.200000  0.466667    0.00029630  43 t-inv F
 -0.200000 -0.200000 -0.466667    0.00029630  43 t-inv F
 -0.266667 -0.466667 -0.266667    0.00029630  43 t-inv F
  0.266667  0.466667  0.266667    0.00029630  43 t-inv F
  0.200000 -0.266667 -0.000000    0.00029630  43 t-inv F
 -0.200000  0.266667  0.000000    0.00029630  43 t-inv F
 -0.466667 -0.200000 -0.200000    0.00029630  43 t-inv F
  0.466667  0.200000  0.200000    0.00029630  43 t-inv F
 -0.266667 -0.266667 -0.466667    0.00029630  43 t-inv F
  0.266667  0.266667  0.466667    0.00029630  43 t-inv F
 -0.000000  0.200000 -0.266667    0.00029630  43 t-inv F
  0.000000 -0.200000  0.266667    0.00029630  43 t-inv F
 -0.200000 -0.466667 -0.200000    0.00029630  43 t-inv F
  0.200000  0.466667  0.200000    0.00029630  43 t-inv F
 -0.466667 -0.266667 -0.266667    0.00029630  43 t-inv F
  0.466667  0.266667  0.266667    0.00029630  43 t-inv F
 -0.266667 -0.000000  0.200000    0.00029630  43 t-inv F
  0.266667  0.000000 -0.200000    0.00029630  43 t-inv F
  0.200000 -0.200000 -0.000000    0.00029630  44 t-inv F
  0.000000 -0.200000  0.200000    0.00029630  44 t-inv F
 -0.000000  0.200000 -0.200000    0.00029630  44 t-inv F
  0.200000  0.000000 -0.200000    0.00029630  44 t-inv F
 -0.200000 -0.000000  0.200000    0.00029630  44 t-inv F
  0.200000  0.200000  0.400000    0.00029630  44 t-inv F
 -0.200000 -0.200000 -0.400000    0.00029630  44 t-inv F
 -0.200000 -0.400000 -0.200000    0.00029630  44 t-inv F
  0.200000  0.400000  0.200000    0.00029630  44 t-inv F
 -0.400000 -0.200000 -0.200000    0.00029630  44 t-inv F
  0.400000  0.200000  0.200000    0.00029630  44 t-inv F
 -0.266667 -0.266667 -0.000000    0.00029630  45 t-inv F
  0.000000  0.266667  0.266667    0.00029630  45 t-inv F
 -0.000000 -0.266667 -0.266667    0.00029630  45 t-inv F
  0.266667  0.000000  0.266667    0.00029630  45 t-inv F
 -0.266667 -0.000000 -0.266667    0.00029630  45 t-inv F
 -0.333333 -0.266667 -0.000000    0.00029630  46 t-inv F
  0.000000  0.333333  0.266667    0.00029630  46 t-inv F
 -0.000000 -0.333333 -0.266667    0.00029630  46 t-inv F
  0.266667  0.000000  0.333333    0.00029630  46 t-inv F
 -0.266667 -0.000000 -0.333333    0.00029630  46 t-inv F
  0.266667  0.266667 -0.066667    0.00029630  46 t-inv F
 -0.266667 -0.266667  0.066667    0.00029630  46 t-inv F
  0.333333  0.066667  0.333333    0.00029630  46 t-inv F
 -0.333333 -0.066667 -0.333333    0.00029630  46 t-inv F
  0.266667  0.333333 -0.000000    0.00029630  46 t-inv F
 -0.266667 -0.333333  0.000000    0.00029630  46 t-inv F
  0.066667 -0.266667 -0.266667    0.00029630  46 t-inv F
 -0.066667  0.266667  0.266667    0.00029630  46 t-inv F
  0.333333  0.333333  0.066667    0.00029630  46 t-inv F
 -0.333333 -0.333333 -0.066667    0.00029630  46 t-inv F
 -0.000000  0.266667  0.333333    0.00029630  46 t-inv F
  0.000000 -0.266667 -0.333333    0.00029630  46 t-inv F
 -0.266667  0.066667 -0.266667    0.00029630  46 t-inv F
  0.266667 -0.066667  0.266667    0.00029630  46 t-inv F
  0.066667  0.333333  0.333333    0.00029630  46 t-inv F
 -0.066667 -0.333333 -0.333333    0.00029630  46 t-inv F
  0.333333 -0.000000  0.266667    0.00029630  46 t-inv F
 -0.333333  0.000000 -0.266667    0.00029630  46 t-inv F
 -0.400000 -0.266667 -0.000000    0.00029630  47 t-inv F
  0.000000  0.400000  0.266667    0.00029630  47 t-inv F
 -0.000000 -0.400000 -0.266667    0.00029630  47 t-inv F
  0.266667  0.000000  0.400000    0.00029630  47 t-inv F
 -0.266667 -0.000000 -0.400000    0.00029630  47 t-inv F
  0.266667  0.266667 -0.133333    0.00029630  47 t-inv F
 -0.266667 -0.266667  0.133333    0.00029630  47 t-inv F
  0.400000  0.133333  0.400000    0.00029630  47 t-inv F
 -0.400000 -0.133333 -0.400000    0.00029630  47 t-inv F
  0.266667  0.400000 -0.000000    0.00029630  47 t-inv F
 -0.266667 -0.400000  0.000000    0.00029630  47 t-inv F
  0.133333 -0.266667 -0.266667    0.00029630  47 t-inv F
 -0.133333  0.266667  0.266667    0.00029630  47 t-inv F
  0.400000  0.400000  0.133333    0.00029630  47 t-inv F
 -0.400000 -0.400000 -0.133333    0.00029630  47 t-inv F
 -0.000000  0.266667  0.400000    0.00029630  47 t-inv F
  0.000000 -0.266667 -0.400000    0.00029630  47 t-inv F
 -0.266667  0.133333 -0.266667    0.00029630  47 t-inv F
  0.266667 -0.133333  0.266667    0.00029630  47 t-inv F
  0.133333  0.400000  0.400000    0.00029630  47 t-inv F
 -0.133333 -0.400000 -0.400000    0.00029630  47 t-inv F
  0.400000 -0.000000  0.266667    0.00029630  47 t-inv F
 -0.400000  0.000000 -0.266667    0.00029630  47 t-inv F
 -0.466667 -0.266667 -0.000000    0.00029630  48 t-inv F
  0.000000  0.466667  0.266667    0.00029630  48 t-inv F
 -0.000000 -0.466667 -0.266667    0.00029630  48 t-inv F
  0.266667  0.000000  0.466667    0.00029630  48 t-inv F
 -0.266667 -0.000000 -0.466667    0.00029630  48 t-inv F
  0.266667  0.266667 -0.200000    0.00029630  48 t-inv F
 -0.266667 -0.266667  0.200000    0.00029630  48 t-inv F
  0.466667  0.200000  0.466667    0.00029630  48 t-inv F
 -0.466667 -0.200000 -0.466667    0.00029630  48 t-inv F
  0.266667  0.466667 -0.000000    0.00029630  48 t-inv F
 -0.266667 -0.466667  0.000000    0.00029630  48 t-inv F
  0.200000 -0.266667 -0.266667    0.00029630  48 t-inv F
 -0.200000  0.266667  0.266667    0.00029630  48 t-inv F
  0.466667  0.466667  0.200000    0.00029630  48 t-inv F
 -0.466667 -0.466667 -0.200000    0.00029630  48 t-inv F
 -0.000000  0.266667  0.466667    0.00029630  48 t-inv F
  0.000000 -0.266667 -0.466667    0.00029630  48 t-inv F
 -0.266667  0.200000 -0.266667    0.00029630  48 t-inv F
  0.266667 -0.200000  0.266667    0.00029630  48 t-inv F
  0.200000  0.466667  0.466667    0.00029630  48 t-inv F
 -0.200000 -0.466667 -0.466667    0.00029630  48 t-inv F
  0.466667 -0.000000  0.266667    0.00029630  48 t-inv F
 -0.466667  0.000000 -0.266667    0.00029630  48 t-inv F
  0.466667 -0.266667 -0.000000    0.00029630  49 t-inv F
  0.000000 -0.466667  0.266667    0.00029630  49 t-inv F
 -0.000000  0.466667 -0.266667    0.00029630  49 t-inv F
  0.266667  0.000000 -0.466667    0.00029630  49 t-inv F
 -0.266667 -0.000000  0.466667    0.00029630  49 t-inv F
  0.266667  0.266667  0.733333    0.00029630  49 t-inv F
 -0.266667 -0.266667 -0.733333    0.00029630  49 t-inv F
 -0.466667 -0.733333 -0.466667    0.00029630  49 t-inv F
  0.466667  0.733333  0.466667    0.00029630  49 t-inv F
  0.266667 -0.466667 -0.000000    0.00029630  49 t-inv F
 -0.266667  0.466667  0.000000    0.00029630  49 t-inv F
 -0.733333 -0.266667 -0.266667    0.00029630  49 t-inv F
  0.733333  0.266667  0.266667    0.00029630  49 t-inv F
 -0.466667 -0.466667 -0.733333    0.00029630  49 t-inv F
  0.466667  0.466667  0.733333    0.00029630  49 t-inv F
 -0.000000  0.266667 -0.466667    0.00029630  49 t-inv F
  0.000000 -0.266667  0.466667    0.00029630  49 t-inv F
 -0.266667 -0.733333 -0.266667    0.00029630  49 t-inv F
  0.266667  0.733333  0.266667    0.00029630  49 t-inv F
 -0.733333 -0.466667 -0.466667    0.00029630  49 t-inv F
  0.733333  0.466667  0.466667    0.00029630  49 t-inv F
 -0.466667 -0.000000  0.266667    0.00029630  49 t-inv F
  0.466667  0.000000 -0.266667    0.00029630  49 t-inv F
  0.400000 -0.266667 -0.000000    0.00029630  50 t-inv F
  0.000000 -0.400000  0.266667    0.00029630  50 t-inv F
 -0.000000  0.400000 -0.266667    0.00029630  50 t-inv F
  0.266667  0.000000 -0.400000    0.00029630  50 t-inv F
 -0.266667 -0.000000  0.400000    0.00029630  50 t-inv F
  0.266667  0.266667  0.666667    0.00029630  50 t-inv F
 -0.266667 -0.266667 -0.666667    0.00029630  50 t-inv F
 -0.400000 -0.666667 -0.400000    0.00029630  50 t-inv F
  0.400000  0.666667  0.400000    0.00029630  50 t-inv F
  0.266667 -0.400000 -0.000000    0.00029630  50 t-inv F
 -0.266667  0.400000  0.000000    0.00029630  50 t-inv F
 -0.666667 -0.266667 -0.266667    0.00029630  50 t-inv F
  0.666667  0.266667  0.266667    0.00029630  50 t-inv F
 -0.400000 -0.400000 -0.666667    0.00029630  50 t-inv F
  0.400000  0.400000  0.666667    0.00029630  50 t-inv F
 -0.000000  0.266667 -0.400000    0.00029630  50 t-inv F
  0.000000 -0.266667  0.400000    0.00029630  50 t-inv F
 -0.266667 -0.666667 -0.266667    0.00029630  50 t-inv F
  0.266667  0.666667  0.266667    0.00029630  50 t-inv F
 -0.666667 -0.400000 -0.400000    0.00029630  50 t-inv F
  0.666667  0.400000  0.400000    0.00029630  50 t-inv F
 -0.400000 -0.000000  0.266667    0.00029630  50 t-inv F
  0.400000  0.000000 -0.266667    0.00029630  50 t-inv F
  0.333333 -0.266667 -0.000000    0.00029630  51 t-inv F
  0.000000 -0.333333  0.266667    0.00029630  51 t-inv F
 -0.000000  0.333333 -0.266667    0.00029630  51 t-inv F
  0.266667  0.000000 -0.333333    0.00029630  51 t-inv F
 -0.266667 -0.000000  0.333333    0.00029630  51 t-inv F
  0.266667  0.266667  0.600000    0.00029630  51 t-inv F
 -0.266667 -0.266667 -0.600000    0.00029630  51 t-inv F
 -0.333333 -0.600000 -0.333333    0.00029630  51 t-inv F
  0.333333  0.600000  0.333333    0.00029630  51 t-inv F
  0.266667 -0.333333 -0.000000    0.00029630  51 t-inv F
 -0.266667  0.333333  0.000000    0.00029630  51 t-inv F
 -0.600000 -0.266667 -0.266667    0.00029630  51 t-inv F
  0.600000  0.266667  0.266667    0.00029630  51 t-inv F
 -0.333333 -0.333333 -0.600000    0.00029630  51 t-inv F
  0.333333  0.333333  0.600000    0.00029630  51 t-inv F
 -0.000000  0.266667 -0.333333    0.00029630  51 t-inv F
  0.000000 -0.266667  0.333333    0.00029630  51 t-inv F
 -0.266667 -0.600000 -0.266667    0.00029630  51 t-inv F
  0.266667  0.600000  0.266667    0.00029630  51 t-inv F
 -0.600000 -0.333333 -0.333333    0.00029630  51 t-inv F
  0.600000  0.333333  0.333333    0.00029630  51 t-inv F
 -0.333333 -0.000000  0.266667    0.00029630  51 t-inv F
  0.333333  0.000000 -0.266667    0.00029630  51 t-inv F
  0.266667 -0.266667 -0.000000    0.00029630  52 t-inv F
  0.000000 -0.266667  0.266667    0.00029630  52 t-inv F
 -0.000000  0.266667 -0.266667    0.00029630  52 t-inv F
  0.266667  0.000000 -0.266667    0.00029630  52 t-inv F
 -0.266667 -0.000000  0.266667    0.00029630  52 t-inv F
  0.266667  0.266667  0.533333    0.00029630  52 t-inv F
 -0.266667 -0.266667 -0.533333    0.00029630  52 t-inv F
 -0.266667 -0.533333 -0.266667    0.00029630  52 t-inv F
  0.266667  0.533333  0.266667    0.00029630  52 t-inv F
 -0.533333 -0.266667 -0.266667    0.00029630  52 t-inv F
  0.533333  0.266667  0.266667    0.00029630  52 t-inv F
 -0.333333 -0.333333 -0.000000    0.00029630  53 t-inv F
  0.000000  0.333333  0.333333    0.00029630  53 t-inv F
 -0.000000 -0.333333 -0.333333    0.00029630  53 t-inv F
  0.333333  0.000000  0.333333    0.00029630  53 t-inv F
 -0.333333 -0.000000 -0.333333    0.00029630  53 t-inv F
 -0.400000 -0.333333 -0.000000    0.00029630  54 t-inv F
  0.000000  0.400000  0.333333    0.00029630  54 t-inv F
 -0.000000 -0.400000 -0.333333    0.00029630  54 t-inv F
  0.333333  0.000000  0.400000    0.00029630  54 t-inv F
 -0.333333 -0.000000 -0.400000    0.00029630  54 t-inv F
  0.333333  0.333333 -0.066667    0.00029630  54 t-inv F
 -0.333333 -0.333333  0.066667    0.00029630  54 t-inv F
  0.400000  0.066667  0.400000    0.00029630  54 t-inv F
 -0.400000 -0.066667 -0.400000    0.00029630  54 t-inv F
  0.333333  0.400000 -0.000000    0.00029630  54 t-inv F
 -0.333333 -0.400000  0.000000    0.00029630  54 t-inv F
  0.066667 -0.333333 -0.333333    0.00029630  54 t-inv F
 -0.066667  0.333333  0.333333    0.00029630  54 t-inv F
  0.400000  0.400000  0.066667    0.00029630  54 t-inv F
 -0.400000 -0.400000 -0.066667    0.00029630  54 t-inv F
 -0.000000  0.333333  0.400000    0.00029630  54 t-inv F
  0.000000 -0.333333 -0.400000    0.00029630  54 t-inv F
 -0.333333  0.066667 -0.333333    0.00029630  54 t-inv F
  0.333333 -0.066667  0.333333    0.00029630  54 t-inv F
  0.066667  0.400000  0.400000    0.00029630  54 t-inv F
 -0.066667 -0.400000 -0.400000    0.00029630  54 t-inv F
  0.400000 -0.000000  0.333333    0.00029630  54 t-inv F
 -0.400000  0.000000 -0.333333    0.00029630  54 t-inv F
 -0.466667 -0.333333 -0.000000    0.00029630  55 t-inv F
  0.000000  0.466667  0.333333    0.00029630  55 t-inv F
 -0.000000 -0.466667 -0.333333    0.00029630  55 t-inv F
  0.333333  0.000000  0.466667    0.00029630  55 t-inv F
 -0.333333 -0.000000 -0.466667    0.00029630  55 t-inv F
  0.333333  0.333333 -0.133333    0.00029630  55 t-inv F
 -0.333333 -0.333333  0.133333    0.00029630  55 t-inv F
  0.466667  0.133333  0.466667    0.00029630  55 t-inv F
 -0.466667 -0.133333 -0.466667    0.00029630  55 t-inv F
  0.333333  0.466667 -0.000000    0.00029630  55 t-inv F
 -0.333333 -0.466667  0.000000    0.00029630  55 t-inv F
  0.133333 -0.333333 -0.333333    0.00029630  55 t-inv F
 -0.133333  0.333333  0.333333    0.00029630  55 t-inv F
  0.466667  0.466667  0.133333    0.00029630  55 t-inv F
 -0.466667 -0.466667 -0.133333    0.00029630  55 t-inv F
 -0.000000  0.333333  0.466667    0.00029630  55 t-inv F
  0.000000 -0.333333 -0.466667    0.00029630  55 t-inv F
 -0.333333  0.133333 -0.333333    0.00029630  55 t-inv F
  0.333333 -0.133333  0.333333    0.00029630  55 t-inv F
  0.133333  0.466667  0.466667    0.00029630  55 t-inv F
 -0.133333 -0.466667 -0.466667    0.00029630  55 t-inv F
  0.466667 -0.000000  0.333333    0.00029630  55 t-inv F
 -0.466667  0.000000 -0.333333    0.00029630  55 t-inv F
  0.466667 -0.333333 -0.000000    0.00029630  56 t-inv F
  0.000000 -0.466667  0.333333    0.00029630  56 t-inv F
 -0.000000  0.466667 -0.333333    0.00029630  56 t-inv F
  0.333333  0.000000 -0.466667    0.00029630  56 t-inv F
 -0.333333 -0.000000  0.466667    0.00029630  56 t-inv F
  0.333333  0.333333  0.800000    0.00029630  56 t-inv F
 -0.333333 -0.333333 -0.800000    0.00029630  56 t-inv F
 -0.466667 -0.800000 -0.466667    0.00029630  56 t-inv F
  0.466667  0.800000  0.466667    0.00029630  56 t-inv F
  0.333333 -0.466667 -0.000000    0.00029630  56 t-inv F
 -0.333333  0.466667  0.000000    0.00029630  56 t-inv F
 -0.800000 -0.333333 -0.333333    0.00029630  56 t-inv F
  0.800000  0.333333  0.333333    0.00029630  56 t-inv F
 -0.466667 -0.466667 -0.800000    0.00029630  56 t-inv F
  0.466667  0.466667  0.800000    0.00029630  56 t-inv F
 -0.000000  0.333333 -0.466667    0.00029630  56 t-inv F
  0.000000 -0.333333  0.466667    0.00029630  56 t-inv F
 -0.333333 -0.800000 -0.333333    0.00029630  56 t-inv F
  0.333333  0.800000  0.333333    0.00029630  56 t-inv F
 -0.800000 -0.466667 -0.466667    0.00029630  56 t-inv F
  0.800000  0.466667  0.466667    0.00029630  56 t-inv F
 -0.466667 -0.000000  0.333333    0.00029630  56 t-inv F
  0.466667  0.000000 -0.333333    0.00029630  56 t-inv F
  0.400000 -0.333333 -0.000000    0.00029630  57 t-inv F
  0.000000 -0.400000  0.333333    0.00029630  57 t-inv F
 -0.000000  0.400000 -0.333333    0.00029630  57 t-inv F
  0.333333  0.000000 -0.400000    0.00029630  57 t-inv F
 -0.333333 -0.000000  0.400000    0.00029630  57 t-inv F
  0.333333  0.333333  0.733333    0.00029630  57 t-inv F
 -0.333333 -0.333333 -0.733333    0.00029630  57 t-inv F
 -0.400000 -0.733333 -0.400000    0.00029630  57 t-inv F
  0.400000  0.733333  0.400000    0.00029630  57 t-inv F
  0.333333 -0.400000 -0.000000    0.00029630  57 t-inv F
 -0.333333  0.400000  0.000000    0.00029630  57 t-inv F
 -0.733333 -0.333333 -0.333333    0.00029630  57 t-inv F
  0.733333  0.333333  0.333333    0.00029630  57 t-inv F
 -0.400000 -0.400000 -0.733333    0.00029630  57 t-inv F
  0.400000  0.400000  0.733333    0.00029630  57 t-inv F
 -0.000000  0.333333 -0.400000    0.00029630  57 t-inv F
  0.000000 -0.333333  0.400000    0.00029630  57 t-inv F
 -0.333333 -0.733333 -0.333333    0.00029630  57 t-inv F
  0.333333  0.733333  0.333333    0.00029630  57 t-inv F
 -0.733333 -0.400000 -0.400000    0.00029630  57 t-inv F
  0.733333  0.400000  0.400000    0.00029630  57 t-inv F
 -0.400000 -0.000000  0.333333    0.00029630  57 t-inv F
  0.400000  0.000000 -0.333333    0.00029630  57 t-inv F
  0.333333 -0.333333 -0.000000    0.00029630  58 t-inv F
  0.000000 -0.333333  0.333333    0.00029630  58 t-inv F
 -0.000000  0.333333 -0.333333    0.00029630  58 t-inv F
  0.333333  0.000000 -0.333333    0.00029630  58 t-inv F
 -0.333333 -0.000000  0.333333    0.00029630  58 t-inv F
  0.333333  0.333333  0.666667    0.00029630  58 t-inv F
 -0.333333 -0.333333 -0.666667    0.00029630  58 t-inv F
 -0.333333 -0.666667 -0.333333    0.00029630  58 t-inv F
  0.333333  0.666667  0.333333    0.00029630  58 t-inv F
 -0.666667 -0.333333 -0.333333    0.00029630  58 t-inv F
  0.666667  0.333333  0.333333    0.00029630  58 t-inv F
 -0.400000 -0.400000 -0.000000    0.00029630  59 t-inv F
  0.000000  0.400000  0.400000    0.00029630  59 t-inv F
 -0.000000 -0.400000 -0.400000    0.00029630  59 t-inv F
  0.400000  0.000000  0.400000    0.00029630  59 t-inv F
 -0.400000 -0.000000 -0.400000    0.00029630  59 t-inv F
 -0.466667 -0.400000 -0.000000    0.00029630  60 t-inv F
  0.000000  0.466667  0.400000    0.00029630  60 t-inv F
 -0.000000 -0.466667 -0.400000    0.00029630  60 t-inv F
  0.400000  0.000000  0.466667    0.00029630  60 t-inv F
 -0.400000 -0.000000 -0.466667    0.00029630  60 t-inv F
  0.400000  0.400000 -0.066667    0.00029630  60 t-inv F
 -0.400000 -0.400000  0.066667    0.00029630  60 t-inv F
  0.466667  0.066667  0.466667    0.00029630  60 t-inv F
 -0.466667 -0.066667 -0.466667    0.00029630  60 t-inv F
  0.400000  0.466667 -0.000000    0.00029630  60 t-inv F
 -0.400000 -0.466667  0.000000    0.00029630  60 t-inv F
  0.066667 -0.400000 -0.400000    0.00029630  60 t-inv F
 -0.066667  0.400000  0.400000    0.00029630  60 t-inv F
  0.466667  0.466667  0.066667    0.00029630  60 t-inv F
 -0.466667 -0.466667 -0.066667    0.00029630  60 t-inv F
 -0.000000  0.400000  0.466667    0.00029630  60 t-inv F
  0.000000 -0.400000 -0.466667    0.00029630  60 t-inv F
 -0.400000  0.066667 -0.400000    0.00029630  60 t-inv F
  0.400000 -0.066667  0.400000    0.00029630  60 t-inv F
  0.066667  0.466667  0.466667    0.00029630  60 t-inv F
 -0.066667 -0.466667 -0.466667    0.00029630  60 t-inv F
  0.466667 -0.000000  0.400000    0.00029630  60 t-inv F
 -0.466667  0.000000 -0.400000    0.00029630  60 t-inv F
  0.466667 -0.400000 -0.000000    0.00029630  61 t-inv F
  0.000000 -0.466667  0.400000    0.00029630  61 t-inv F
 -0.000000  0.466667 -0.400000    0.00029630  61 t-inv F
  0.400000  0.000000 -0.466667    0.00029630  61 t-inv F
 -0.400000 -0.000000  0.466667    0.00029630  61 t-inv F
  0.400000  0.400000  0.866667    0.00029630  61 t-inv F
 -0.400000 -0.400000 -0.866667    0.00029630  61 t-inv F
 -0.466667 -0.866667 -0.466667    0.00029630  61 t-inv F
  0.466667  0.866667  0.466667    0.00029630  61 t-inv F
  0.400000 -0.466667 -0.000000    0.00029630  61 t-inv F
 -0.400000  0.466667  0.000000    0.00029630  61 t-inv F
 -0.866667 -0.400000 -0.400000    0.00029630  61 t-inv F
  0.866667  0.400000  0.400000    0.00029630  61 t-inv F
 -0.466667 -0.466667 -0.866667    0.00029630  61 t-inv F
  0.466667  0.466667  0.866667    0.00029630  61 t-inv F
 -0.000000  0.400000 -0.466667    0.00029630  61 t-inv F
  0.000000 -0.400000  0.466667    0.00029630  61 t-inv F
 -0.400000 -0.866667 -0.400000    0.00029630  61 t-inv F
  0.400000  0.866667  0.400000    0.00029630  61 t-inv F
 -0.866667 -0.466667 -0.466667    0.00029630  61 t-inv F
  0.866667  0.466667  0.466667    0.00029630  61 t-inv F
 -0.466667 -0.000000  0.400000    0.00029630  61 t-inv F
  0.466667  0.000000 -0.400000    0.00029630  61 t-inv F
  0.400000 -0.400000 -0.000000    0.00029630  62 t-inv F
  0.000000 -0.400000  0.400000    0.00029630  62 t-inv F
 -0.000000  0.400000 -0.400000    0.00029630  62 t-inv F
  0.400000  0.000000 -0.400000    0.00029630  62 t-inv F
 -0.400000 -0.000000  0.400000    0.00029630  62 t-inv F
  0.400000  0.400000  0.800000    0.00029630  62 t-inv F
 -0.400000 -0.400000 -0.800000    0.00029630  62 t-inv F
 -0.400000 -0.800000 -0.400000    0.00029630  62 t-inv F
  0.400000  0.800000  0.400000    0.00029630  62 t-inv F
 -0.800000 -0.400000 -0.400000    0.00029630  62 t-inv F
  0.800000  0.400000  0.400000    0.00029630  62 t-inv F
 -0.466667 -0.466667 -0.000000    0.00029630  63 t-inv F
  0.000000  0.466667  0.466667    0.00029630  63 t-inv F
 -0.000000 -0.466667 -0.466667    0.00029630  63 t-inv F
  0.466667  0.000000  0.466667    0.00029630  63 t-inv F
 -0.466667 -0.000000 -0.466667    0.00029630  63 t-inv F
  0.466667 -0.466667 -0.000000    0.00029630  64 t-inv F
  0.000000 -0.466667  0.466667    0.00029630  64 t-inv F
 -0.000000  0.466667 -0.466667    0.00029630  64 t-inv F
  0.466667  0.000000 -0.466667    0.00029630  64 t-inv F
 -0.466667 -0.000000  0.466667    0.00029630  64 t-inv F
  0.466667  0.466667  0.933333    0.00029630  64 t-inv F
 -0.466667 -0.466667 -0.933333    0.00029630  64 t-inv F
 -0.466667 -0.933333 -0.466667    0.00029630  64 t-inv F
  0.466667  0.933333  0.466667    0.00029630  64 t-inv F
 -0.933333 -0.466667 -0.466667    0.00029630  64 t-inv F
  0.933333  0.466667  0.466667    0.00029630  64 t-inv F
 -0.200000 -0.133333 -0.066667    0.00029630  65 t-inv F
  0.066667  0.200000  0.133333    0.00029630  65 t-inv F
 -0.066667 -0.200000 -0.133333    0.00029630  65 t-inv F
  0.133333  0.066667  0.200000    0.00029630  65 t-inv F
 -0.133333 -0.066667 -0.200000    0.00029630  65 t-inv F
  0.133333  0.066667 -0.066667    0.00029630  65 t-inv F
 -0.133333 -0.066667  0.066667    0.00029630  65 t-inv F
  0.200000  0.066667  0.133333    0.00029630  65 t-inv F
 -0.200000 -0.066667 -0.133333    0.00029630  65 t-inv F
  0.066667 -0.133333 -0.066667    0.00029630  65 t-inv F
 -0.066667  0.133333  0.066667    0.00029630  65 t-inv F
  0.066667  0.133333 -0.066667    0.00029630  65 t-inv F
 -0.066667 -0.133333  0.066667    0.00029630  65 t-inv F
  0.066667 -0.066667 -0.133333    0.00029630  65 t-inv F
 -0.066667  0.066667  0.133333    0.00029630  65 t-inv F
  0.133333  0.200000  0.066667    0.00029630  65 t-inv F
 -0.133333 -0.200000 -0.066667    0.00029630  65 t-inv F
 -0.066667  0.066667 -0.133333    0.00029630  65 t-inv F
  0.066667 -0.066667  0.133333    0.00029630  65 t-inv F
 -0.133333  0.066667 -0.066667    0.00029630  65 t-inv F
  0.133333 -0.066667  0.066667    0.00029630  65 t-inv F
  0.066667  0.133333  0.200000    0.00029630  65 t-inv F
 -0.066667 -0.133333 -0.200000    0.00029630  65 t-inv F
 -0.266667 -0.133333 -0.066667    0.00029630  66 t-inv F
  0.066667  0.266667  0.133333    0.00029630  66 t-inv F
 -0.066667 -0.266667 -0.133333    0.00029630  66 t-inv F
  0.133333  0.066667  0.266667    0.00029630  66 t-inv F
 -0.133333 -0.066667 -0.266667    0.00029630  66 t-inv F
  0.133333  0.066667 -0.133333    0.00029630  66 t-inv F
 -0.133333 -0.066667  0.133333    0.00029630  66 t-inv F
  0.266667  0.133333  0.200000    0.00029630  66 t-inv F
 -0.266667 -0.133333 -0.200000    0.00029630  66 t-inv F
  0.066667 -0.200000 -0.066667    0.00029630  66 t-inv F
 -0.066667  0.200000  0.066667    0.00029630  66 t-inv F
  0.066667  0.200000 -0.066667    0.00029630  66 t-inv F
 -0.066667 -0.200000  0.066667    0.00029630  66 t-inv F
  0.133333 -0.066667 -0.133333    0.00029630  66 t-inv F
 -0.133333  0.066667  0.133333    0.00029630  66 t-inv F
 -0.200000 -0.133333 -0.266667    0.00029630  66 t-inv F
  0.200000  0.133333  0.266667    0.00029630  66 t-inv F
  0.200000  0.266667  0.133333    0.00029630  66 t-inv F
 -0.200000 -0.266667 -0.133333    0.00029630  66 t-inv F
 -0.066667  0.066667 -0.200000    0.00029630  66 t-inv F
  0.066667 -0.066667  0.200000    0.00029630  66 t-inv F
 -0.133333  0.133333  0.066667    0.00029630  66 t-inv F
  0.133333 -0.133333 -0.066667    0.00029630  66 t-inv F
 -0.066667  0.066667  0.200000    0.00029630  66 t-inv F
  0.066667 -0.066667 -0.200000    0.00029630  66 t-inv F
 -0.133333  0.133333 -0.066667    0.00029630  66 t-inv F
  0.133333 -0.133333  0.066667    0.00029630  66 t-inv F
 -0.266667 -0.200000 -0.133333    0.00029630  66 t-inv F
  0.266667  0.200000  0.133333    0.00029630  66 t-inv F
  0.133333  0.200000  0.266667    0.00029630  66 t-inv F
 -0.133333 -0.200000 -0.266667    0.00029630  66 t-inv F
 -0.200000 -0.066667  0.066667    0.00029630  66 t-inv F
  0.200000  0.066667 -0.066667    0.00029630  66 t-inv F
  0.066667 -0.133333  0.133333    0.00029630  66 t-inv F
 -0.066667  0.133333 -0.133333    0.00029630  66 t-inv F
  0.200000 -0.066667  0.066667    0.00029630  66 t-inv F
 -0.200000  0.066667 -0.066667    0.00029630  66 t-inv F
 -0.066667 -0.133333  0.133333    0.00029630  66 t-inv F
  0.066667  0.133333 -0.133333    0.00029630  66 t-inv F
 -0.133333 -0.266667 -0.200000    0.00029630  66 t-inv F
  0.133333  0.266667  0.200000    0.00029630  66 t-inv F
 -0.266667 -0.066667 -0.133333    0.00029630  66 t-inv F
  0.266667  0.066667  0.133333    0.00029630  66 t-inv F
 -0.133333 -0.266667 -0.066667    0.00029630  66 t-inv F
  0.133333  0.266667  0.066667    0.00029630  66 t-inv F
 -0.066667 -0.133333 -0.266667    0.00029630  66 t-inv F
  0.066667  0.133333  0.266667    0.00029630  66 t-inv F
 -0.333333 -0.133333 -0.066667    0.00029630  67 t-inv F
  0.066667  0.333333  0.133333    0.00029630  67 t-inv F
 -0.066667 -0.333333 -0.133333    0.00029630  67 t-inv F
  0.133333  0.066667  0.333333    0.00029630  67 t-inv F
 -0.133333 -0.066667 -0.333333    0.00029630  67 t-inv F
  0.133333  0.066667 -0.200000    0.00029630  67 t-inv F
 -0.133333 -0.066667  0.200000    0.00029630  67 t-inv F
  0.333333  0.200000  0.266667    0.00029630  67 t-inv F
 -0.333333 -0.200000 -0.266667    0.00029630  67 t-inv F
  0.066667 -0.266667 -0.066667    0.00029630  67 t-inv F
 -0.066667  0.266667  0.066667    0.00029630  67 t-inv F
  0.066667  0.266667 -0.066667    0.00029630  67 t-inv F
 -0.066667 -0.266667  0.066667    0.00029630  67 t-inv F
  0.200000 -0.066667 -0.133333    0.00029630  67 t-inv F
 -0.200000  0.066667  0.133333    0.00029630  67 t-inv F
 -0.266667 -0.200000 -0.333333    0.00029630  67 t-inv F
  0.266667  0.200000  0.333333    0.00029630  67 t-inv F
  0.266667  0.333333  0.200000    0.00029630  67 t-inv F
 -0.266667 -0.333333 -0.200000    0.00029630  67 t-inv F
 -0.066667  0.066667 -0.266667    0.00029630  67 t-inv F
  0.066667 -0.066667  0.266667    0.00029630  67 t-inv F
 -0.200000  0.133333  0.066667    0.00029630  67 t-inv F
  0.200000 -0.133333 -0.066667    0.00029630  67 t-inv F
 -0.066667  0.066667  0.266667    0.00029630  67 t-inv F
  0.066667 -0.066667 -0.266667    0.00029630  67 t-inv F
 -0.133333  0.200000 -0.066667    0.00029630  67 t-inv F
  0.133333 -0.200000  0.066667    0.00029630  67 t-inv F
 -0.333333 -0.266667 -0.200000    0.00029630  67 t-inv F
  0.333333  0.266667  0.200000    0.00029630  67 t-inv F
  0.200000  0.266667  0.333333    0.00029630  67 t-inv F
 -0.200000 -0.266667 -0.333333    0.00029630  67 t-inv F
 -0.266667 -0.066667  0.066667    0.00029630  67 t-inv F
  0.266667  0.066667 -0.066667    0.00029630  67 t-inv F
  0.066667 -0.200000  0.133333    0.00029630  67 t-inv F
 -0.066667  0.200000 -0.133333    0.00029630  67 t-inv F
  0.266667 -0.066667  0.066667    0.00029630  67 t-inv F
 -0.266667  0.066667 -0.066667    0.00029630  67 t-inv F
 -0.066667 -0.133333  0.200000    0.00029630  67 t-inv F
  0.066667  0.133333 -0.200000    0.00029630  67 t-inv F
 -0.200000 -0.333333 -0.266667    0.00029630  67 t-inv F
  0.200000  0.333333  0.266667    0.00029630  67 t-inv F
 -0.333333 -0.066667 -0.133333    0.00029630  67 t-inv F
  0.333333  0.066667  0.133333    0.00029630  67 t-inv F
 -0.133333 -0.333333 -0.066667    0.00029630  67 t-inv F
  0.133333  0.333333  0.066667    0.00029630  67 t-inv F
 -0.066667 -0.133333 -0.333333    0.00029630  67 t-inv F
  0.066667  0.133333  0.333333    0.00029630  67 t-inv F
 -0.400000 -0.133333 -0.066667    0.00029630  68 t-inv F
  0.066667  0.400000  0.133333    0.00029630  68 t-inv F
 -0.066667 -0.400000 -0.133333    0.00029630  68 t-inv F
  0.133333  0.066667  0.400000    0.00029630  68 t-inv F
 -0.133333 -0.066667 -0.400000    0.00029630  68 t-inv F
  0.133333  0.066667 -0.266667    0.00029630  68 t-inv F
 -0.133333 -0.066667  0.266667    0.00029630  68 t-inv F
  0.400000  0.266667  0.333333    0.00029630  68 t-inv F
 -0.400000 -0.266667 -0.333333    0.00029630  68 t-inv F
  0.066667 -0.333333 -0.066667    0.00029630  68 t-inv F
 -0.066667  0.333333  0.066667    0.00029630  68 t-inv F
  0.066667  0.333333 -0.066667    0.00029630  68 t-inv F
 -0.066667 -0.333333  0.066667    0.00029630  68 t-inv F
  0.266667 -0.066667 -0.133333    0.00029630  68 t-inv F
 -0.266667  0.066667  0.133333    0.00029630  68 t-inv F
 -0.333333 -0.266667 -0.400000    0.00029630  68 t-inv F
  0.333333  0.266667  0.400000    0.00029630  68 t-inv F
  0.333333  0.400000  0.266667    0.00029630  68 t-inv F
 -0.333333 -0.400000 -0.266667    0.00029630  68 t-inv F
 -0.066667  0.066667 -0.333333    0.00029630  68 t-inv F
  0.066667 -0.066667  0.333333    0.00029630  68 t-inv F
 -0.266667  0.133333  0.066667    0.00029630  68 t-inv F
  0.266667 -0.133333 -0.066667    0.00029630  68 t-inv F
 -0.066667  0.066667  0.333333    0.00029630  68 t-inv F
  0.066667 -0.066667 -0.333333    0.00029630  68 t-inv F
 -0.133333  0.266667 -0.066667    0.00029630  68 t-inv F
  0.133333 -0.266667  0.066667    0.00029630  68 t-inv F
 -0.400000 -0.333333 -0.266667    0.00029630  68 t-inv F
  0.400000  0.333333  0.266667    0.00029630  68 t-inv F
  0.266667  0.333333  0.400000    0.00029630  68 t-inv F
 -0.266667 -0.333333 -0.400000    0.00029630  68 t-inv F
 -0.333333 -0.066667  0.066667    0.00029630  68 t-inv F
  0.333333  0.066667 -0.066667    0.00029630  68 t-inv F
  0.066667 -0.266667  0.133333    0.00029630  68 t-inv F
 -0.066667  0.266667 -0.133333    0.00029630  68 t-inv F
  0.333333 -0.066667  0.066667    0.00029630  68 t-inv F
 -0.333333  0.066667 -0.066667    0.00029630  68 t-inv F
 -0.066667 -0.133333  0.266667    0.00029630  68 t-inv F
  0.066667  0.133333 -0.266667    0.00029630  68 t-inv F
 -0.266667 -0.400000 -0.333333    0.00029630  68 t-inv F
  0.266667  0.400000  0.333333    0.00029630  68 t-inv F
 -0.400000 -0.066667 -0.133333    0.00029630  68 t-inv F
  0.400000  0.066667  0.133333    0.00029630  68 t-inv F
 -0.133333 -0.400000 -0.066667    0.00029630  68 t-inv F
  0.133333  0.400000  0.066667    0.00029630  68 t-inv F
 -0.066667 -0.133333 -0.400000    0.00029630  68 t-inv F
  0.066667  0.133333  0.400000    0.00029630  68 t-inv F
 -0.466667 -0.133333 -0.066667    0.00029630  69 t-inv F
  0.066667  0.466667  0.133333    0.00029630  69 t-inv F
 -0.066667 -0.466667 -0.133333    0.00029630  69 t-inv F
  0.133333  0.066667  0.466667    0.00029630  69 t-inv F
 -0.133333 -0.066667 -0.466667    0.00029630  69 t-inv F
  0.133333  0.066667 -0.333333    0.00029630  69 t-inv F
 -0.133333 -0.066667  0.333333    0.00029630  69 t-inv F
  0.466667  0.333333  0.400000    0.00029630  69 t-inv F
 -0.466667 -0.333333 -0.400000    0.00029630  69 t-inv F
  0.066667 -0.400000 -0.066667    0.00029630  69 t-inv F
 -0.066667  0.400000  0.066667    0.00029630  69 t-inv F
  0.066667  0.400000 -0.066667    0.00029630  69 t-inv F
 -0.066667 -0.400000  0.066667    0.00029630  69 t-inv F
  0.333333 -0.066667 -0.133333    0.00029630  69 t-inv F
 -0.333333  0.066667  0.133333    0.00029630  69 t-inv F
 -0.400000 -0.333333 -0.466667    0.00029630  69 t-inv F
  0.400000  0.333333  0.466667    0.00029630  69 t-inv F
  0.400000  0.466667  0.333333    0.00029630  69 t-inv F
 -0.400000 -0.466667 -0.333333    0.00029630  69 t-inv F
 -0.066667  0.066667 -0.400000    0.00029630  69 t-inv F
  0.066667 -0.066667  0.400000    0.00029630  69 t-inv F
 -0.333333  0.133333  0.066667    0.00029630  69 t-inv F
  0.333333 -0.133333 -0.066667    0.00029630  69 t-inv F
 -0.066667  0.066667  0.400000    0.00029630  69 t-inv F
  0.066667 -0.066667 -0.400000    0.00029630  69 t-inv F
 -0.133333  0.333333 -0.066667    0.00029630  69 t-inv F
  0.133333 -0.333333  0.066667    0.00029630  69 t-inv F
 -0.466667 -0.400000 -0.333333    0.00029630  69 t-inv F
  0.466667  0.400000  0.333333    0.00029630  69 t-inv F
  0.333333  0.400000  0.466667    0.00029630  69 t-inv F
 -0.333333 -0.400000 -0.466667    0.00029630  69 t-inv F
 -0.400000 -0.066667  0.066667    0.00029630  69 t-inv F
  0.400000  0.066667 -0.066667    0.00029630  69 t-inv F
  0.066667 -0.333333  0.133333    0.00029630  69 t-inv F
 -0.066667  0.333333 -0.133333    0.00029630  69 t-inv F
  0.400000 -0.066667  0.066667    0.00029630  69 t-inv F
 -0.400000  0.066667 -0.066667    0.00029630  69 t-inv F
 -0.066667 -0.133333  0.333333    0.00029630  69 t-inv F
  0.066667  0.133333 -0.333333    0.00029630  69 t-inv F
 -0.333333 -0.466667 -0.400000    0.00029630  69 t-inv F
  0.333333  0.466667  0.400000    0.00029630  69 t-inv F
 -0.466667 -0.066667 -0.133333    0.00029630  69 t-inv F
  0.466667  0.066667  0.133333    0.00029630  69 t-inv F
 -0.133333 -0.466667 -0.066667    0.00029630  69 t-inv F
  0.133333  0.466667  0.066667    0.00029630  69 t-inv F
 -0.066667 -0.133333 -0.466667    0.00029630  69 t-inv F
  0.066667  0.133333  0.466667    0.00029630  69 t-inv F
  0.466667 -0.133333 -0.066667    0.00029630  70 t-inv F
  0.066667 -0.466667  0.133333    0.00029630  70 t-inv F
 -0.066667  0.466667 -0.133333    0.00029630  70 t-inv F
  0.133333  0.066667 -0.466667    0.00029630  70 t-inv F
 -0.133333 -0.066667  0.466667    0.00029630  70 t-inv F
  0.133333  0.066667  0.600000    0.00029630  70 t-inv F
 -0.133333 -0.066667 -0.600000    0.00029630  70 t-inv F
 -0.466667 -0.600000 -0.533333    0.00029630  70 t-inv F
  0.466667  0.600000  0.533333    0.00029630  70 t-inv F
  0.066667  0.533333 -0.066667    0.00029630  70 t-inv F
 -0.066667 -0.533333  0.066667    0.00029630  70 t-inv F
  0.066667 -0.533333 -0.066667    0.00029630  70 t-inv F
 -0.066667  0.533333  0.066667    0.00029630  70 t-inv F
 -0.600000 -0.066667 -0.133333    0.00029630  70 t-inv F
  0.600000  0.066667  0.133333    0.00029630  70 t-inv F
  0.533333  0.600000  0.466667    0.00029630  70 t-inv F
 -0.533333 -0.600000 -0.466667    0.00029630  70 t-inv F
 -0.533333 -0.466667 -0.600000    0.00029630  70 t-inv F
  0.533333  0.466667  0.600000    0.00029630  70 t-inv F
 -0.066667  0.066667  0.533333    0.00029630  70 t-inv F
  0.066667 -0.066667 -0.533333    0.00029630  70 t-inv F
  0.600000  0.133333  0.066667    0.00029630  70 t-inv F
 -0.600000 -0.133333 -0.066667    0.00029630  70 t-inv F
 -0.066667  0.066667 -0.533333    0.00029630  70 t-inv F
  0.066667 -0.066667  0.533333    0.00029630  70 t-inv F
 -0.133333 -0.600000 -0.066667    0.00029630  70 t-inv F
  0.133333  0.600000  0.066667    0.00029630  70 t-inv F
  0.466667  0.533333  0.600000    0.00029630  70 t-inv F
 -0.466667 -0.533333 -0.600000    0.00029630  70 t-inv F
 -0.600000 -0.533333 -0.466667    0.00029630  70 t-inv F
  0.600000  0.533333  0.466667    0.00029630  70 t-inv F
  0.533333 -0.066667  0.066667    0.00029630  70 t-inv F
 -0.533333  0.066667 -0.066667    0.00029630  70 t-inv F
  0.066667  0.600000  0.133333    0.00029630  70 t-inv F
 -0.066667 -0.600000 -0.133333    0.00029630  70 t-inv F
 -0.533333 -0.066667  0.066667    0.00029630  70 t-inv F
  0.533333  0.066667 -0.066667    0.00029630  70 t-inv F
 -0.066667 -0.133333 -0.600000    0.00029630  70 t-inv F
  0.066667  0.133333  0.600000    0.00029630  70 t-inv F
  0.600000  0.466667  0.533333    0.00029630  70 t-inv F
 -0.600000 -0.466667 -0.533333    0.00029630  70 t-inv F
  0.466667 -0.066667 -0.133333    0.00029630  70 t-inv F
 -0.466667  0.066667  0.133333    0.00029630  70 t-inv F
 -0.133333  0.466667 -0.066667    0.00029630  70 t-inv F
  0.133333 -0.466667  0.066667    0.00029630  70 t-inv F
 -0.066667 -0.133333  0.466667    0.00029630  70 t-inv F
  0.066667  0.133333 -0.466667    0.00029630  70 t-inv F
 -0.266667 -0.200000 -0.066667    0.00029630  71 t-inv F
  0.066667  0.266667  0.200000    0.00029630  71 t-inv F
 -0.066667 -0.266667 -0.200000    0.00029630  71 t-inv F
  0.200000  0.066667  0.266667    0.00029630  71 t-inv F
 -0.200000 -0.066667 -0.266667    0.00029630  71 t-inv F
  0.200000  0.133333 -0.066667    0.00029630  71 t-inv F
 -0.200000 -0.133333  0.066667    0.00029630  71 t-inv F
  0.266667  0.066667  0.200000    0.00029630  71 t-inv F
 -0.266667 -0.066667 -0.200000    0.00029630  71 t-inv F
  0.066667 -0.200000 -0.133333    0.00029630  71 t-inv F
 -0.066667  0.200000  0.133333    0.00029630  71 t-inv F
  0.133333  0.200000 -0.066667    0.00029630  71 t-inv F
 -0.133333 -0.200000  0.066667    0.00029630  71 t-inv F
  0.066667 -0.133333 -0.200000    0.00029630  71 t-inv F
 -0.066667  0.133333  0.200000    0.00029630  71 t-inv F
  0.200000  0.266667  0.066667    0.00029630  71 t-inv F
 -0.200000 -0.266667 -0.066667    0.00029630  71 t-inv F
 -0.133333  0.066667 -0.200000    0.00029630  71 t-inv F
  0.133333 -0.066667  0.200000    0.00029630  71 t-inv F
 -0.200000  0.066667 -0.133333    0.00029630  71 t-inv F
  0.200000 -0.066667  0.133333    0.00029630  71 t-inv F
  0.066667  0.200000  0.266667    0.00029630  71 t-inv F
 -0.066667 -0.200000 -0.266667    0.00029630  71 t-inv F
 -0.333333 -0.200000 -0.066667    0.00029630  72 t-inv F
  0.066667  0.333333  0.200000    0.00029630  72 t-inv F
 -0.066667 -0.333333 -0.200000    0.00029630  72 t-inv F
  0.200000  0.066667  0.333333    0.00029630  72 t-inv F
 -0.200000 -0.066667 -0.333333    0.00029630  72 t-inv F
  0.200000  0.133333 -0.133333    0.00029630  72 t-inv F
 -0.200000 -0.133333  0.133333    0.00029630  72 t-inv F
  0.333333  0.133333  0.266667    0.00029630  72 t-inv F
 -0.333333 -0.133333 -0.266667    0.00029630  72 t-inv F
  0.066667 -0.266667 -0.133333    0.00029630  72 t-inv F
 -0.066667  0.266667  0.133333    0.00029630  72 t-inv F
  0.133333  0.266667 -0.066667    0.00029630  72 t-inv F
 -0.133333 -0.266667  0.066667    0.00029630  72 t-inv F
  0.133333 -0.133333 -0.200000    0.00029630  72 t-inv F
 -0.133333  0.133333  0.200000    0.00029630  72 t-inv F
 -0.266667 -0.133333 -0.333333    0.00029630  72 t-inv F
  0.266667  0.133333  0.333333    0.00029630  72 t-inv F
  0.266667  0.333333  0.133333    0.00029630  72 t-inv F
 -0.266667 -0.333333 -0.133333    0.00029630  72 t-inv F
 -0.133333  0.066667 -0.266667    0.00029630  72 t-inv F
  0.133333 -0.066667  0.266667    0.00029630  72 t-inv F
 -0.133333  0.200000  0.133333    0.00029630  72 t-inv F
  0.133333 -0.200000 -0.133333    0.00029630  72 t-inv F
 -0.066667  0.133333  0.266667    0.00029630  72 t-inv F
  0.066667 -0.133333 -0.266667    0.00029630  72 t-inv F
 -0.200000  0.133333 -0.133333    0.00029630  72 t-inv F
  0.200000 -0.133333  0.133333    0.00029630  72 t-inv F
 -0.333333 -0.266667 -0.133333    0.00029630  72 t-inv F
  0.333333  0.266667  0.133333    0.00029630  72 t-inv F
  0.133333  0.266667  0.333333    0.00029630  72 t-inv F
 -0.133333 -0.266667 -0.333333    0.00029630  72 t-inv F
 -0.266667 -0.133333  0.066667    0.00029630  72 t-inv F
  0.266667  0.133333 -0.066667    0.00029630  72 t-inv F
  0.133333 -0.133333  0.200000    0.00029630  72 t-inv F
 -0.133333  0.133333 -0.200000    0.00029630  72 t-inv F
  0.266667 -0.066667  0.133333    0.00029630  72 t-inv F
 -0.266667  0.066667 -0.133333    0.00029630  72 t-inv F
 -0.133333 -0.200000  0.133333    0.00029630  72 t-inv F
  0.133333  0.200000 -0.133333    0.00029630  72 t-inv F
 -0.133333 -0.333333 -0.266667    0.00029630  72 t-inv F
  0.133333  0.333333  0.266667    0.00029630  72 t-inv F
 -0.333333 -0.066667 -0.200000    0.00029630  72 t-inv F
  0.333333  0.066667  0.200000    0.00029630  72 t-inv F
 -0.200000 -0.333333 -0.066667    0.00029630  72 t-inv F
  0.200000  0.333333  0.066667    0.00029630  72 t-inv F
 -0.066667 -0.200000 -0.333333    0.00029630  72 t-inv F
  0.066667  0.200000  0.333333    0.00029630  72 t-inv F
 -0.400000 -0.200000 -0.066667    0.00029630  73 t-inv F
  0.066667  0.400000  0.200000    0.00029630  73 t-inv F
 -0.066667 -0.400000 -0.200000    0.00029630  73 t-inv F
  0.200000  0.066667  0.400000    0.00029630  73 t-inv F
 -0.200000 -0.066667 -0.400000    0.00029630  73 t-inv F
  0.200000  0.133333 -0.200000    0.00029630  73 t-inv F
 -0.200000 -0.133333  0.200000    0.00029630  73 t-inv F
  0.400000  0.200000  0.333333    0.00029630  73 t-inv F
 -0.400000 -0.200000 -0.333333    0.00029630  73 t-inv F
  0.066667 -0.333333 -0.133333    0.00029630  73 t-inv F
 -0.066667  0.333333  0.133333    0.00029630  73 t-inv F
  0.133333  0.333333 -0.066667    0.00029630  73 t-inv F
 -0.133333 -0.333333  0.066667    0.00029630  73 t-inv F
  0.200000 -0.133333 -0.200000    0.00029630  73 t-inv F
 -0.200000  0.133333  0.200000    0.00029630  73 t-inv F
 -0.333333 -0.200000 -0.400000    0.00029630  73 t-inv F
  0.333333  0.200000  0.400000    0.00029630  73 t-inv F
  0.333333  0.400000  0.200000    0.00029630  73 t-inv F
 -0.333333 -0.400000 -0.200000    0.00029630  73 t-inv F
 -0.133333  0.066667 -0.333333    0.00029630  73 t-inv F
  0.133333 -0.066667  0.333333    0.00029630  73 t-inv F
 -0.200000  0.200000  0.133333    0.00029630  73 t-inv F
  0.200000 -0.200000 -0.133333    0.00029630  73 t-inv F
 -0.066667  0.133333  0.333333    0.00029630  73 t-inv F
  0.066667 -0.133333 -0.333333    0.00029630  73 t-inv F
 -0.200000  0.200000 -0.133333    0.00029630  73 t-inv F
  0.200000 -0.200000  0.133333    0.00029630  73 t-inv F
 -0.400000 -0.333333 -0.200000    0.00029630  73 t-inv F
  0.400000  0.333333  0.200000    0.00029630  73 t-inv F
  0.200000  0.333333  0.400000    0.00029630  73 t-inv F
 -0.200000 -0.333333 -0.400000    0.00029630  73 t-inv F
 -0.333333 -0.133333  0.066667    0.00029630  73 t-inv F
  0.333333  0.133333 -0.066667    0.00029630  73 t-inv F
  0.133333 -0.200000  0.200000    0.00029630  73 t-inv F
 -0.133333  0.200000 -0.200000    0.00029630  73 t-inv F
  0.333333 -0.066667  0.133333    0.00029630  73 t-inv F
 -0.333333  0.066667 -0.133333    0.00029630  73 t-inv F
 -0.133333 -0.200000  0.200000    0.00029630  73 t-inv F
  0.133333  0.200000 -0.200000    0.00029630  73 t-inv F
 -0.200000 -0.400000 -0.333333    0.00029630  73 t-inv F
  0.200000  0.400000  0.333333    0.00029630  73 t-inv F
 -0.400000 -0.066667 -0.200000    0.00029630  73 t-inv F
  0.400000  0.066667  0.200000    0.00029630  73 t-inv F
 -0.200000 -0.400000 -0.066667    0.00029630  73 t-inv F
  0.200000  0.400000  0.066667    0.00029630  73 t-inv F
 -0.066667 -0.200000 -0.400000    0.00029630  73 t-inv F
  0.066667  0.200000  0.400000    0.00029630  73 t-inv F
 -0.466667 -0.200000 -0.066667    0.00029630  74 t-inv F
  0.066667  0.466667  0.200000    0.00029630  74 t-inv F
 -0.066667 -0.466667 -0.200000    0.00029630  74 t-inv F
  0.200000  0.066667  0.466667    0.00029630  74 t-inv F
 -0.200000 -0.066667 -0.466667    0.00029630  74 t-inv F
  0.200000  0.133333 -0.266667    0.00029630  74 t-inv F
 -0.200000 -0.133333  0.266667    0.00029630  74 t-inv F
  0.466667  0.266667  0.400000    0.00029630  74 t-inv F
 -0.466667 -0.266667 -0.400000    0.00029630  74 t-inv F
  0.066667 -0.400000 -0.133333    0.00029630  74 t-inv F
 -0.066667  0.400000  0.133333    0.00029630  74 t-inv F
  0.133333  0.400000 -0.066667    0.00029630  74 t-inv F
 -0.133333 -0.400000  0.066667    0.00029630  74 t-inv F
  0.266667 -0.133333 -0.200000    0.00029630  74 t-inv F
 -0.266667  0.133333  0.200000    0.00029630  74 t-inv F
 -0.400000 -0.266667 -0.466667    0.00029630  74 t-inv F
  0.400000  0.266667  0.466667    0.00029630  74 t-inv F
  0.400000  0.466667  0.266667    0.00029630  74 t-inv F
 -0.400000 -0.466667 -0.266667    0.00029630  74 t-inv F
 -0.133333  0.066667 -0.400000    0.00029630  74 t-inv F
  0.133333 -0.066667  0.400000    0.00029630  74 t-inv F
 -0.266667  0.200000  0.133333    0.00029630  74 t-inv F
  0.266667 -0.200000 -0.133333    0.00029630  74 t-inv F
 -0.066667  0.133333  0.400000    0.00029630  74 t-inv F
  0.066667 -0.133333 -0.400000    0.00029630  74 t-inv F
 -0.200000  0.266667 -0.133333    0.00029630  74 t-inv F
  0.200000 -0.266667  0.133333    0.00029630  74 t-inv F
 -0.466667 -0.400000 -0.266667    0.00029630  74 t-inv F
  0.466667  0.400000  0.266667    0.00029630  74 t-inv F
  0.266667  0.400000  0.466667    0.00029630  74 t-inv F
 -0.266667 -0.400000 -0.466667    0.00029630  74 t-inv F
 -0.400000 -0.133333  0.066667    0.00029630  74 t-inv F
  0.400000  0.133333 -0.066667    0.00029630  74 t-inv F
  0.133333 -0.266667  0.200000    0.00029630  74 t-inv F
 -0.133333  0.266667 -0.200000    0.00029630  74 t-inv F
  0.400000 -0.066667  0.133333    0.00029630  74 t-inv F
 -0.400000  0.066667 -0.133333    0.00029630  74 t-inv F
 -0.133333 -0.200000  0.266667    0.00029630  74 t-inv F
  0.133333  0.200000 -0.266667    0.00029630  74 t-inv F
 -0.266667 -0.466667 -0.400000    0.00029630  74 t-inv F
  0.266667  0.466667  0.400000    0.00029630  74 t-inv F
 -0.466667 -0.066667 -0.200000    0.00029630  74 t-inv F
  0.466667  0.066667  0.200000    0.00029630  74 t-inv F
 -0.200000 -0.466667 -0.066667    0.00029630  74 t-inv F
  0.200000  0.466667  0.066667    0.00029630  74 t-inv F
 -0.066667 -0.200000 -0.466667    0.00029630  74 t-inv F
  0.066667  0.200000  0.466667    0.00029630  74 t-inv F
  0.466667 -0.200000 -0.066667    0.00029630  75 t-inv F
  0.066667 -0.466667  0.200000    0.00029630  75 t-inv F
 -0.066667  0.466667 -0.200000    0.00029630  75 t-inv F
  0.200000  0.066667 -0.466667    0.00029630  75 t-inv F
 -0.200000 -0.066667  0.466667    0.00029630  75 t-inv F
  0.200000  0.133333  0.666667    0.00029630  75 t-inv F
 -0.200000 -0.133333 -0.666667    0.00029630  75 t-inv F
 -0.466667 -0.666667 -0.533333    0.00029630  75 t-inv F
  0.466667  0.666667  0.533333    0.00029630  75 t-inv F
  0.066667  0.533333 -0.133333    0.00029630  75 t-inv F
 -0.066667 -0.533333  0.133333    0.00029630  75 t-inv F
  0.133333 -0.533333 -0.066667    0.00029630  75 t-inv F
 -0.133333  0.533333  0.066667    0.00029630  75 t-inv F
 -0.666667 -0.133333 -0.200000    0.00029630  75 t-inv F
  0.666667  0.133333  0.200000    0.00029630  75 t-inv F
  0.533333  0.666667  0.466667    0.00029630  75 t-inv F
 -0.533333 -0.666667 -0.466667    0.00029630  75 t-inv F
 -0.533333 -0.466667 -0.666667    0.00029630  75 t-inv F
  0.533333  0.466667  0.666667    0.00029630  75 t-inv F
 -0.133333  0.066667  0.533333    0.00029630  75 t-inv F
  0.133333 -0.066667 -0.533333    0.00029630  75 t-inv F
  0.666667  0.200000  0.133333    0.00029630  75 t-inv F
 -0.666667 -0.200000 -0.133333    0.00029630  75 t-inv F
 -0.066667  0.133333 -0.533333    0.00029630  75 t-inv F
  0.066667 -0.133333  0.533333    0.00029630  75 t-inv F
 -0.200000 -0.666667 -0.133333    0.00029630  75 t-inv F
  0.200000  0.666667  0.133333    0.00029630  75 t-inv F
  0.466667  0.533333  0.666667    0.00029630  75 t-inv F
 -0.466667 -0.533333 -0.666667    0.00029630  75 t-inv F
 -0.666667 -0.533333 -0.466667    0.00029630  75 t-inv F
  0.666667  0.533333  0.466667    0.00029630  75 t-inv F
  0.533333 -0.133333  0.066667    0.00029630  75 t-inv F
 -0.533333  0.133333 -0.066667    0.00029630  75 t-inv F
  0.133333  0.666667  0.200000    0.00029630  75 t-inv F
 -0.133333 -0.666667 -0.200000    0.00029630  75 t-inv F
 -0.533333 -0.066667  0.133333    0.00029630  75 t-inv F
  0.533333  0.066667 -0.133333    0.00029630  75 t-inv F
 -0.133333 -0.200000 -0.666667    0.00029630  75 t-inv F
  0.133333  0.200000  0.666667    0.00029630  75 t-inv F
  0.666667  0.466667  0.533333    0.00029630  75 t-inv F
 -0.666667 -0.466667 -0.533333    0.00029630  75 t-inv F
  0.466667 -0.066667 -0.200000    0.00029630  75 t-inv F
 -0.466667  0.066667  0.200000    0.00029630  75 t-inv F
 -0.200000  0.466667 -0.066667    0.00029630  75 t-inv F
  0.200000 -0.466667  0.066667    0.00029630  75 t-inv F
 -0.066667 -0.200000  0.466667    0.00029630  75 t-inv F
  0.066667  0.200000 -0.466667    0.00029630  75 t-inv F
  0.400000 -0.200000 -0.066667    0.00029630  76 t-inv F
  0.066667 -0.400000  0.200000    0.00029630  76 t-inv F
 -0.066667  0.400000 -0.200000    0.00029630  76 t-inv F
  0.200000  0.066667 -0.400000    0.00029630  76 t-inv F
 -0.200000 -0.066667  0.400000    0.00029630  76 t-inv F
  0.200000  0.133333  0.600000    0.00029630  76 t-inv F
 -0.200000 -0.133333 -0.600000    0.00029630  76 t-inv F
 -0.400000 -0.600000 -0.466667    0.00029630  76 t-inv F
  0.400000  0.600000  0.466667    0.00029630  76 t-inv F
  0.066667  0.466667 -0.133333    0.00029630  76 t-inv F
 -0.066667 -0.466667  0.133333    0.00029630  76 t-inv F
  0.133333 -0.466667 -0.066667    0.00029630  76 t-inv F
 -0.133333  0.466667  0.066667    0.00029630  76 t-inv F
 -0.600000 -0.133333 -0.200000    0.00029630  76 t-inv F
  0.600000  0.133333  0.200000    0.00029630  76 t-inv F
  0.466667  0.600000  0.400000    0.00029630  76 t-inv F
 -0.466667 -0.600000 -0.400000    0.00029630  76 t-inv F
 -0.466667 -0.400000 -0.600000    0.00029630  76 t-inv F
  0.466667  0.400000  0.600000    0.00029630  76 t-inv F
 -0.133333  0.066667  0.466667    0.00029630  76 t-inv F
  0.133333 -0.066667 -0.466667    0.00029630  76 t-inv F
  0.600000  0.200000  0.133333    0.00029630  76 t-inv F
 -0.600000 -0.200000 -0.133333    0.00029630  76 t-inv F
 -0.066667  0.133333 -0.466667    0.00029630  76 t-inv F
  0.066667 -0.133333  0.466667    0.00029630  76 t-inv F
 -0.200000 -0.600000 -0.133333    0.00029630  76 t-inv F
  0.200000  0.600000  0.133333    0.00029630  76 t-inv F
  0.400000  0.466667  0.600000    0.00029630  76 t-inv F
 -0.400000 -0.466667 -0.600000    0.00029630  76 t-inv F
 -0.600000 -0.466667 -0.400000    0.00029630  76 t-inv F
  0.600000  0.466667  0.400000    0.00029630  76 t-inv F
  0.466667 -0.133333  0.066667    0.00029630  76 t-inv F
 -0.466667  0.133333 -0.066667    0.00029630  76 t-inv F
  0.133333  0.600000  0.200000    0.00029630  76 t-inv F
 -0.133333 -0.600000 -0.200000    0.00029630  76 t-inv F
 -0.466667 -0.066667  0.133333    0.00029630  76 t-inv F
  0.466667  0.066667 -0.133333    0.00029630  76 t-inv F
 -0.133333 -0.200000 -0.600000    0.00029630  76 t-inv F
  0.133333  0.200000  0.600000    0.00029630  76 t-inv F
  0.600000  0.400000  0.466667    0.00029630  76 t-inv F
 -0.600000 -0.400000 -0.466667    0.00029630  76 t-inv F
  0.400000 -0.066667 -0.200000    0.00029630  76 t-inv F
 -0.400000  0.066667  0.200000    0.00029630  76 t-inv F
 -0.200000  0.400000 -0.066667    0.00029630  76 t-inv F
  0.200000 -0.400000  0.066667    0.00029630  76 t-inv F
 -0.066667 -0.200000  0.400000    0.00029630  76 t-inv F
  0.066667  0.200000 -0.400000    0.00029630  76 t-inv F
  0.333333 -0.200000 -0.066667    0.00029630  77 t-inv F
  0.066667 -0.333333  0.200000    0.00029630  77 t-inv F
 -0.066667  0.333333 -0.200000    0.00029630  77 t-inv F
  0.200000  0.066667 -0.333333    0.00029630  77 t-inv F
 -0.200000 -0.066667  0.333333    0.00029630  77 t-inv F
  0.200000  0.133333  0.533333    0.00029630  77 t-inv F
 -0.200000 -0.133333 -0.533333    0.00029630  77 t-inv F
 -0.333333 -0.533333 -0.400000    0.00029630  77 t-inv F
  0.333333  0.533333  0.400000    0.00029630  77 t-inv F
  0.066667  0.400000 -0.133333    0.00029630  77 t-inv F
 -0.066667 -0.400000  0.133333    0.00029630  77 t-inv F
  0.133333 -0.400000 -0.066667    0.00029630  77 t-inv F
 -0.133333  0.400000  0.066667    0.00029630  77 t-inv F
 -0.533333 -0.133333 -0.200000    0.00029630  77 t-inv F
  0.533333  0.133333  0.200000    0.00029630  77 t-inv F
  0.400000  0.533333  0.333333    0.00029630  77 t-inv F
 -0.400000 -0.533333 -0.333333    0.00029630  77 t-inv F
 -0.400000 -0.333333 -0.533333    0.00029630  77 t-inv F
  0.400000  0.333333  0.533333    0.00029630  77 t-inv F
 -0.133333  0.066667  0.400000    0.00029630  77 t-inv F
  0.133333 -0.066667 -0.400000    0.00029630  77 t-inv F
  0.533333  0.200000  0.133333    0.00029630  77 t-inv F
 -0.533333 -0.200000 -0.133333    0.00029630  77 t-inv F
 -0.066667  0.133333 -0.400000    0.00029630  77 t-inv F
  0.066667 -0.133333  0.400000    0.00029630  77 t-inv F
 -0.200000 -0.533333 -0.133333    0.00029630  77 t-inv F
  0.200000  0.533333  0.133333    0.00029630  77 t-inv F
  0.333333  0.400000  0.533333    0.00029630  77 t-inv F
 -0.333333 -0.400000 -0.533333    0.00029630  77 t-inv F
 -0.533333 -0.400000 -0.333333    0.00029630  77 t-inv F
  0.533333  0.400000  0.333333    0.00029630  77 t-inv F
  0.400000 -0.133333  0.066667    0.00029630  77 t-inv F
 -0.400000  0.133333 -0.066667    0.00029630  77 t-inv F
  0.133333  0.533333  0.200000    0.00029630  77 t-inv F
 -0.133333 -0.533333 -0.200000    0.00029630  77 t-inv F
 -0.400000 -0.066667  0.133333    0.00029630  77 t-inv F
  0.400000  0.066667 -0.133333    0.00029630  77 t-inv F
 -0.133333 -0.200000 -0.533333    0.00029630  77 t-inv F
  0.133333  0.200000  0.533333    0.00029630  77 t-inv F
  0.533333  0.333333  0.400000    0.00029630  77 t-inv F
 -0.533333 -0.333333 -0.400000    0.00029630  77 t-inv F
  0.333333 -0.066667 -0.200000    0.00029630  77 t-inv F
 -0.333333  0.066667  0.200000    0.00029630  77 t-inv F
 -0.200000  0.333333 -0.066667    0.00029630  77 t-inv F
  0.200000 -0.333333  0.066667    0.00029630  77 t-inv F
 -0.066667 -0.200000  0.333333    0.00029630  77 t-inv F
  0.066667  0.200000 -0.333333    0.00029630  77 t-inv F
  0.266667 -0.200000 -0.066667    0.00029630  78 t-inv F
  0.066667 -0.266667  0.200000    0.00029630  78 t-inv F
 -0.066667  0.266667 -0.200000    0.00029630  78 t-inv F
  0.200000  0.066667 -0.266667    0.00029630  78 t-inv F
 -0.200000 -0.066667  0.266667    0.00029630  78 t-inv F
  0.200000  0.133333  0.466667    0.00029630  78 t-inv F
 -0.200000 -0.133333 -0.466667    0.00029630  78 t-inv F
 -0.266667 -0.466667 -0.333333    0.00029630  78 t-inv F
  0.266667  0.466667  0.333333    0.00029630  78 t-inv F
  0.066667  0.333333 -0.133333    0.00029630  78 t-inv F
 -0.066667 -0.333333  0.133333    0.00029630  78 t-inv F
  0.133333 -0.333333 -0.066667    0.00029630  78 t-inv F
 -0.133333  0.333333  0.066667    0.00029630  78 t-inv F
 -0.466667 -0.133333 -0.200000    0.00029630  78 t-inv F
  0.466667  0.133333  0.200000    0.00029630  78 t-inv F
  0.333333  0.466667  0.266667    0.00029630  78 t-inv F
 -0.333333 -0.466667 -0.266667    0.00029630  78 t-inv F
 -0.333333 -0.266667 -0.466667    0.00029630  78 t-inv F
  0.333333  0.266667  0.466667    0.00029630  78 t-inv F
 -0.133333  0.066667  0.333333    0.00029630  78 t-inv F
  0.133333 -0.066667 -0.333333    0.00029630  78 t-inv F
  0.466667  0.200000  0.133333    0.00029630  78 t-inv F
 -0.466667 -0.200000 -0.133333    0.00029630  78 t-inv F
 -0.066667  0.133333 -0.333333    0.00029630  78 t-inv F
  0.066667 -0.133333  0.333333    0.00029630  78 t-inv F
 -0.200000 -0.466667 -0.133333    0.00029630  78 t-inv F
  0.200000  0.466667  0.133333    0.00029630  78 t-inv F
  0.266667  0.333333  0.466667    0.00029630  78 t-inv F
 -0.266667 -0.333333 -0.466667    0.00029630  78 t-inv F
 -0.466667 -0.333333 -0.266667    0.00029630  78 t-inv F
  0.466667  0.333333  0.266667    0.00029630  78 t-inv F
  0.333333 -0.133333  0.066667    0.00029630  78 t-inv F
 -0.333333  0.133333 -0.066667    0.00029630  78 t-inv F
  0.133333  0.466667  0.200000    0.00029630  78 t-inv F
 -0.133333 -0.466667 -0.200000    0.00029630  78 t-inv F
 -0.333333 -0.066667  0.133333    0.00029630  78 t-inv F
  0.333333  0.066667 -0.133333    0.00029630  78 t-inv F
 -0.133333 -0.200000 -0.466667    0.00029630  78 t-inv F
  0.133333  0.200000  0.466667    0.00029630  78 t-inv F
  0.466667  0.266667  0.333333    0.00029630  78 t-inv F
 -0.466667 -0.266667 -0.333333    0.00029630  78 t-inv F
  0.266667 -0.066667 -0.200000    0.00029630  78 t-inv F
 -0.266667  0.066667  0.200000    0.00029630  78 t-inv F
 -0.200000  0.266667 -0.066667    0.00029630  78 t-inv F
  0.200000 -0.266667  0.066667    0.00029630  78 t-inv F
 -0.066667 -0.200000  0.266667    0.00029630  78 t-inv F
  0.066667  0.200000 -0.266667    0.00029630  78 t-inv F
  0.200000 -0.200000 -0.066667    0.00029630  79 t-inv F
  0.066667 -0.200000  0.200000    0.00029630  79 t-inv F
 -0.066667  0.200000 -0.200000    0.00029630  79 t-inv F
  0.200000  0.066667 -0.200000    0.00029630  79 t-inv F
 -0.200000 -0.066667  0.200000    0.00029630  79 t-inv F
  0.200000  0.133333  0.400000    0.00029630  79 t-inv F
 -0.200000 -0.133333 -0.400000    0.00029630  79 t-inv F
 -0.200000 -0.400000 -0.266667    0.00029630  79 t-inv F
  0.200000  0.400000  0.266667    0.00029630  79 t-inv F
  0.066667  0.266667 -0.133333    0.00029630  79 t-inv F
 -0.066667 -0.266667  0.133333    0.00029630  79 t-inv F
  0.133333 -0.266667 -0.066667    0.00029630  79 t-inv F
 -0.133333  0.266667  0.066667    0.00029630  79 t-inv F
 -0.400000 -0.133333 -0.200000    0.00029630  79 t-inv F
  0.400000  0.133333  0.200000    0.00029630  79 t-inv F
  0.266667  0.400000  0.200000    0.00029630  79 t-inv F
 -0.266667 -0.400000 -0.200000    0.00029630  79 t-inv F
 -0.266667 -0.200000 -0.400000    0.00029630  79 t-inv F
  0.266667  0.200000  0.400000    0.00029630  79 t-inv F
 -0.133333  0.066667  0.266667    0.00029630  79 t-inv F
  0.133333 -0.066667 -0.266667    0.00029630  79 t-inv F
  0.400000  0.200000  0.133333    0.00029630  79 t-inv F
 -0.400000 -0.200000 -0.133333    0.00029630  79 t-inv F
 -0.066667  0.133333 -0.266667    0.00029630  79 t-inv F
  0.066667 -0.133333  0.266667    0.00029630  79 t-inv F
 -0.200000 -0.400000 -0.133333    0.00029630  79 t-inv F
  0.200000  0.400000  0.133333    0.00029630  79 t-inv F
  0.200000  0.266667  0.400000    0.00029630  79 t-inv F
 -0.200000 -0.266667 -0.400000    0.00029630  79 t-inv F
 -0.400000 -0.266667 -0.200000    0.00029630  79 t-inv F
  0.400000  0.266667  0.200000    0.00029630  79 t-inv F
  0.266667 -0.133333  0.066667    0.00029630  79 t-inv F
 -0.266667  0.133333 -0.066667    0.00029630  79 t-inv F
  0.133333  0.400000  0.200000    0.00029630  79 t-inv F
 -0.133333 -0.400000 -0.200000    0.00029630  79 t-inv F
 -0.266667 -0.066667  0.133333    0.00029630  79 t-inv F
  0.266667  0.066667 -0.133333    0.00029630  79 t-inv F
 -0.133333 -0.200000 -0.400000    0.00029630  79 t-inv F
  0.133333  0.200000  0.400000    0.00029630  79 t-inv F
  0.400000  0.200000  0.266667    0.00029630  79 t-inv F
 -0.400000 -0.200000 -0.266667    0.00029630  79 t-inv F
  0.200000 -0.066667 -0.200000    0.00029630  79 t-inv F
 -0.200000  0.066667  0.200000    0.00029630  79 t-inv F
 -0.200000  0.200000 -0.066667    0.00029630  79 t-inv F
  0.200000 -0.200000  0.066667    0.00029630  79 t-inv F
 -0.066667 -0.200000  0.200000    0.00029630  79 t-inv F
  0.066667  0.200000 -0.200000    0.00029630  79 t-inv F
  0.133333 -0.200000 -0.066667    0.00029630  80 t-inv F
  0.066667 -0.133333  0.200000    0.00029630  80 t-inv F
 -0.066667  0.133333 -0.200000    0.00029630  80 t-inv F
  0.200000  0.066667 -0.133333    0.00029630  80 t-inv F
 -0.200000 -0.066667  0.133333    0.00029630  80 t-inv F
  0.200000  0.133333  0.333333    0.00029630  80 t-inv F
 -0.200000 -0.133333 -0.333333    0.00029630  80 t-inv F
 -0.133333 -0.333333 -0.200000    0.00029630  80 t-inv F
  0.133333  0.333333  0.200000    0.00029630  80 t-inv F
  0.066667  0.200000 -0.133333    0.00029630  80 t-inv F
 -0.066667 -0.200000  0.133333    0.00029630  80 t-inv F
 -0.333333 -0.133333 -0.200000    0.00029630  80 t-inv F
  0.333333  0.133333  0.200000    0.00029630  80 t-inv F
  0.200000  0.333333  0.133333    0.00029630  80 t-inv F
 -0.200000 -0.333333 -0.133333    0.00029630  80 t-inv F
 -0.133333  0.066667  0.200000    0.00029630  80 t-inv F
  0.133333 -0.066667 -0.200000    0.00029630  80 t-inv F
  0.333333  0.200000  0.133333    0.00029630  80 t-inv F
 -0.333333 -0.200000 -0.133333    0.00029630  80 t-inv F
  0.133333  0.200000  0.333333    0.00029630  80 t-inv F
 -0.133333 -0.200000 -0.333333    0.00029630  80 t-inv F
  0.200000 -0.133333  0.066667    0.00029630  80 t-inv F
 -0.200000  0.133333 -0.066667    0.00029630  80 t-inv F
 -0.333333 -0.266667 -0.066667    0.00029630  81 t-inv F
  0.066667  0.333333  0.266667    0.00029630  81 t-inv F
 -0.066667 -0.333333 -0.266667    0.00029630  81 t-inv F
  0.266667  0.066667  0.333333    0.00029630  81 t-inv F
 -0.266667 -0.066667 -0.333333    0.00029630  81 t-inv F
  0.266667  0.200000 -0.066667    0.00029630  81 t-inv F
 -0.266667 -0.200000  0.066667    0.00029630  81 t-inv F
  0.333333  0.066667  0.266667    0.00029630  81 t-inv F
 -0.333333 -0.066667 -0.266667    0.00029630  81 t-inv F
  0.066667 -0.266667 -0.200000    0.00029630  81 t-inv F
 -0.066667  0.266667  0.200000    0.00029630  81 t-inv F
  0.200000  0.266667 -0.066667    0.00029630  81 t-inv F
 -0.200000 -0.266667  0.066667    0.00029630  81 t-inv F
  0.066667 -0.200000 -0.266667    0.00029630  81 t-inv F
 -0.066667  0.200000  0.266667    0.00029630  81 t-inv F
  0.266667  0.333333  0.066667    0.00029630  81 t-inv F
 -0.266667 -0.333333 -0.066667    0.00029630  81 t-inv F
 -0.200000  0.066667 -0.266667    0.00029630  81 t-inv F
  0.200000 -0.066667  0.266667    0.00029630  81 t-inv F
 -0.266667  0.066667 -0.200000    0.00029630  81 t-inv F
  0.266667 -0.066667  0.200000    0.00029630  81 t-inv F
  0.066667  0.266667  0.333333    0.00029630  81 t-inv F
 -0.066667 -0.266667 -0.333333    0.00029630  81 t-inv F
 -0.400000 -0.266667 -0.066667    0.00029630  82 t-inv F
  0.066667  0.400000  0.266667    0.00029630  82 t-inv F
 -0.066667 -0.400000 -0.266667    0.00029630  82 t-inv F
  0.266667  0.066667  0.400000    0.00029630  82 t-inv F
 -0.266667 -0.066667 -0.400000    0.00029630  82 t-inv F
  0.266667  0.200000 -0.133333    0.00029630  82 t-inv F
 -0.266667 -0.200000  0.133333    0.00029630  82 t-inv F
  0.400000  0.133333  0.333333    0.00029630  82 t-inv F
 -0.400000 -0.133333 -0.333333    0.00029630  82 t-inv F
  0.066667 -0.333333 -0.200000    0.00029630  82 t-inv F
 -0.066667  0.333333  0.200000    0.00029630  82 t-inv F
  0.200000  0.333333 -0.066667    0.00029630  82 t-inv F
 -0.200000 -0.333333  0.066667    0.00029630  82 t-inv F
  0.133333 -0.200000 -0.266667    0.00029630  82 t-inv F
 -0.133333  0.200000  0.266667    0.00029630  82 t-inv F
 -0.333333 -0.133333 -0.400000    0.00029630  82 t-inv F
  0.333333  0.133333  0.400000    0.00029630  82 t-inv F
  0.333333  0.400000  0.133333    0.00029630  82 t-inv F
 -0.333333 -0.400000 -0.133333    0.00029630  82 t-inv F
 -0.200000  0.066667 -0.333333    0.00029630  82 t-inv F
  0.200000 -0.066667  0.333333    0.00029630  82 t-inv F
 -0.133333  0.266667  0.200000    0.00029630  82 t-inv F
  0.133333 -0.266667 -0.200000    0.00029630  82 t-inv F
 -0.066667  0.200000  0.333333    0.00029630  82 t-inv F
  0.066667 -0.200000 -0.333333    0.00029630  82 t-inv F
 -0.266667  0.133333 -0.200000    0.00029630  82 t-inv F
  0.266667 -0.133333  0.200000    0.00029630  82 t-inv F
 -0.400000 -0.333333 -0.133333    0.00029630  82 t-inv F
  0.400000  0.333333  0.133333    0.00029630  82 t-inv F
  0.133333  0.333333  0.400000    0.00029630  82 t-inv F
 -0.133333 -0.333333 -0.400000    0.00029630  82 t-inv F
 -0.333333 -0.200000  0.066667    0.00029630  82 t-inv F
  0.333333  0.200000 -0.066667    0.00029630  82 t-inv F
  0.200000 -0.133333  0.266667    0.00029630  82 t-inv F
 -0.200000  0.133333 -0.266667    0.00029630  82 t-inv F
  0.333333 -0.066667  0.200000    0.00029630  82 t-inv F
 -0.333333  0.066667 -0.200000    0.00029630  82 t-inv F
 -0.200000 -0.266667  0.133333    0.00029630  82 t-inv F
  0.200000  0.266667 -0.133333    0.00029630  82 t-inv F
 -0.133333 -0.400000 -0.333333    0.00029630  82 t-inv F
  0.133333  0.400000  0.333333    0.00029630  82 t-inv F
 -0.400000 -0.066667 -0.266667    0.00029630  82 t-inv F
  0.400000  0.066667  0.266667    0.00029630  82 t-inv F
 -0.266667 -0.400000 -0.066667    0.00029630  82 t-inv F
  0.266667  0.400000  0.066667    0.00029630  82 t-inv F
 -0.066667 -0.266667 -0.400000    0.00029630  82 t-inv F
  0.066667  0.266667  0.400000    0.00029630  82 t-inv F
 -0.466667 -0.266667 -0.066667    0.00029630  83 t-inv F
  0.066667  0.466667  0.266667    0.00029630  83 t-inv F
 -0.066667 -0.466667 -0.266667    0.00029630  83 t-inv F
  0.266667  0.066667  0.466667    0.00029630  83 t-inv F
 -0.266667 -0.066667 -0.466667    0.00029630  83 t-inv F
  0.266667  0.200000 -0.200000    0.00029630  83 t-inv F
 -0.266667 -0.200000  0.200000    0.00029630  83 t-inv F
  0.466667  0.200000  0.400000    0.00029630  83 t-inv F
 -0.466667 -0.200000 -0.400000    0.00029630  83 t-inv F
  0.066667 -0.400000 -0.200000    0.00029630  83 t-inv F
 -0.066667  0.400000  0.200000    0.00029630  83 t-inv F
  0.200000  0.400000 -0.066667    0.00029630  83 t-inv F
 -0.200000 -0.400000  0.066667    0.00029630  83 t-inv F
  0.200000 -0.200000 -0.266667    0.00029630  83 t-inv F
 -0.200000  0.200000  0.266667    0.00029630  83 t-inv F
 -0.400000 -0.200000 -0.466667    0.00029630  83 t-inv F
  0.400000  0.200000  0.466667    0.00029630  83 t-inv F
  0.400000  0.466667  0.200000    0.00029630  83 t-inv F
 -0.400000 -0.466667 -0.200000    0.00029630  83 t-inv F
 -0.200000  0.066667 -0.400000    0.00029630  83 t-inv F
  0.200000 -0.066667  0.400000    0.00029630  83 t-inv F
 -0.200000  0.266667  0.200000    0.00029630  83 t-inv F
  0.200000 -0.266667 -0.200000    0.00029630  83 t-inv F
 -0.066667  0.200000  0.400000    0.00029630  83 t-inv F
  0.066667 -0.200000 -0.400000    0.00029630  83 t-inv F
 -0.266667  0.200000 -0.200000    0.00029630  83 t-inv F
  0.266667 -0.200000  0.200000    0.00029630  83 t-inv F
 -0.466667 -0.400000 -0.200000    0.00029630  83 t-inv F
  0.466667  0.400000  0.200000    0.00029630  83 t-inv F
  0.200000  0.400000  0.466667    0.00029630  83 t-inv F
 -0.200000 -0.400000 -0.466667    0.00029630  83 t-inv F
 -0.400000 -0.200000  0.066667    0.00029630  83 t-inv F
  0.400000  0.200000 -0.066667    0.00029630  83 t-inv F
  0.200000 -0.200000  0.266667    0.00029630  83 t-inv F
 -0.200000  0.200000 -0.266667    0.00029630  83 t-inv F
  0.400000 -0.066667  0.200000    0.00029630  83 t-inv F
 -0.400000  0.066667 -0.200000    0.00029630  83 t-inv F
 -0.200000 -0.266667  0.200000    0.00029630  83 t-inv F
  0.200000  0.266667 -0.200000    0.00029630  83 t-inv F
 -0.200000 -0.466667 -0.400000    0.00029630  83 t-inv F
  0.200000  0.466667  0.400000    0.00029630  83 t-inv F
 -0.466667 -0.066667 -0.266667    0.00029630  83 t-inv F
  0.466667  0.066667  0.266667    0.00029630  83 t-inv F
 -0.266667 -0.466667 -0.066667    0.00029630  83 t-inv F
  0.266667  0.466667  0.066667    0.00029630  83 t-inv F
 -0.066667 -0.266667 -0.466667    0.00029630  83 t-inv F
  0.066667  0.266667  0.466667    0.00029630  83 t-inv F
  0.466667 -0.266667 -0.066667    0.00029630  84 t-inv F
  0.066667 -0.466667  0.266667    0.00029630  84 t-inv F
 -0.066667  0.466667 -0.266667    0.00029630  84 t-inv F
  0.266667  0.066667 -0.466667    0.00029630  84 t-inv F
 -0.266667 -0.066667  0.466667    0.00029630  84 t-inv F
  0.266667  0.200000  0.733333    0.00029630  84 t-inv F
 -0.266667 -0.200000 -0.733333    0.00029630  84 t-inv F
 -0.466667 -0.733333 -0.533333    0.00029630  84 t-inv F
  0.466667  0.733333  0.533333    0.00029630  84 t-inv F
  0.066667  0.533333 -0.200000    0.00029630  84 t-inv F
 -0.066667 -0.533333  0.200000    0.00029630  84 t-inv F
  0.200000 -0.533333 -0.066667    0.00029630  84 t-inv F
 -0.200000  0.533333  0.066667    0.00029630  84 t-inv F
 -0.733333 -0.200000 -0.266667    0.00029630  84 t-inv F
  0.733333  0.200000  0.266667    0.00029630  84 t-inv F
  0.533333  0.733333  0.466667    0.00029630  84 t-inv F
 -0.533333 -0.733333 -0.466667    0.00029630  84 t-inv F
 -0.533333 -0.466667 -0.733333    0.00029630  84 t-inv F
  0.533333  0.466667  0.733333    0.00029630  84 t-inv F
 -0.200000  0.066667  0.533333    0.00029630  84 t-inv F
  0.200000 -0.066667 -0.533333    0.00029630  84 t-inv F
  0.733333  0.266667  0.200000    0.00029630  84 t-inv F
 -0.733333 -0.266667 -0.200000    0.00029630  84 t-inv F
 -0.066667  0.200000 -0.533333    0.00029630  84 t-inv F
  0.066667 -0.200000  0.533333    0.00029630  84 t-inv F
 -0.266667 -0.733333 -0.200000    0.00029630  84 t-inv F
  0.266667  0.733333  0.200000    0.00029630  84 t-inv F
  0.466667  0.533333  0.733333    0.00029630  84 t-inv F
 -0.466667 -0.533333 -0.733333    0.00029630  84 t-inv F
 -0.733333 -0.533333 -0.466667    0.00029630  84 t-inv F
  0.733333  0.533333  0.466667    0.00029630  84 t-inv F
  0.533333 -0.200000  0.066667    0.00029630  84 t-inv F
 -0.533333  0.200000 -0.066667    0.00029630  84 t-inv F
  0.200000  0.733333  0.266667    0.00029630  84 t-inv F
 -0.200000 -0.733333 -0.266667    0.00029630  84 t-inv F
 -0.533333 -0.066667  0.200000    0.00029630  84 t-inv F
  0.533333  0.066667 -0.200000    0.00029630  84 t-inv F
 -0.200000 -0.266667 -0.733333    0.00029630  84 t-inv F
  0.200000  0.266667  0.733333    0.00029630  84 t-inv F
  0.733333  0.466667  0.533333    0.00029630  84 t-inv F
 -0.733333 -0.466667 -0.533333    0.00029630  84 t-inv F
  0.466667 -0.066667 -0.266667    0.00029630  84 t-inv F
 -0.466667  0.066667  0.266667    0.00029630  84 t-inv F
 -0.266667  0.466667 -0.066667    0.00029630  84 t-inv F
  0.266667 -0.466667  0.066667    0.00029630  84 t-inv F
 -0.066667 -0.266667  0.466667    0.00029630  84 t-inv F
  0.066667  0.266667 -0.466667    0.00029630  84 t-inv F
  0.400000 -0.266667 -0.066667    0.00029630  85 t-inv F
  0.066667 -0.400000  0.266667    0.00029630  85 t-inv F
 -0.066667  0.400000 -0.266667    0.00029630  85 t-inv F
  0.266667  0.066667 -0.400000    0.00029630  85 t-inv F
 -0.266667 -0.066667  0.400000    0.00029630  85 t-inv F
  0.266667  0.200000  0.666667    0.00029630  85 t-inv F
 -0.266667 -0.200000 -0.666667    0.00029630  85 t-inv F
 -0.400000 -0.666667 -0.466667    0.00029630  85 t-inv F
  0.400000  0.666667  0.466667    0.00029630  85 t-inv F
  0.066667  0.466667 -0.200000    0.00029630  85 t-inv F
 -0.066667 -0.466667  0.200000    0.00029630  85 t-inv F
  0.200000 -0.466667 -0.066667    0.00029630  85 t-inv F
 -0.200000  0.466667  0.066667    0.00029630  85 t-inv F
 -0.666667 -0.200000 -0.266667    0.00029630  85 t-inv F
  0.666667  0.200000  0.266667    0.00029630  85 t-inv F
  0.466667  0.666667  0.400000    0.00029630  85 t-inv F
 -0.466667 -0.666667 -0.400000    0.00029630  85 t-inv F
 -0.466667 -0.400000 -0.666667    0.00029630  85 t-inv F
  0.466667  0.400000  0.666667    0.00029630  85 t-inv F
 -0.200000  0.066667  0.466667    0.00029630  85 t-inv F
  0.200000 -0.066667 -0.466667    0.00029630  85 t-inv F
  0.666667  0.266667  0.200000    0.00029630  85 t-inv F
 -0.666667 -0.266667 -0.200000    0.00029630  85 t-inv F
 -0.066667  0.200000 -0.466667    0.00029630  85 t-inv F
  0.066667 -0.200000  0.466667    0.00029630  85 t-inv F
 -0.266667 -0.666667 -0.200000    0.00029630  85 t-inv F
  0.266667  0.666667  0.200000    0.00029630  85 t-inv F
  0.400000  0.466667  0.666667    0.00029630  85 t-inv F
 -0.400000 -0.466667 -0.666667    0.00029630  85 t-inv F
 -0.666667 -0.466667 -0.400000    0.00029630  85 t-inv F
  0.666667  0.466667  0.400000    0.00029630  85 t-inv F
  0.466667 -0.200000  0.066667    0.00029630  85 t-inv F
 -0.466667  0.200000 -0.066667    0.00029630  85 t-inv F
  0.200000  0.666667  0.266667    0.00029630  85 t-inv F
 -0.200000 -0.666667 -0.266667    0.00029630  85 t-inv F
 -0.466667 -0.066667  0.200000    0.00029630  85 t-inv F
  0.466667  0.066667 -0.200000    0.00029630  85 t-inv F
 -0.200000 -0.266667 -0.666667    0.00029630  85 t-inv F
  0.200000  0.266667  0.666667    0.00029630  85 t-inv F
  0.666667  0.400000  0.466667    0.00029630  85 t-inv F
 -0.666667 -0.400000 -0.466667    0.00029630  85 t-inv F
  0.400000 -0.066667 -0.266667    0.00029630  85 t-inv F
 -0.400000  0.066667  0.266667    0.00029630  85 t-inv F
 -0.266667  0.400000 -0.066667    0.00029630  85 t-inv F
  0.266667 -0.400000  0.066667    0.00029630  85 t-inv F
 -0.066667 -0.266667  0.400000    0.00029630  85 t-inv F
  0.066667  0.266667 -0.400000    0.00029630  85 t-inv F
  0.333333 -0.266667 -0.066667    0.00029630  86 t-inv F
  0.066667 -0.333333  0.266667    0.00029630  86 t-inv F
 -0.066667  0.333333 -0.266667    0.00029630  86 t-inv F
  0.266667  0.066667 -0.333333    0.00029630  86 t-inv F
 -0.266667 -0.066667  0.333333    0.00029630  86 t-inv F
  0.266667  0.200000  0.600000    0.00029630  86 t-inv F
 -0.266667 -0.200000 -0.600000    0.00029630  86 t-inv F
 -0.333333 -0.600000 -0.400000    0.00029630  86 t-inv F
  0.333333  0.600000  0.400000    0.00029630  86 t-inv F
  0.066667  0.400000 -0.200000    0.00029630  86 t-inv F
 -0.066667 -0.400000  0.200000    0.00029630  86 t-inv F
  0.200000 -0.400000 -0.066667    0.00029630  86 t-inv F
 -0.200000  0.400000  0.066667    0.00029630  86 t-inv F
 -0.600000 -0.200000 -0.266667    0.00029630  86 t-inv F
  0.600000  0.200000  0.266667    0.00029630  86 t-inv F
  0.400000  0.600000  0.333333    0.00029630  86 t-inv F
 -0.400000 -0.600000 -0.333333    0.00029630  86 t-inv F
 -0.400000 -0.333333 -0.600000    0.00029630  86 t-inv F
  0.400000  0.333333  0.600000    0.00029630  86 t-inv F
 -0.200000  0.066667  0.400000    0.00029630  86 t-inv F
  0.200000 -0.066667 -0.400000    0.00029630  86 t-inv F
  0.600000  0.266667  0.200000    0.00029630  86 t-inv F
 -0.600000 -0.266667 -0.200000    0.00029630  86 t-inv F
 -0.066667  0.200000 -0.400000    0.00029630  86 t-inv F
  0.066667 -0.200000  0.400000    0.00029630  86 t-inv F
 -0.266667 -0.600000 -0.200000    0.00029630  86 t-inv F
  0.266667  0.600000  0.200000    0.00029630  86 t-inv F
  0.333333  0.400000  0.600000    0.00029630  86 t-inv F
 -0.333333 -0.400000 -0.600000    0.00029630  86 t-inv F
 -0.600000 -0.400000 -0.333333    0.00029630  86 t-inv F
  0.600000  0.400000  0.333333    0.00029630  86 t-inv F
  0.400000 -0.200000  0.066667    0.00029630  86 t-inv F
 -0.400000  0.200000 -0.066667    0.00029630  86 t-inv F
  0.200000  0.600000  0.266667    0.00029630  86 t-inv F
 -0.200000 -0.600000 -0.266667    0.00029630  86 t-inv F
 -0.400000 -0.066667  0.200000    0.00029630  86 t-inv F
  0.400000  0.066667 -0.200000    0.00029630  86 t-inv F
 -0.200000 -0.266667 -0.600000    0.00029630  86 t-inv F
  0.200000  0.266667  0.600000    0.00029630  86 t-inv F
  0.600000  0.333333  0.400000    0.00029630  86 t-inv F
 -0.600000 -0.333333 -0.400000    0.00029630  86 t-inv F
  0.333333 -0.066667 -0.266667    0.00029630  86 t-inv F
 -0.333333  0.066667  0.266667    0.00029630  86 t-inv F
 -0.266667  0.333333 -0.066667    0.00029630  86 t-inv F
  0.266667 -0.333333  0.066667    0.00029630  86 t-inv F
 -0.066667 -0.266667  0.333333    0.00029630  86 t-inv F
  0.066667  0.266667 -0.333333    0.00029630  86 t-inv F
  0.266667 -0.266667 -0.066667    0.00029630  87 t-inv F
  0.066667 -0.266667  0.266667    0.00029630  87 t-inv F
 -0.066667  0.266667 -0.266667    0.00029630  87 t-inv F
  0.266667  0.066667 -0.266667    0.00029630  87 t-inv F
 -0.266667 -0.066667  0.266667    0.00029630  87 t-inv F
  0.266667  0.200000  0.533333    0.00029630  87 t-inv F
 -0.266667 -0.200000 -0.533333    0.00029630  87 t-inv F
 -0.266667 -0.533333 -0.333333    0.00029630  87 t-inv F
  0.266667  0.533333  0.333333    0.00029630  87 t-inv F
  0.066667  0.333333 -0.200000    0.00029630  87 t-inv F
 -0.066667 -0.333333  0.200000    0.00029630  87 t-inv F
  0.200000 -0.333333 -0.066667    0.00029630  87 t-inv F
 -0.200000  0.333333  0.066667    0.00029630  87 t-inv F
 -0.533333 -0.200000 -0.266667    0.00029630  87 t-inv F
  0.533333  0.200000  0.266667    0.00029630  87 t-inv F
  0.333333  0.533333  0.266667    0.00029630  87 t-inv F
 -0.333333 -0.533333 -0.266667    0.00029630  87 t-inv F
 -0.333333 -0.266667 -0.533333    0.00029630  87 t-inv F
  0.333333  0.266667  0.533333    0.00029630  87 t-inv F
 -0.200000  0.066667  0.333333    0.00029630  87 t-inv F
  0.200000 -0.066667 -0.333333    0.00029630  87 t-inv F
  0.533333  0.266667  0.200000    0.00029630  87 t-inv F
 -0.533333 -0.266667 -0.200000    0.00029630  87 t-inv F
 -0.066667  0.200000 -0.333333    0.00029630  87 t-inv F
  0.066667 -0.200000  0.333333    0.00029630  87 t-inv F
 -0.266667 -0.533333 -0.200000    0.00029630  87 t-inv F
  0.266667  0.533333  0.200000    0.00029630  87 t-inv F
  0.266667  0.333333  0.533333    0.00029630  87 t-inv F
 -0.266667 -0.333333 -0.533333    0.00029630  87 t-inv F
 -0.533333 -0.333333 -0.266667    0.00029630  87 t-inv F
  0.533333  0.333333  0.266667    0.00029630  87 t-inv F
  0.333333 -0.200000  0.066667    0.00029630  87 t-inv F
 -0.333333  0.200000 -0.066667    0.00029630  87 t-inv F
  0.200000  0.533333  0.266667    0.00029630  87 t-inv F
 -0.200000 -0.533333 -0.266667    0.00029630  87 t-inv F
 -0.333333 -0.066667  0.200000    0.00029630  87 t-inv F
  0.333333  0.066667 -0.200000    0.00029630  87 t-inv F
 -0.200000 -0.266667 -0.533333    0.00029630  87 t-inv F
  0.200000  0.266667  0.533333    0.00029630  87 t-inv F
  0.533333  0.266667  0.333333    0.00029630  87 t-inv F
 -0.533333 -0.266667 -0.333333    0.00029630  87 t-inv F
  0.266667 -0.066667 -0.266667    0.00029630  87 t-inv F
 -0.266667  0.066667  0.266667    0.00029630  87 t-inv F
 -0.266667  0.266667 -0.066667    0.00029630  87 t-inv F
  0.266667 -0.266667  0.066667    0.00029630  87 t-inv F
 -0.066667 -0.266667  0.266667    0.00029630  87 t-inv F
  0.066667  0.266667 -0.266667    0.00029630  87 t-inv F
  0.200000 -0.266667 -0.066667    0.00029630  88 t-inv F
  0.066667 -0.200000  0.266667    0.00029630  88 t-inv F
 -0.066667  0.200000 -0.266667    0.00029630  88 t-inv F
  0.266667  0.066667 -0.200000    0.00029630  88 t-inv F
 -0.266667 -0.066667  0.200000    0.00029630  88 t-inv F
  0.266667  0.200000  0.466667    0.00029630  88 t-inv F
 -0.266667 -0.200000 -0.466667    0.00029630  88 t-inv F
 -0.200000 -0.466667 -0.266667    0.00029630  88 t-inv F
  0.200000  0.466667  0.266667    0.00029630  88 t-inv F
  0.066667  0.266667 -0.200000    0.00029630  88 t-inv F
 -0.066667 -0.266667  0.200000    0.00029630  88 t-inv F
 -0.466667 -0.200000 -0.266667    0.00029630  88 t-inv F
  0.466667  0.200000  0.266667    0.00029630  88 t-inv F
  0.266667  0.466667  0.200000    0.00029630  88 t-inv F
 -0.266667 -0.466667 -0.200000    0.00029630  88 t-inv F
 -0.200000  0.066667  0.266667    0.00029630  88 t-inv F
  0.200000 -0.066667 -0.266667    0.00029630  88 t-inv F
  0.466667  0.266667  0.200000    0.00029630  88 t-inv F
 -0.466667 -0.266667 -0.200000    0.00029630  88 t-inv F
  0.200000  0.266667  0.466667    0.00029630  88 t-inv F
 -0.200000 -0.266667 -0.466667    0.00029630  88 t-inv F
  0.266667 -0.200000  0.066667    0.00029630  88 t-inv F
 -0.266667  0.200000 -0.066667    0.00029630  88 t-inv F
 -0.400000 -0.333333 -0.066667    0.00029630  89 t-inv F
  0.066667  0.400000  0.333333    0.00029630  89 t-inv F
 -0.066667 -0.400000 -0.333333    0.00029630  89 t-inv F
  0.333333  0.066667  0.400000    0.00029630  89 t-inv F
 -0.333333 -0.066667 -0.400000    0.00029630  89 t-inv F
  0.333333  0.266667 -0.066667    0.00029630  89 t-inv F
 -0.333333 -0.266667  0.066667    0.00029630  89 t-inv F
  0.400000  0.066667  0.333333    0.00029630  89 t-inv F
 -0.400000 -0.066667 -0.333333    0.00029630  89 t-inv F
  0.066667 -0.333333 -0.266667    0.00029630  89 t-inv F
 -0.066667  0.333333  0.266667    0.00029630  89 t-inv F
  0.266667  0.333333 -0.066667    0.00029630  89 t-inv F
 -0.266667 -0.333333  0.066667    0.00029630  89 t-inv F
  0.066667 -0.266667 -0.333333    0.00029630  89 t-inv F
 -0.066667  0.266667  0.333333    0.00029630  89 t-inv F
  0.333333  0.400000  0.066667    0.00029630  89 t-inv F
 -0.333333 -0.400000 -0.066667    0.00029630  89 t-inv F
 -0.266667  0.066667 -0.333333    0.00029630  89 t-inv F
  0.266667 -0.066667  0.333333    0.00029630  89 t-inv F
 -0.333333  0.066667 -0.266667    0.00029630  89 t-inv F
  0.333333 -0.066667  0.266667    0.00029630  89 t-inv F
  0.066667  0.333333  0.400000    0.00029630  89 t-inv F
 -0.066667 -0.333333 -0.400000    0.00029630  89 t-inv F
 -0.466667 -0.333333 -0.066667    0.00029630  90 t-inv F
  0.066667  0.466667  0.333333    0.00029630  90 t-inv F
 -0.066667 -0.466667 -0.333333    0.00029630  90 t-inv F
  0.333333  0.066667  0.466667    0.00029630  90 t-inv F
 -0.333333 -0.066667 -0.466667    0.00029630  90 t-inv F
  0.333333  0.266667 -0.133333    0.00029630  90 t-inv F
 -0.333333 -0.266667  0.133333    0.00029630  90 t-inv F
  0.466667  0.133333  0.400000    0.00029630  90 t-inv F
 -0.466667 -0.133333 -0.400000    0.00029630  90 t-inv F
  0.066667 -0.400000 -0.266667    0.00029630  90 t-inv F
 -0.066667  0.400000  0.266667    0.00029630  90 t-inv F
  0.266667  0.400000 -0.066667    0.00029630  90 t-inv F
 -0.266667 -0.400000  0.066667    0.00029630  90 t-inv F
  0.133333 -0.266667 -0.333333    0.00029630  90 t-inv F
 -0.133333  0.266667  0.333333    0.00029630  90 t-inv F
 -0.400000 -0.133333 -0.466667    0.00029630  90 t-inv F
  0.400000  0.133333  0.466667    0.00029630  90 t-inv F
  0.400000  0.466667  0.133333    0.00029630  90 t-inv F
 -0.400000 -0.466667 -0.133333    0.00029630  90 t-inv F
 -0.266667  0.066667 -0.400000    0.00029630  90 t-inv F
  0.266667 -0.066667  0.400000    0.00029630  90 t-inv F
 -0.133333  0.333333  0.266667    0.00029630  90 t-inv F
  0.133333 -0.333333 -0.266667    0.00029630  90 t-inv F
 -0.066667  0.266667  0.400000    0.00029630  90 t-inv F
  0.066667 -0.266667 -0.400000    0.00029630  90 t-inv F
 -0.333333  0.133333 -0.266667    0.00029630  90 t-inv F
  0.333333 -0.133333  0.266667    0.00029630  90 t-inv F
 -0.466667 -0.400000 -0.133333    0.00029630  90 t-inv F
  0.466667  0.400000  0.133333    0.00029630  90 t-inv F
  0.133333  0.400000  0.466667    0.00029630  90 t-inv F
 -0.133333 -0.400000 -0.466667    0.00029630  90 t-inv F
 -0.400000 -0.266667  0.066667    0.00029630  90 t-inv F
  0.400000  0.266667 -0.066667    0.00029630  90 t-inv F
  0.266667 -0.133333  0.333333    0.00029630  90 t-inv F
 -0.266667  0.133333 -0.333333    0.00029630  90 t-inv F
  0.400000 -0.066667  0.266667    0.00029630  90 t-inv F
 -0.400000  0.066667 -0.266667    0.00029630  90 t-inv F
 -0.266667 -0.333333  0.133333    0.00029630  90 t-inv F
  0.266667  0.333333 -0.133333    0.00029630  90 t-inv F
 -0.133333 -0.466667 -0.400000    0.00029630  90 t-inv F
  0.133333  0.466667  0.400000    0.00029630  90 t-inv F
 -0.466667 -0.066667 -0.333333    0.00029630  90 t-inv F
  0.466667  0.066667  0.333333    0.00029630  90 t-inv F
 -0.333333 -0.466667 -0.066667    0.00029630  90 t-inv F
  0.333333  0.466667  0.066667    0.00029630  90 t-inv F
 -0.066667 -0.333333 -0.466667    0.00029630  90 t-inv F
  0.066667  0.333333  0.466667    0.00029630  90 t-inv F
  0.466667 -0.333333 -0.066667    0.00029630  91 t-inv F
  0.066667 -0.466667  0.333333    0.00029630  91 t-inv F
 -0.066667  0.466667 -0.333333    0.00029630  91 t-inv F
  0.333333  0.066667 -0.466667    0.00029630  91 t-inv F
 -0.333333 -0.066667  0.466667    0.00029630  91 t-inv F
  0.333333  0.266667  0.800000    0.00029630  91 t-inv F
 -0.333333 -0.266667 -0.800000    0.00029630  91 t-inv F
 -0.466667 -0.800000 -0.533333    0.00029630  91 t-inv F
  0.466667  0.800000  0.533333    0.00029630  91 t-inv F
  0.066667  0.533333 -0.266667    0.00029630  91 t-inv F
 -0.066667 -0.533333  0.266667    0.00029630  91 t-inv F
  0.266667 -0.533333 -0.066667    0.00029630  91 t-inv F
 -0.266667  0.533333  0.066667    0.00029630  91 t-inv F
 -0.800000 -0.266667 -0.333333    0.00029630  91 t-inv F
  0.800000  0.266667  0.333333    0.00029630  91 t-inv F
  0.533333  0.800000  0.466667    0.00029630  91 t-inv F
 -0.533333 -0.800000 -0.466667    0.00029630  91 t-inv F
 -0.533333 -0.466667 -0.800000    0.00029630  91 t-inv F
  0.533333  0.466667  0.800000    0.00029630  91 t-inv F
 -0.266667  0.066667  0.533333    0.00029630  91 t-inv F
  0.266667 -0.066667 -0.533333    0.00029630  91 t-inv F
  0.800000  0.333333  0.266667    0.00029630  91 t-inv F
 -0.800000 -0.333333 -0.266667    0.00029630  91 t-inv F
 -0.066667  0.266667 -0.533333    0.00029630  91 t-inv F
  0.066667 -0.266667  0.533333    0.00029630  91 t-inv F
 -0.333333 -0.800000 -0.266667    0.00029630  91 t-inv F
  0.333333  0.800000  0.266667    0.00029630  91 t-inv F
  0.466667  0.533333  0.800000    0.00029630  91 t-inv F
 -0.466667 -0.533333 -0.800000    0.00029630  91 t-inv F
 -0.800000 -0.533333 -0.466667    0.00029630  91 t-inv F
  0.800000  0.533333  0.466667    0.00029630  91 t-inv F
  0.533333 -0.266667  0.066667    0.00029630  91 t-inv F
 -0.533333  0.266667 -0.066667    0.00029630  91 t-inv F
  0.266667  0.800000  0.333333    0.00029630  91 t-inv F
 -0.266667 -0.800000 -0.333333    0.00029630  91 t-inv F
 -0.533333 -0.066667  0.266667    0.00029630  91 t-inv F
  0.533333  0.066667 -0.266667    0.00029630  91 t-inv F
 -0.266667 -0.333333 -0.800000    0.00029630  91 t-inv F
  0.266667  0.333333  0.800000    0.00029630  91 t-inv F
  0.800000  0.466667  0.533333    0.00029630  91 t-inv F
 -0.800000 -0.466667 -0.533333    0.00029630  91 t-inv F
  0.466667 -0.066667 -0.333333    0.00029630  91 t-inv F
 -0.466667  0.066667  0.333333    0.00029630  91 t-inv F
 -0.333333  0.466667 -0.066667    0.00029630  91 t-inv F
  0.333333 -0.466667  0.066667    0.00029630  91 t-inv F
 -0.066667 -0.333333  0.466667    0.00029630  91 t-inv F
  0.066667  0.333333 -0.466667    0.00029630  91 t-inv F
  0.400000 -0.333333 -0.066667    0.00029630  92 t-inv F
  0.066667 -0.400000  0.333333    0.00029630  92 t-inv F
 -0.066667  0.400000 -0.333333    0.00029630  92 t-inv F
  0.333333  0.066667 -0.400000    0.00029630  92 t-inv F
 -0.333333 -0.066667  0.400000    0.00029630  92 t-inv F
  0.333333  0.266667  0.733333    0.00029630  92 t-inv F
 -0.333333 -0.266667 -0.733333    0.00029630  92 t-inv F
 -0.400000 -0.733333 -0.466667    0.00029630  92 t-inv F
  0.400000  0.733333  0.466667    0.00029630  92 t-inv F
  0.066667  0.466667 -0.266667    0.00029630  92 t-inv F
 -0.066667 -0.466667  0.266667    0.00029630  92 t-inv F
  0.266667 -0.466667 -0.066667    0.00029630  92 t-inv F
 -0.266667  0.466667  0.066667    0.00029630  92 t-inv F
 -0.733333 -0.266667 -0.333333    0.00029630  92 t-inv F
  0.733333  0.266667  0.333333    0.00029630  92 t-inv F
  0.466667  0.733333  0.400000    0.00029630  92 t-inv F
 -0.466667 -0.733333 -0.400000    0.00029630  92 t-inv F
 -0.466667 -0.400000 -0.733333    0.00029630  92 t-inv F
  0.466667  0.400000  0.733333    0.00029630  92 t-inv F
 -0.266667  0.066667  0.466667    0.00029630  92 t-inv F
  0.266667 -0.066667 -0.466667    0.00029630  92 t-inv F
  0.733333  0.333333  0.266667    0.00029630  92 t-inv F
 -0.733333 -0.333333 -0.266667    0.00029630  92 t-inv F
 -0.066667  0.266667 -0.466667    0.00029630  92 t-inv F
  0.066667 -0.266667  0.466667    0.00029630  92 t-inv F
 -0.333333 -0.733333 -0.266667    0.00029630  92 t-inv F
  0.333333  0.733333  0.266667    0.00029630  92 t-inv F
  0.400000  0.466667  0.733333    0.00029630  92 t-inv F
 -0.400000 -0.466667 -0.733333    0.00029630  92 t-inv F
 -0.733333 -0.466667 -0.400000    0.00029630  92 t-inv F
  0.733333  0.466667  0.400000    0.00029630  92 t-inv F
  0.466667 -0.266667  0.066667    0.00029630  92 t-inv F
 -0.466667  0.266667 -0.066667    0.00029630  92 t-inv F
  0.266667  0.733333  0.333333    0.00029630  92 t-inv F
 -0.266667 -0.733333 -0.333333    0.00029630  92 t-inv F
 -0.466667 -0.066667  0.266667    0.00029630  92 t-inv F
  0.466667  0.066667 -0.266667    0.00029630  92 t-inv F
 -0.266667 -0.333333 -0.733333    0.00029630  92 t-inv F
  0.266667  0.333333  0.733333    0.00029630  92 t-inv F
  0.733333  0.400000  0.466667    0.00029630  92 t-inv F
 -0.733333 -0.400000 -0.466667    0.00029630  92 t-inv F
  0.400000 -0.066667 -0.333333    0.00029630  92 t-inv F
 -0.400000  0.066667  0.333333    0.00029630  92 t-inv F
 -0.333333  0.400000 -0.066667    0.00029630  92 t-inv F
  0.333333 -0.400000  0.066667    0.00029630  92 t-inv F
 -0.066667 -0.333333  0.400000    0.00029630  92 t-inv F
  0.066667  0.333333 -0.400000    0.00029630  92 t-inv F
  0.333333 -0.333333 -0.066667    0.00029630  93 t-inv F
  0.066667 -0.333333  0.333333    0.00029630  93 t-inv F
 -0.066667  0.333333 -0.333333    0.00029630  93 t-inv F
  0.333333  0.066667 -0.333333    0.00029630  93 t-inv F
 -0.333333 -0.066667  0.333333    0.00029630  93 t-inv F
  0.333333  0.266667  0.666667    0.00029630  93 t-inv F
 -0.333333 -0.266667 -0.666667    0.00029630  93 t-inv F
 -0.333333 -0.666667 -0.400000    0.00029630  93 t-inv F
  0.333333  0.666667  0.400000    0.00029630  93 t-inv F
  0.066667  0.400000 -0.266667    0.00029630  93 t-inv F
 -0.066667 -0.400000  0.266667    0.00029630  93 t-inv F
  0.266667 -0.400000 -0.066667    0.00029630  93 t-inv F
 -0.266667  0.400000  0.066667    0.00029630  93 t-inv F
 -0.666667 -0.266667 -0.333333    0.00029630  93 t-inv F
  0.666667  0.266667  0.333333    0.00029630  93 t-inv F
  0.400000  0.666667  0.333333    0.00029630  93 t-inv F
 -0.400000 -0.666667 -0.333333    0.00029630  93 t-inv F
 -0.400000 -0.333333 -0.666667    0.00029630  93 t-inv F
  0.400000  0.333333  0.666667    0.00029630  93 t-inv F
 -0.266667  0.066667  0.400000    0.00029630  93 t-inv F
  0.266667 -0.066667 -0.400000    0.00029630  93 t-inv F
  0.666667  0.333333  0.266667    0.00029630  93 t-inv F
 -0.666667 -0.333333 -0.266667    0.00029630  93 t-inv F
 -0.066667  0.266667 -0.400000    0.00029630  93 t-inv F
  0.066667 -0.266667  0.400000    0.00029630  93 t-inv F
 -0.333333 -0.666667 -0.266667    0.00029630  93 t-inv F
  0.333333  0.666667  0.266667    0.00029630  93 t-inv F
  0.333333  0.400000  0.666667    0.00029630  93 t-inv F
 -0.333333 -0.400000 -0.666667    0.00029630  93 t-inv F
 -0.666667 -0.400000 -0.333333    0.00029630  93 t-inv F
  0.666667  0.400000  0.333333    0.00029630  93 t-inv F
  0.400000 -0.266667  0.066667    0.00029630  93 t-inv F
 -0.400000  0.266667 -0.066667    0.00029630  93 t-inv F
  0.266667  0.666667  0.333333    0.00029630  93 t-inv F
 -0.266667 -0.666667 -0.333333    0.00029630  93 t-inv F
 -0.400000 -0.066667  0.266667    0.00029630  93 t-inv F
  0.400000  0.066667 -0.266667    0.00029630  93 t-inv F
 -0.266667 -0.333333 -0.666667    0.00029630  93 t-inv F
  0.266667  0.333333  0.666667    0.00029630  93 t-inv F
  0.666667  0.333333  0.400000    0.00029630  93 t-inv F
 -0.666667 -0.333333 -0.400000    0.00029630  93 t-inv F
  0.333333 -0.066667 -0.333333    0.00029630  93 t-inv F
 -0.333333  0.066667  0.333333    0.00029630  93 t-inv F
 -0.333333  0.333333 -0.066667    0.00029630  93 t-inv F
  0.333333 -0.333333  0.066667    0.00029630  93 t-inv F
 -0.066667 -0.333333  0.333333    0.00029630  93 t-inv F
  0.066667  0.333333 -0.333333    0.00029630  93 t-inv F
  0.266667 -0.333333 -0.066667    0.00029630  94 t-inv F
  0.066667 -0.266667  0.333333    0.00029630  94 t-inv F
 -0.066667  0.266667 -0.333333    0.00029630  94 t-inv F
  0.333333  0.066667 -0.266667    0.00029630  94 t-inv F
 -0.333333 -0.066667  0.266667    0.00029630  94 t-inv F
  0.333333  0.266667  0.600000    0.00029630  94 t-inv F
 -0.333333 -0.266667 -0.600000    0.00029630  94 t-inv F
 -0.266667 -0.600000 -0.333333    0.00029630  94 t-inv F
  0.266667  0.600000  0.333333    0.00029630  94 t-inv F
  0.066667  0.333333 -0.266667    0.00029630  94 t-inv F
 -0.066667 -0.333333  0.266667    0.00029630  94 t-inv F
 -0.600000 -0.266667 -0.333333    0.00029630  94 t-inv F
  0.600000  0.266667  0.333333    0.00029630  94 t-inv F
  0.333333  0.600000  0.266667    0.00029630  94 t-inv F
 -0.333333 -0.600000 -0.266667    0.00029630  94 t-inv F
 -0.266667  0.066667  0.333333    0.00029630  94 t-inv F
  0.266667 -0.066667 -0.333333    0.00029630  94 t-inv F
  0.600000  0.333333  0.266667    0.00029630  94 t-inv F
 -0.600000 -0.333333 -0.266667    0.00029630  94 t-inv F
  0.266667  0.333333  0.600000    0.00029630  94 t-inv F
 -0.266667 -0.333333 -0.600000    0.00029630  94 t-inv F
  0.333333 -0.266667  0.066667    0.00029630  94 t-inv F
 -0.333333  0.266667 -0.066667    0.00029630  94 t-inv F
 -0.466667 -0.400000 -0.066667    0.00029630  95 t-inv F
  0.066667  0.466667  0.400000    0.00029630  95 t-inv F
 -0.066667 -0.466667 -0.400000    0.00029630  95 t-inv F
  0.400000  0.066667  0.466667    0.00029630  95 t-inv F
 -0.400000 -0.066667 -0.466667    0.00029630  95 t-inv F
  0.400000  0.333333 -0.066667    0.00029630  95 t-inv F
 -0.400000 -0.333333  0.066667    0.00029630  95 t-inv F
  0.466667  0.066667  0.400000    0.00029630  95 t-inv F
 -0.466667 -0.066667 -0.400000    0.00029630  95 t-inv F
  0.066667 -0.400000 -0.333333    0.00029630  95 t-inv F
 -0.066667  0.400000  0.333333    0.00029630  95 t-inv F
  0.333333  0.400000 -0.066667    0.00029630  95 t-inv F
 -0.333333 -0.400000  0.066667    0.00029630  95 t-inv F
  0.066667 -0.333333 -0.400000    0.00029630  95 t-inv F
 -0.066667  0.333333  0.400000    0.00029630  95 t-inv F
  0.400000  0.466667  0.066667    0.00029630  95 t-inv F
 -0.400000 -0.466667 -0.066667    0.00029630  95 t-inv F
 -0.333333  0.066667 -0.400000    0.00029630  95 t-inv F
  0.333333 -0.066667  0.400000    0.00029630  95 t-inv F
 -0.400000  0.066667 -0.333333    0.00029630  95 t-inv F
  0.400000 -0.066667  0.333333    0.00029630  95 t-inv F
  0.066667  0.400000  0.466667    0.00029630  95 t-inv F
 -0.066667 -0.400000 -0.466667    0.00029630  95 t-inv F
  0.466667 -0.400000 -0.066667    0.00029630  96 t-inv F
  0.066667 -0.466667  0.400000    0.00029630  96 t-inv F
 -0.066667  0.466667 -0.400000    0.00029630  96 t-inv F
  0.400000  0.066667 -0.466667    0.00029630  96 t-inv F
 -0.400000 -0.066667  0.466667    0.00029630  96 t-inv F
  0.400000  0.333333  0.866667    0.00029630  96 t-inv F
 -0.400000 -0.333333 -0.866667    0.00029630  96 t-inv F
 -0.466667 -0.866667 -0.533333    0.00029630  96 t-inv F
  0.466667  0.866667  0.533333    0.00029630  96 t-inv F
  0.066667  0.533333 -0.333333    0.00029630  96 t-inv F
 -0.066667 -0.533333  0.333333    0.00029630  96 t-inv F
  0.333333 -0.533333 -0.066667    0.00029630  96 t-inv F
 -0.333333  0.533333  0.066667    0.00029630  96 t-inv F
 -0.866667 -0.333333 -0.400000    0.00029630  96 t-inv F
  0.866667  0.333333  0.400000    0.00029630  96 t-inv F
  0.533333  0.866667  0.466667    0.00029630  96 t-inv F
 -0.533333 -0.866667 -0.466667    0.00029630  96 t-inv F
 -0.533333 -0.466667 -0.866667    0.00029630  96 t-inv F
  0.533333  0.466667  0.866667    0.00029630  96 t-inv F
 -0.333333  0.066667  0.533333    0.00029630  96 t-inv F
  0.333333 -0.066667 -0.533333    0.00029630  96 t-inv F
  0.866667  0.400000  0.333333    0.00029630  96 t-inv F
 -0.866667 -0.400000 -0.333333    0.00029630  96 t-inv F
 -0.066667  0.333333 -0.533333    0.00029630  96 t-inv F
  0.066667 -0.333333  0.533333    0.00029630  96 t-inv F
 -0.400000 -0.866667 -0.333333    0.00029630  96 t-inv F
  0.400000  0.866667  0.333333    0.00029630  96 t-inv F
  0.466667  0.533333  0.866667    0.00029630  96 t-inv F
 -0.466667 -0.533333 -0.866667    0.00029630  96 t-inv F
 -0.866667 -0.533333 -0.466667    0.00029630  96 t-inv F
  0.866667  0.533333  0.466667    0.00029630  96 t-inv F
  0.533333 -0.333333  0.066667    0.00029630  96 t-inv F
 -0.533333  0.333333 -0.066667    0.00029630  96 t-inv F
  0.333333  0.866667  0.400000    0.00029630  96 t-inv F
 -0.333333 -0.866667 -0.400000    0.00029630  96 t-inv F
 -0.533333 -0.066667  0.333333    0.00029630  96 t-inv F
  0.533333  0.066667 -0.333333    0.00029630  96 t-inv F
 -0.333333 -0.400000 -0.866667    0.00029630  96 t-inv F
  0.333333  0.400000  0.866667    0.00029630  96 t-inv F
  0.866667  0.466667  0.533333    0.00029630  96 t-inv F
 -0.866667 -0.466667 -0.533333    0.00029630  96 t-inv F
  0.466667 -0.066667 -0.400000    0.00029630  96 t-inv F
 -0.466667  0.066667  0.400000    0.00029630  96 t-inv F
 -0.400000  0.466667 -0.066667    0.00029630  96 t-inv F
  0.400000 -0.466667  0.066667    0.00029630  96 t-inv F
 -0.066667 -0.400000  0.466667    0.00029630  96 t-inv F
  0.066667  0.400000 -0.466667    0.00029630  96 t-inv F
  0.400000 -0.400000 -0.066667    0.00029630  97 t-inv F
  0.066667 -0.400000  0.400000    0.00029630  97 t-inv F
 -0.066667  0.400000 -0.400000    0.00029630  97 t-inv F
  0.400000  0.066667 -0.400000    0.00029630  97 t-inv F
 -0.400000 -0.066667  0.400000    0.00029630  97 t-inv F
  0.400000  0.333333  0.800000    0.00029630  97 t-inv F
 -0.400000 -0.333333 -0.800000    0.00029630  97 t-inv F
 -0.400000 -0.800000 -0.466667    0.00029630  97 t-inv F
  0.400000  0.800000  0.466667    0.00029630  97 t-inv F
  0.066667  0.466667 -0.333333    0.00029630  97 t-inv F
 -0.066667 -0.466667  0.333333    0.00029630  97 t-inv F
  0.333333 -0.466667 -0.066667    0.00029630  97 t-inv F
 -0.333333  0.466667  0.066667    0.00029630  97 t-inv F
 -0.800000 -0.333333 -0.400000    0.00029630  97 t-inv F
  0.800000  0.333333  0.400000    0.00029630  97 t-inv F
  0.466667  0.800000  0.400000    0.00029630  97 t-inv F
 -0.466667 -0.800000 -0.400000    0.00029630  97 t-inv F
 -0.466667 -0.400000 -0.800000    0.00029630  97 t-inv F
  0.466667  0.400000  0.800000    0.00029630  97 t-inv F
 -0.333333  0.066667  0.466667    0.00029630  97 t-inv F
  0.333333 -0.066667 -0.466667    0.00029630  97 t-inv F
  0.800000  0.400000  0.333333    0.00029630  97 t-inv F
 -0.800000 -0.400000 -0.333333    0.00029630  97 t-inv F
 -0.066667  0.333333 -0.466667    0.00029630  97 t-inv F
  0.066667 -0.333333  0.466667    0.00029630  97 t-inv F
 -0.400000 -0.800000 -0.333333    0.00029630  97 t-inv F
  0.400000  0.800000  0.333333    0.00029630  97 t-inv F
  0.400000  0.466667  0.800000    0.00029630  97 t-inv F
 -0.400000 -0.466667 -0.800000    0.00029630  97 t-inv F
 -0.800000 -0.466667 -0.400000    0.00029630  97 t-inv F
  0.800000  0.466667  0.400000    0.00029630  97 t-inv F
  0.466667 -0.333333  0.066667    0.00029630  97 t-inv F
 -0.466667  0.333333 -0.066667    0.00029630  97 t-inv F
  0.333333  0.800000  0.400000    0.00029630  97 t-inv F
 -0.333333 -0.800000 -0.400000    0.00029630  97 t-inv F
 -0.466667 -0.066667  0.333333    0.00029630  97 t-inv F
  0.466667  0.066667 -0.333333    0.00029630  97 t-inv F
 -0.333333 -0.400000 -0.800000    0.00029630  97 t-inv F
  0.333333  0.400000  0.800000    0.00029630  97 t-inv F
  0.800000  0.400000  0.466667    0.00029630  97 t-inv F
 -0.800000 -0.400000 -0.466667    0.00029630  97 t-inv F
  0.400000 -0.066667 -0.400000    0.00029630  97 t-inv F
 -0.400000  0.066667  0.400000    0.00029630  97 t-inv F
 -0.400000  0.400000 -0.066667    0.00029630  97 t-inv F
  0.400000 -0.400000  0.066667    0.00029630  97 t-inv F
 -0.066667 -0.400000  0.400000    0.00029630  97 t-inv F
  0.066667  0.400000 -0.400000    0.00029630  97 t-inv F
  0.333333 -0.400000 -0.066667    0.00029630  98 t-inv F
  0.066667 -0.333333  0.400000    0.00029630  98 t-inv F
 -0.066667  0.333333 -0.400000    0.00029630  98 t-inv F
  0.400000  0.066667 -0.333333    0.00029630  98 t-inv F
 -0.400000 -0.066667  0.333333    0.00029630  98 t-inv F
  0.400000  0.333333  0.733333    0.00029630  98 t-inv F
 -0.400000 -0.333333 -0.733333    0.00029630  98 t-inv F
 -0.333333 -0.733333 -0.400000    0.00029630  98 t-inv F
  0.333333  0.733333  0.400000    0.00029630  98 t-inv F
  0.066667  0.400000 -0.333333    0.00029630  98 t-inv F
 -0.066667 -0.400000  0.333333    0.00029630  98 t-inv F
 -0.733333 -0.333333 -0.400000    0.00029630  98 t-inv F
  0.733333  0.333333  0.400000    0.00029630  98 t-inv F
  0.400000  0.733333  0.333333    0.00029630  98 t-inv F
 -0.400000 -0.733333 -0.333333    0.00029630  98 t-inv F
 -0.333333  0.066667  0.400000    0.00029630  98 t-inv F
  0.333333 -0.066667 -0.400000    0.00029630  98 t-inv F
  0.733333  0.400000  0.333333    0.00029630  98 t-inv F
 -0.733333 -0.400000 -0.333333    0.00029630  98 t-inv F
  0.333333  0.400000  0.733333    0.00029630  98 t-inv F
 -0.333333 -0.400000 -0.733333    0.00029630  98 t-inv F
  0.400000 -0.333333  0.066667    0.00029630  98 t-inv F
 -0.400000  0.333333 -0.066667    0.00029630  98 t-inv F
  0.466667 -0.466667 -0.066667    0.00029630  99 t-inv F
  0.066667 -0.466667  0.466667    0.00029630  99 t-inv F
 -0.066667  0.466667 -0.466667    0.00029630  99 t-inv F
  0.466667  0.066667 -0.466667    0.00029630  99 t-inv F
 -0.466667 -0.066667  0.466667    0.00029630  99 t-inv F
  0.466667  0.400000  0.933333    0.00029630  99 t-inv F
 -0.466667 -0.400000 -0.933333    0.00029630  99 t-inv F
 -0.466667 -0.933333 -0.533333    0.00029630  99 t-inv F
  0.466667  0.933333  0.533333    0.00029630  99 t-inv F
  0.066667  0.533333 -0.400000    0.00029630  99 t-inv F
 -0.066667 -0.533333  0.400000    0.00029630  99 t-inv F
  0.400000 -0.533333 -0.066667    0.00029630  99 t-inv F
 -0.400000  0.533333  0.066667    0.00029630  99 t-inv F
 -0.933333 -0.400000 -0.466667    0.00029630  99 t-inv F
  0.933333  0.400000  0.466667    0.00029630  99 t-inv F
 -0.533333 -0.466667 -0.933333    0.00029630  99 t-inv F
  0.533333  0.466667  0.933333    0.00029630  99 t-inv F
 -0.400000  0.066667  0.533333    0.00029630  99 t-inv F
  0.400000 -0.066667 -0.533333    0.00029630  99 t-inv F
 -0.466667 -0.933333 -0.400000    0.00029630  99 t-inv F
  0.466667  0.933333  0.400000    0.00029630  99 t-inv F
 -0.933333 -0.533333 -0.466667    0.00029630  99 t-inv F
  0.933333  0.533333  0.466667    0.00029630  99 t-inv F
  0.400000 -0.466667 -0.066667    0.00029630 100 t-inv F
  0.066667 -0.400000  0.466667    0.00029630 100 t-inv F
 -0.066667  0.400000 -0.466667    0.00029630 100 t-inv F
  0.466667  0.066667 -0.400000    0.00029630 100 t-inv F
 -0.466667 -0.066667  0.400000    0.00029630 100 t-inv F
  0.466667  0.400000  0.866667    0.00029630 100 t-inv F
 -0.466667 -0.400000 -0.866667    0.00029630 100 t-inv F
 -0.400000 -0.866667 -0.466667    0.00029630 100 t-inv F
  0.400000  0.866667  0.466667    0.00029630 100 t-inv F
  0.066667  0.466667 -0.400000    0.00029630 100 t-inv F
 -0.066667 -0.466667  0.400000    0.00029630 100 t-inv F
 -0.866667 -0.400000 -0.466667    0.00029630 100 t-inv F
  0.866667  0.400000  0.466667    0.00029630 100 t-inv F
  0.466667  0.866667  0.400000    0.00029630 100 t-inv F
 -0.466667 -0.866667 -0.400000    0.00029630 100 t-inv F
 -0.400000  0.066667  0.466667    0.00029630 100 t-inv F
  0.400000 -0.066667 -0.466667    0.00029630 100 t-inv F
  0.866667  0.466667  0.400000    0.00029630 100 t-inv F
 -0.866667 -0.466667 -0.400000    0.00029630 100 t-inv F
  0.400000  0.466667  0.866667    0.00029630 100 t-inv F
 -0.400000 -0.466667 -0.866667    0.00029630 100 t-inv F
  0.466667 -0.400000  0.066667    0.00029630 100 t-inv F
 -0.466667  0.400000 -0.066667    0.00029630 100 t-inv F
 -0.400000 -0.266667 -0.133333    0.00029630 101 t-inv F
  0.133333  0.400000  0.266667    0.00029630 101 t-inv F
 -0.133333 -0.400000 -0.266667    0.00029630 101 t-inv F
  0.266667  0.133333  0.400000    0.00029630 101 t-inv F
 -0.266667 -0.133333 -0.400000    0.00029630 101 t-inv F
  0.266667  0.133333 -0.133333    0.00029630 101 t-inv F
 -0.266667 -0.133333  0.133333    0.00029630 101 t-inv F
  0.400000  0.133333  0.266667    0.00029630 101 t-inv F
 -0.400000 -0.133333 -0.266667    0.00029630 101 t-inv F
  0.133333 -0.266667 -0.133333    0.00029630 101 t-inv F
 -0.133333  0.266667  0.133333    0.00029630 101 t-inv F
  0.133333  0.266667 -0.133333    0.00029630 101 t-inv F
 -0.133333 -0.266667  0.133333    0.00029630 101 t-inv F
  0.133333 -0.133333 -0.266667    0.00029630 101 t-inv F
 -0.133333  0.133333  0.266667    0.00029630 101 t-inv F
  0.266667  0.400000  0.133333    0.00029630 101 t-inv F
 -0.266667 -0.400000 -0.133333    0.00029630 101 t-inv F
 -0.133333  0.133333 -0.266667    0.00029630 101 t-inv F
  0.133333 -0.133333  0.266667    0.00029630 101 t-inv F
 -0.266667  0.133333 -0.133333    0.00029630 101 t-inv F
  0.266667 -0.133333  0.133333    0.00029630 101 t-inv F
  0.133333  0.266667  0.400000    0.00029630 101 t-inv F
 -0.133333 -0.266667 -0.400000    0.00029630 101 t-inv F
 -0.466667 -0.266667 -0.133333    0.00029630 102 t-inv F
  0.133333  0.466667  0.266667    0.00029630 102 t-inv F
 -0.133333 -0.466667 -0.266667    0.00029630 102 t-inv F
  0.266667  0.133333  0.466667    0.00029630 102 t-inv F
 -0.266667 -0.133333 -0.466667    0.00029630 102 t-inv F
  0.266667  0.133333 -0.200000    0.00029630 102 t-inv F
 -0.266667 -0.133333  0.200000    0.00029630 102 t-inv F
  0.466667  0.200000  0.333333    0.00029630 102 t-inv F
 -0.466667 -0.200000 -0.333333    0.00029630 102 t-inv F
  0.133333 -0.333333 -0.133333    0.00029630 102 t-inv F
 -0.133333  0.333333  0.133333    0.00029630 102 t-inv F
  0.133333  0.333333 -0.133333    0.00029630 102 t-inv F
 -0.133333 -0.333333  0.133333    0.00029630 102 t-inv F
  0.200000 -0.133333 -0.266667    0.00029630 102 t-inv F
 -0.200000  0.133333  0.266667    0.00029630 102 t-inv F
 -0.333333 -0.200000 -0.466667    0.00029630 102 t-inv F
  0.333333  0.200000  0.466667    0.00029630 102 t-inv F
  0.333333  0.466667  0.200000    0.00029630 102 t-inv F
 -0.333333 -0.466667 -0.200000    0.00029630 102 t-inv F
 -0.133333  0.133333 -0.333333    0.00029630 102 t-inv F
  0.133333 -0.133333  0.333333    0.00029630 102 t-inv F
 -0.200000  0.266667  0.133333    0.00029630 102 t-inv F
  0.200000 -0.266667 -0.133333    0.00029630 102 t-inv F
 -0.133333  0.133333  0.333333    0.00029630 102 t-inv F
  0.133333 -0.133333 -0.333333    0.00029630 102 t-inv F
 -0.266667  0.200000 -0.133333    0.00029630 102 t-inv F
  0.266667 -0.200000  0.133333    0.00029630 102 t-inv F
 -0.466667 -0.333333 -0.200000    0.00029630 102 t-inv F
  0.466667  0.333333  0.200000    0.00029630 102 t-inv F
  0.200000  0.333333  0.466667    0.00029630 102 t-inv F
 -0.200000 -0.333333 -0.466667    0.00029630 102 t-inv F
 -0.333333 -0.133333  0.133333    0.00029630 102 t-inv F
  0.333333  0.133333 -0.133333    0.00029630 102 t-inv F
  0.133333 -0.200000  0.266667    0.00029630 102 t-inv F
 -0.133333  0.200000 -0.266667    0.00029630 102 t-inv F
  0.333333 -0.133333  0.133333    0.00029630 102 t-inv F
 -0.333333  0.133333 -0.133333    0.00029630 102 t-inv F
 -0.133333 -0.266667  0.200000    0.00029630 102 t-inv F
  0.133333  0.266667 -0.200000    0.00029630 102 t-inv F
 -0.200000 -0.466667 -0.333333    0.00029630 102 t-inv F
  0.200000  0.466667  0.333333    0.00029630 102 t-inv F
 -0.466667 -0.133333 -0.266667    0.00029630 102 t-inv F
  0.466667  0.133333  0.266667    0.00029630 102 t-inv F
 -0.266667 -0.466667 -0.133333    0.00029630 102 t-inv F
  0.266667  0.466667  0.133333    0.00029630 102 t-inv F
 -0.133333 -0.266667 -0.466667    0.00029630 102 t-inv F
  0.133333  0.266667  0.466667    0.00029630 102 t-inv F
  0.466667 -0.266667 -0.133333    0.00029630 103 t-inv F
  0.133333 -0.466667  0.266667    0.00029630 103 t-inv F
 -0.133333  0.466667 -0.266667    0.00029630 103 t-inv F
  0.266667  0.133333 -0.466667    0.00029630 103 t-inv F
 -0.266667 -0.133333  0.466667    0.00029630 103 t-inv F
  0.266667  0.133333  0.733333    0.00029630 103 t-inv F
 -0.266667 -0.133333 -0.733333    0.00029630 103 t-inv F
 -0.466667 -0.733333 -0.600000    0.00029630 103 t-inv F
  0.466667  0.733333  0.600000    0.00029630 103 t-inv F
  0.133333  0.600000 -0.133333    0.00029630 103 t-inv F
 -0.133333 -0.600000  0.133333    0.00029630 103 t-inv F
  0.133333 -0.600000 -0.133333    0.00029630 103 t-inv F
 -0.133333  0.600000  0.133333    0.00029630 103 t-inv F
 -0.733333 -0.133333 -0.266667    0.00029630 103 t-inv F
  0.733333  0.133333  0.266667    0.00029630 103 t-inv F
  0.600000  0.733333  0.466667    0.00029630 103 t-inv F
 -0.600000 -0.733333 -0.466667    0.00029630 103 t-inv F
 -0.600000 -0.466667 -0.733333    0.00029630 103 t-inv F
  0.600000  0.466667  0.733333    0.00029630 103 t-inv F
 -0.133333  0.133333  0.600000    0.00029630 103 t-inv F
  0.133333 -0.133333 -0.600000    0.00029630 103 t-inv F
  0.733333  0.266667  0.133333    0.00029630 103 t-inv F
 -0.733333 -0.266667 -0.133333    0.00029630 103 t-inv F
 -0.133333  0.133333 -0.600000    0.00029630 103 t-inv F
  0.133333 -0.133333  0.600000    0.00029630 103 t-inv F
 -0.266667 -0.733333 -0.133333    0.00029630 103 t-inv F
  0.266667  0.733333  0.133333    0.00029630 103 t-inv F
  0.466667  0.600000  0.733333    0.00029630 103 t-inv F
 -0.466667 -0.600000 -0.733333    0.00029630 103 t-inv F
 -0.733333 -0.600000 -0.466667    0.00029630 103 t-inv F
  0.733333  0.600000  0.466667    0.00029630 103 t-inv F
  0.600000 -0.133333  0.133333    0.00029630 103 t-inv F
 -0.600000  0.133333 -0.133333    0.00029630 103 t-inv F
  0.133333  0.733333  0.266667    0.00029630 103 t-inv F
 -0.133333 -0.733333 -0.266667    0.00029630 103 t-inv F
 -0.600000 -0.133333  0.133333    0.00029630 103 t-inv F
  0.600000  0.133333 -0.133333    0.00029630 103 t-inv F
 -0.133333 -0.266667 -0.733333    0.00029630 103 t-inv F
  0.133333  0.266667  0.733333    0.00029630 103 t-inv F
  0.733333  0.466667  0.600000    0.00029630 103 t-inv F
 -0.733333 -0.466667 -0.600000    0.00029630 103 t-inv F
  0.466667 -0.133333 -0.266667    0.00029630 103 t-inv F
 -0.466667  0.133333  0.266667    0.00029630 103 t-inv F
 -0.266667  0.466667 -0.133333    0.00029630 103 t-inv F
  0.266667 -0.466667  0.133333    0.00029630 103 t-inv F
 -0.133333 -0.266667  0.466667    0.00029630 103 t-inv F
  0.133333  0.266667 -0.466667    0.00029630 103 t-inv F
  0.400000 -0.266667 -0.133333    0.00029630 104 t-inv F
  0.133333 -0.400000  0.266667    0.00029630 104 t-inv F
 -0.133333  0.400000 -0.266667    0.00029630 104 t-inv F
  0.266667  0.133333 -0.400000    0.00029630 104 t-inv F
 -0.266667 -0.133333  0.400000    0.00029630 104 t-inv F
  0.266667  0.133333  0.666667    0.00029630 104 t-inv F
 -0.266667 -0.133333 -0.666667    0.00029630 104 t-inv F
 -0.400000 -0.666667 -0.533333    0.00029630 104 t-inv F
  0.400000  0.666667  0.533333    0.00029630 104 t-inv F
  0.133333  0.533333 -0.133333    0.00029630 104 t-inv F
 -0.133333 -0.533333  0.133333    0.00029630 104 t-inv F
  0.133333 -0.533333 -0.133333    0.00029630 104 t-inv F
 -0.133333  0.533333  0.133333    0.00029630 104 t-inv F
 -0.666667 -0.133333 -0.266667    0.00029630 104 t-inv F
  0.666667  0.133333  0.266667    0.00029630 104 t-inv F
  0.533333  0.666667  0.400000    0.00029630 104 t-inv F
 -0.533333 -0.666667 -0.400000    0.00029630 104 t-inv F
 -0.533333 -0.400000 -0.666667    0.00029630 104 t-inv F
  0.533333  0.400000  0.666667    0.00029630 104 t-inv F
 -0.133333  0.133333  0.533333    0.00029630 104 t-inv F
  0.133333 -0.133333 -0.533333    0.00029630 104 t-inv F
  0.666667  0.266667  0.133333    0.00029630 104 t-inv F
 -0.666667 -0.266667 -0.133333    0.00029630 104 t-inv F
 -0.133333  0.133333 -0.533333    0.00029630 104 t-inv F
  0.133333 -0.133333  0.533333    0.00029630 104 t-inv F
 -0.266667 -0.666667 -0.133333    0.00029630 104 t-inv F
  0.266667  0.666667  0.133333    0.00029630 104 t-inv F
  0.400000  0.533333  0.666667    0.00029630 104 t-inv F
 -0.400000 -0.533333 -0.666667    0.00029630 104 t-inv F
 -0.666667 -0.533333 -0.400000    0.00029630 104 t-inv F
  0.666667  0.533333  0.400000    0.00029630 104 t-inv F
  0.533333 -0.133333  0.133333    0.00029630 104 t-inv F
 -0.533333  0.133333 -0.133333    0.00029630 104 t-inv F
  0.133333  0.666667  0.266667    0.00029630 104 t-inv F
 -0.133333 -0.666667 -0.266667    0.00029630 104 t-inv F
 -0.533333 -0.133333  0.133333    0.00029630 104 t-inv F
  0.533333  0.133333 -0.133333    0.00029630 104 t-inv F
 -0.133333 -0.266667 -0.666667    0.00029630 104 t-inv F
  0.133333  0.266667  0.666667    0.00029630 104 t-inv F
  0.666667  0.400000  0.533333    0.00029630 104 t-inv F
 -0.666667 -0.400000 -0.533333    0.00029630 104 t-inv F
  0.400000 -0.133333 -0.266667    0.00029630 104 t-inv F
 -0.400000  0.133333  0.266667    0.00029630 104 t-inv F
 -0.266667  0.400000 -0.133333    0.00029630 104 t-inv F
  0.266667 -0.400000  0.133333    0.00029630 104 t-inv F
 -0.133333 -0.266667  0.400000    0.00029630 104 t-inv F
  0.133333  0.266667 -0.400000    0.00029630 104 t-inv F
 -0.466667 -0.333333 -0.133333    0.00029630 105 t-inv F
  0.133333  0.466667  0.333333    0.00029630 105 t-inv F
 -0.133333 -0.466667 -0.333333    0.00029630 105 t-inv F
  0.333333  0.133333  0.466667    0.00029630 105 t-inv F
 -0.333333 -0.133333 -0.466667    0.00029630 105 t-inv F
  0.333333  0.200000 -0.133333    0.00029630 105 t-inv F
 -0.333333 -0.200000  0.133333    0.00029630 105 t-inv F
  0.466667  0.133333  0.333333    0.00029630 105 t-inv F
 -0.466667 -0.133333 -0.333333    0.00029630 105 t-inv F
  0.133333 -0.333333 -0.200000    0.00029630 105 t-inv F
 -0.133333  0.333333  0.200000    0.00029630 105 t-inv F
  0.200000  0.333333 -0.133333    0.00029630 105 t-inv F
 -0.200000 -0.333333  0.133333    0.00029630 105 t-inv F
  0.133333 -0.200000 -0.333333    0.00029630 105 t-inv F
 -0.133333  0.200000  0.333333    0.00029630 105 t-inv F
  0.333333  0.466667  0.133333    0.00029630 105 t-inv F
 -0.333333 -0.466667 -0.133333    0.00029630 105 t-inv F
 -0.200000  0.133333 -0.333333    0.00029630 105 t-inv F
  0.200000 -0.133333  0.333333    0.00029630 105 t-inv F
 -0.333333  0.133333 -0.200000    0.00029630 105 t-inv F
  0.333333 -0.133333  0.200000    0.00029630 105 t-inv F
  0.133333  0.333333  0.466667    0.00029630 105 t-inv F
 -0.133333 -0.333333 -0.466667    0.00029630 105 t-inv F
  0.466667 -0.333333 -0.133333    0.00029630 106 t-inv F
  0.133333 -0.466667  0.333333    0.00029630 106 t-inv F
 -0.133333  0.466667 -0.333333    0.00029630 106 t-inv F
  0.333333  0.133333 -0.466667    0.00029630 106 t-inv F
 -0.333333 -0.133333  0.466667    0.00029630 106 t-inv F
  0.333333  0.200000  0.800000    0.00029630 106 t-inv F
 -0.333333 -0.200000 -0.800000    0.00029630 106 t-inv F
 -0.466667 -0.800000 -0.600000    0.00029630 106 t-inv F
  0.466667  0.800000  0.600000    0.00029630 106 t-inv F
  0.133333  0.600000 -0.200000    0.00029630 106 t-inv F
 -0.133333 -0.600000  0.200000    0.00029630 106 t-inv F
  0.200000 -0.600000 -0.133333    0.00029630 106 t-inv F
 -0.200000  0.600000  0.133333    0.00029630 106 t-inv F
 -0.800000 -0.200000 -0.333333    0.00029630 106 t-inv F
  0.800000  0.200000  0.333333    0.00029630 106 t-inv F
  0.600000  0.800000  0.466667    0.00029630 106 t-inv F
 -0.600000 -0.800000 -0.466667    0.00029630 106 t-inv F
 -0.600000 -0.466667 -0.800000    0.00029630 106 t-inv F
  0.600000  0.466667  0.800000    0.00029630 106 t-inv F
 -0.200000  0.133333  0.600000    0.00029630 106 t-inv F
  0.200000 -0.133333 -0.600000    0.00029630 106 t-inv F
  0.800000  0.333333  0.200000    0.00029630 106 t-inv F
 -0.800000 -0.333333 -0.200000    0.00029630 106 t-inv F
 -0.133333  0.200000 -0.600000    0.00029630 106 t-inv F
  0.133333 -0.200000  0.600000    0.00029630 106 t-inv F
 -0.333333 -0.800000 -0.200000    0.00029630 106 t-inv F
  0.333333  0.800000  0.200000    0.00029630 106 t-inv F
  0.466667  0.600000  0.800000    0.00029630 106 t-inv F
 -0.466667 -0.600000 -0.800000    0.00029630 106 t-inv F
 -0.800000 -0.600000 -0.466667    0.00029630 106 t-inv F
  0.800000  0.600000  0.466667    0.00029630 106 t-inv F
  0.600000 -0.200000  0.133333    0.00029630 106 t-inv F
 -0.600000  0.200000 -0.133333    0.00029630 106 t-inv F
  0.200000  0.800000  0.333333    0.00029630 106 t-inv F
 -0.200000 -0.800000 -0.333333    0.00029630 106 t-inv F
 -0.600000 -0.133333  0.200000    0.00029630 106 t-inv F
  0.600000  0.133333 -0.200000    0.00029630 106 t-inv F
 -0.200000 -0.333333 -0.800000    0.00029630 106 t-inv F
  0.200000  0.333333  0.800000    0.00029630 106 t-inv F
  0.800000  0.466667  0.600000    0.00029630 106 t-inv F
 -0.800000 -0.466667 -0.600000    0.00029630 106 t-inv F
  0.466667 -0.133333 -0.333333    0.00029630 106 t-inv F
 -0.466667  0.133333  0.333333    0.00029630 106 t-inv F
 -0.333333  0.466667 -0.133333    0.00029630 106 t-inv F
  0.333333 -0.466667  0.133333    0.00029630 106 t-inv F
 -0.133333 -0.333333  0.466667    0.00029630 106 t-inv F
  0.133333  0.333333 -0.466667    0.00029630 106 t-inv F
  0.400000 -0.333333 -0.133333    0.00029630 107 t-inv F
  0.133333 -0.400000  0.333333    0.00029630 107 t-inv F
 -0.133333  0.400000 -0.333333    0.00029630 107 t-inv F
  0.333333  0.133333 -0.400000    0.00029630 107 t-inv F
 -0.333333 -0.133333  0.400000    0.00029630 107 t-inv F
  0.333333  0.200000  0.733333    0.00029630 107 t-inv F
 -0.333333 -0.200000 -0.733333    0.00029630 107 t-inv F
 -0.400000 -0.733333 -0.533333    0.00029630 107 t-inv F
  0.400000  0.733333  0.533333    0.00029630 107 t-inv F
  0.133333  0.533333 -0.200000    0.00029630 107 t-inv F
 -0.133333 -0.533333  0.200000    0.00029630 107 t-inv F
  0.200000 -0.533333 -0.133333    0.00029630 107 t-inv F
 -0.200000  0.533333  0.133333    0.00029630 107 t-inv F
 -0.733333 -0.200000 -0.333333    0.00029630 107 t-inv F
  0.733333  0.200000  0.333333    0.00029630 107 t-inv F
  0.533333  0.733333  0.400000    0.00029630 107 t-inv F
 -0.533333 -0.733333 -0.400000    0.00029630 107 t-inv F
 -0.533333 -0.400000 -0.733333    0.00029630 107 t-inv F
  0.533333  0.400000  0.733333    0.00029630 107 t-inv F
 -0.200000  0.133333  0.533333    0.00029630 107 t-inv F
  0.200000 -0.133333 -0.533333    0.00029630 107 t-inv F
  0.733333  0.333333  0.200000    0.00029630 107 t-inv F
 -0.733333 -0.333333 -0.200000    0.00029630 107 t-inv F
 -0.133333  0.200000 -0.533333    0.00029630 107 t-inv F
  0.133333 -0.200000  0.533333    0.00029630 107 t-inv F
 -0.333333 -0.733333 -0.200000    0.00029630 107 t-inv F
  0.333333  0.733333  0.200000    0.00029630 107 t-inv F
  0.400000  0.533333  0.733333    0.00029630 107 t-inv F
 -0.400000 -0.533333 -0.733333    0.00029630 107 t-inv F
 -0.733333 -0.533333 -0.400000    0.00029630 107 t-inv F
  0.733333  0.533333  0.400000    0.00029630 107 t-inv F
  0.533333 -0.200000  0.133333    0.00029630 107 t-inv F
 -0.533333  0.200000 -0.133333    0.00029630 107 t-inv F
  0.200000  0.733333  0.333333    0.00029630 107 t-inv F
 -0.200000 -0.733333 -0.333333    0.00029630 107 t-inv F
 -0.533333 -0.133333  0.200000    0.00029630 107 t-inv F
  0.533333  0.133333 -0.200000    0.00029630 107 t-inv F
 -0.200000 -0.333333 -0.733333    0.00029630 107 t-inv F
  0.200000  0.333333  0.733333    0.00029630 107 t-inv F
  0.733333  0.400000  0.533333    0.00029630 107 t-inv F
 -0.733333 -0.400000 -0.533333    0.00029630 107 t-inv F
  0.400000 -0.133333 -0.333333    0.00029630 107 t-inv F
 -0.400000  0.133333  0.333333    0.00029630 107 t-inv F
 -0.333333  0.400000 -0.133333    0.00029630 107 t-inv F
  0.333333 -0.400000  0.133333    0.00029630 107 t-inv F
 -0.133333 -0.333333  0.400000    0.00029630 107 t-inv F
  0.133333  0.333333 -0.400000    0.00029630 107 t-inv F
  0.333333 -0.333333 -0.133333    0.00029630 108 t-inv F
  0.133333 -0.333333  0.333333    0.00029630 108 t-inv F
 -0.133333  0.333333 -0.333333    0.00029630 108 t-inv F
  0.333333  0.133333 -0.333333    0.00029630 108 t-inv F
 -0.333333 -0.133333  0.333333    0.00029630 108 t-inv F
  0.333333  0.200000  0.666667    0.00029630 108 t-inv F
 -0.333333 -0.200000 -0.666667    0.00029630 108 t-inv F
 -0.333333 -0.666667 -0.466667    0.00029630 108 t-inv F
  0.333333  0.666667  0.466667    0.00029630 108 t-inv F
  0.133333  0.466667 -0.200000    0.00029630 108 t-inv F
 -0.133333 -0.466667  0.200000    0.00029630 108 t-inv F
  0.200000 -0.466667 -0.133333    0.00029630 108 t-inv F
 -0.200000  0.466667  0.133333    0.00029630 108 t-inv F
 -0.666667 -0.200000 -0.333333    0.00029630 108 t-inv F
  0.666667  0.200000  0.333333    0.00029630 108 t-inv F
  0.466667  0.666667  0.333333    0.00029630 108 t-inv F
 -0.466667 -0.666667 -0.333333    0.00029630 108 t-inv F
 -0.466667 -0.333333 -0.666667    0.00029630 108 t-inv F
  0.466667  0.333333  0.666667    0.00029630 108 t-inv F
 -0.200000  0.133333  0.466667    0.00029630 108 t-inv F
  0.200000 -0.133333 -0.466667    0.00029630 108 t-inv F
  0.666667  0.333333  0.200000    0.00029630 108 t-inv F
 -0.666667 -0.333333 -0.200000    0.00029630 108 t-inv F
 -0.133333  0.200000 -0.466667    0.00029630 108 t-inv F
  0.133333 -0.200000  0.466667    0.00029630 108 t-inv F
 -0.333333 -0.666667 -0.200000    0.00029630 108 t-inv F
  0.333333  0.666667  0.200000    0.00029630 108 t-inv F
  0.333333  0.466667  0.666667    0.00029630 108 t-inv F
 -0.333333 -0.466667 -0.666667    0.00029630 108 t-inv F
 -0.666667 -0.466667 -0.333333    0.00029630 108 t-inv F
  0.666667  0.466667  0.333333    0.00029630 108 t-inv F
  0.466667 -0.200000  0.133333    0.00029630 108 t-inv F
 -0.466667  0.200000 -0.133333    0.00029630 108 t-inv F
  0.200000  0.666667  0.333333    0.00029630 108 t-inv F
 -0.200000 -0.666667 -0.333333    0.00029630 108 t-inv F
 -0.466667 -0.133333  0.200000    0.00029630 108 t-inv F
  0.466667  0.133333 -0.200000    0.00029630 108 t-inv F
 -0.200000 -0.333333 -0.666667    0.00029630 108 t-inv F
  0.200000  0.333333  0.666667    0.00029630 108 t-inv F
  0.666667  0.333333  0.466667    0.00029630 108 t-inv F
 -0.666667 -0.333333 -0.466667    0.00029630 108 t-inv F
  0.333333 -0.133333 -0.333333    0.00029630 108 t-inv F
 -0.333333  0.133333  0.333333    0.00029630 108 t-inv F
 -0.333333  0.333333 -0.133333    0.00029630 108 t-inv F
  0.333333 -0.333333  0.133333    0.00029630 108 t-inv F
 -0.133333 -0.333333  0.333333    0.00029630 108 t-inv F
  0.133333  0.333333 -0.333333    0.00029630 108 t-inv F
  0.266667 -0.333333 -0.133333    0.00029630 109 t-inv F
  0.133333 -0.266667  0.333333    0.00029630 109 t-inv F
 -0.133333  0.266667 -0.333333    0.00029630 109 t-inv F
  0.333333  0.133333 -0.266667    0.00029630 109 t-inv F
 -0.333333 -0.133333  0.266667    0.00029630 109 t-inv F
  0.333333  0.200000  0.600000    0.00029630 109 t-inv F
 -0.333333 -0.200000 -0.600000    0.00029630 109 t-inv F
 -0.266667 -0.600000 -0.400000    0.00029630 109 t-inv F
  0.266667  0.600000  0.400000    0.00029630 109 t-inv F
  0.133333  0.400000 -0.200000    0.00029630 109 t-inv F
 -0.133333 -0.400000  0.200000    0.00029630 109 t-inv F
  0.200000 -0.400000 -0.133333    0.00029630 109 t-inv F
 -0.200000  0.400000  0.133333    0.00029630 109 t-inv F
 -0.600000 -0.200000 -0.333333    0.00029630 109 t-inv F
  0.600000  0.200000  0.333333    0.00029630 109 t-inv F
  0.400000  0.600000  0.266667    0.00029630 109 t-inv F
 -0.400000 -0.600000 -0.266667    0.00029630 109 t-inv F
 -0.400000 -0.266667 -0.600000    0.00029630 109 t-inv F
  0.400000  0.266667  0.600000    0.00029630 109 t-inv F
 -0.200000  0.133333  0.400000    0.00029630 109 t-inv F
  0.200000 -0.133333 -0.400000    0.00029630 109 t-inv F
  0.600000  0.333333  0.200000    0.00029630 109 t-inv F
 -0.600000 -0.333333 -0.200000    0.00029630 109 t-inv F
 -0.133333  0.200000 -0.400000    0.00029630 109 t-inv F
  0.133333 -0.200000  0.400000    0.00029630 109 t-inv F
 -0.333333 -0.600000 -0.200000    0.00029630 109 t-inv F
  0.333333  0.600000  0.200000    0.00029630 109 t-inv F
  0.266667  0.400000  0.600000    0.00029630 109 t-inv F
 -0.266667 -0.400000 -0.600000    0.00029630 109 t-inv F
 -0.600000 -0.400000 -0.266667    0.00029630 109 t-inv F
  0.600000  0.400000  0.266667    0.00029630 109 t-inv F
  0.400000 -0.200000  0.133333    0.00029630 109 t-inv F
 -0.400000  0.200000 -0.133333    0.00029630 109 t-inv F
  0.200000  0.600000  0.333333    0.00029630 109 t-inv F
 -0.200000 -0.600000 -0.333333    0.00029630 109 t-inv F
 -0.400000 -0.133333  0.200000    0.00029630 109 t-inv F
  0.400000  0.133333 -0.200000    0.00029630 109 t-inv F
 -0.200000 -0.333333 -0.600000    0.00029630 109 t-inv F
  0.200000  0.333333  0.600000    0.00029630 109 t-inv F
  0.600000  0.266667  0.400000    0.00029630 109 t-inv F
 -0.600000 -0.266667 -0.400000    0.00029630 109 t-inv F
  0.266667 -0.133333 -0.333333    0.00029630 109 t-inv F
 -0.266667  0.133333  0.333333    0.00029630 109 t-inv F
 -0.333333  0.266667 -0.133333    0.00029630 109 t-inv F
  0.333333 -0.266667  0.133333    0.00029630 109 t-inv F
 -0.133333 -0.333333  0.266667    0.00029630 109 t-inv F
  0.133333  0.333333 -0.266667    0.00029630 109 t-inv F
  0.200000 -0.333333 -0.133333    0.00029630 110 t-inv F
  0.133333 -0.200000  0.333333    0.00029630 110 t-inv F
 -0.133333  0.200000 -0.333333    0.00029630 110 t-inv F
  0.333333  0.133333 -0.200000    0.00029630 110 t-inv F
 -0.333333 -0.133333  0.200000    0.00029630 110 t-inv F
  0.333333  0.200000  0.533333    0.00029630 110 t-inv F
 -0.333333 -0.200000 -0.533333    0.00029630 110 t-inv F
 -0.200000 -0.533333 -0.333333    0.00029630 110 t-inv F
  0.200000  0.533333  0.333333    0.00029630 110 t-inv F
  0.133333  0.333333 -0.200000    0.00029630 110 t-inv F
 -0.133333 -0.333333  0.200000    0.00029630 110 t-inv F
 -0.533333 -0.200000 -0.333333    0.00029630 110 t-inv F
  0.533333  0.200000  0.333333    0.00029630 110 t-inv F
  0.333333  0.533333  0.200000    0.00029630 110 t-inv F
 -0.333333 -0.533333 -0.200000    0.00029630 110 t-inv F
 -0.200000  0.133333  0.333333    0.00029630 110 t-inv F
  0.200000 -0.133333 -0.333333    0.00029630 110 t-inv F
  0.533333  0.333333  0.200000    0.00029630 110 t-inv F
 -0.533333 -0.333333 -0.200000    0.00029630 110 t-inv F
  0.200000  0.333333  0.533333    0.00029630 110 t-inv F
 -0.200000 -0.333333 -0.533333    0.00029630 110 t-inv F
  0.333333 -0.200000  0.133333    0.00029630 110 t-inv F
 -0.333333  0.200000 -0.133333    0.00029630 110 t-inv F
  0.466667 -0.400000 -0.133333    0.00029630 111 t-inv F
  0.133333 -0.466667  0.400000    0.00029630 111 t-inv F
 -0.133333  0.466667 -0.400000    0.00029630 111 t-inv F
  0.400000  0.133333 -0.466667    0.00029630 111 t-inv F
 -0.400000 -0.133333  0.466667    0.00029630 111 t-inv F
  0.400000  0.266667  0.866667    0.00029630 111 t-inv F
 -0.400000 -0.266667 -0.866667    0.00029630 111 t-inv F
 -0.466667 -0.866667 -0.600000    0.00029630 111 t-inv F
  0.466667  0.866667  0.600000    0.00029630 111 t-inv F
  0.133333  0.600000 -0.266667    0.00029630 111 t-inv F
 -0.133333 -0.600000  0.266667    0.00029630 111 t-inv F
  0.266667 -0.600000 -0.133333    0.00029630 111 t-inv F
 -0.266667  0.600000  0.133333    0.00029630 111 t-inv F
 -0.866667 -0.266667 -0.400000    0.00029630 111 t-inv F
  0.866667  0.266667  0.400000    0.00029630 111 t-inv F
 -0.600000 -0.466667 -0.866667    0.00029630 111 t-inv F
  0.600000  0.466667  0.866667    0.00029630 111 t-inv F
 -0.266667  0.133333  0.600000    0.00029630 111 t-inv F
  0.266667 -0.133333 -0.600000    0.00029630 111 t-inv F
 -0.400000 -0.866667 -0.266667    0.00029630 111 t-inv F
  0.400000  0.866667  0.266667    0.00029630 111 t-inv F
 -0.866667 -0.600000 -0.466667    0.00029630 111 t-inv F
  0.866667  0.600000  0.466667    0.00029630 111 t-inv F
  0.400000 -0.400000 -0.133333    0.00029630 112 t-inv F
  0.133333 -0.400000  0.400000    0.00029630 112 t-inv F
 -0.133333  0.400000 -0.400000    0.00029630 112 t-inv F
  0.400000  0.133333 -0.400000    0.00029630 112 t-inv F
 -0.400000 -0.133333  0.400000    0.00029630 112 t-inv F
  0.400000  0.266667  0.800000    0.00029630 112 t-inv F
 -0.400000 -0.266667 -0.800000    0.00029630 112 t-inv F
 -0.400000 -0.800000 -0.533333    0.00029630 112 t-inv F
  0.400000  0.800000  0.533333    0.00029630 112 t-inv F
  0.133333  0.533333 -0.266667    0.00029630 112 t-inv F
 -0.133333 -0.533333  0.266667    0.00029630 112 t-inv F
  0.266667 -0.533333 -0.133333    0.00029630 112 t-inv F
 -0.266667  0.533333  0.133333    0.00029630 112 t-inv F
 -0.800000 -0.266667 -0.400000    0.00029630 112 t-inv F
  0.800000  0.266667  0.400000    0.00029630 112 t-inv F
  0.533333  0.800000  0.400000    0.00029630 112 t-inv F
 -0.533333 -0.800000 -0.400000    0.00029630 112 t-inv F
 -0.533333 -0.400000 -0.800000    0.00029630 112 t-inv F
  0.533333  0.400000  0.800000    0.00029630 112 t-inv F
 -0.266667  0.133333  0.533333    0.00029630 112 t-inv F
  0.266667 -0.133333 -0.533333    0.00029630 112 t-inv F
  0.800000  0.400000  0.266667    0.00029630 112 t-inv F
 -0.800000 -0.400000 -0.266667    0.00029630 112 t-inv F
 -0.133333  0.266667 -0.533333    0.00029630 112 t-inv F
  0.133333 -0.266667  0.533333    0.00029630 112 t-inv F
 -0.400000 -0.800000 -0.266667    0.00029630 112 t-inv F
  0.400000  0.800000  0.266667    0.00029630 112 t-inv F
  0.400000  0.533333  0.800000    0.00029630 112 t-inv F
 -0.400000 -0.533333 -0.800000    0.00029630 112 t-inv F
 -0.800000 -0.533333 -0.400000    0.00029630 112 t-inv F
  0.800000  0.533333  0.400000    0.00029630 112 t-inv F
  0.533333 -0.266667  0.133333    0.00029630 112 t-inv F
 -0.533333  0.266667 -0.133333    0.00029630 112 t-inv F
  0.266667  0.800000  0.400000    0.00029630 112 t-inv F
 -0.266667 -0.800000 -0.400000    0.00029630 112 t-inv F
 -0.533333 -0.133333  0.266667    0.00029630 112 t-inv F
  0.533333  0.133333 -0.266667    0.00029630 112 t-inv F
 -0.266667 -0.400000 -0.800000    0.00029630 112 t-inv F
  0.266667  0.400000  0.800000    0.00029630 112 t-inv F
  0.800000  0.400000  0.533333    0.00029630 112 t-inv F
 -0.800000 -0.400000 -0.533333    0.00029630 112 t-inv F
  0.400000 -0.133333 -0.400000    0.00029630 112 t-inv F
 -0.400000  0.133333  0.400000    0.00029630 112 t-inv F
 -0.400000  0.400000 -0.133333    0.00029630 112 t-inv F
  0.400000 -0.400000  0.133333    0.00029630 112 t-inv F
 -0.133333 -0.400000  0.400000    0.00029630 112 t-inv F
  0.133333  0.400000 -0.400000    0.00029630 112 t-inv F
  0.333333 -0.400000 -0.133333    0.00029630 113 t-inv F
  0.133333 -0.333333  0.400000    0.00029630 113 t-inv F
 -0.133333  0.333333 -0.400000    0.00029630 113 t-inv F
  0.400000  0.133333 -0.333333    0.00029630 113 t-inv F
 -0.400000 -0.133333  0.333333    0.00029630 113 t-inv F
  0.400000  0.266667  0.733333    0.00029630 113 t-inv F
 -0.400000 -0.266667 -0.733333    0.00029630 113 t-inv F
 -0.333333 -0.733333 -0.466667    0.00029630 113 t-inv F
  0.333333  0.733333  0.466667    0.00029630 113 t-inv F
  0.133333  0.466667 -0.266667    0.00029630 113 t-inv F
 -0.133333 -0.466667  0.266667    0.00029630 113 t-inv F
  0.266667 -0.466667 -0.133333    0.00029630 113 t-inv F
 -0.266667  0.466667  0.133333    0.00029630 113 t-inv F
 -0.733333 -0.266667 -0.400000    0.00029630 113 t-inv F
  0.733333  0.266667  0.400000    0.00029630 113 t-inv F
  0.466667  0.733333  0.333333    0.00029630 113 t-inv F
 -0.466667 -0.733333 -0.333333    0.00029630 113 t-inv F
 -0.466667 -0.333333 -0.733333    0.00029630 113 t-inv F
  0.466667  0.333333  0.733333    0.00029630 113 t-inv F
 -0.266667  0.133333  0.466667    0.00029630 113 t-inv F
  0.266667 -0.133333 -0.466667    0.00029630 113 t-inv F
  0.733333  0.400000  0.266667    0.00029630 113 t-inv F
 -0.733333 -0.400000 -0.266667    0.00029630 113 t-inv F
 -0.133333  0.266667 -0.466667    0.00029630 113 t-inv F
  0.133333 -0.266667  0.466667    0.00029630 113 t-inv F
 -0.400000 -0.733333 -0.266667    0.00029630 113 t-inv F
  0.400000  0.733333  0.266667    0.00029630 113 t-inv F
  0.333333  0.466667  0.733333    0.00029630 113 t-inv F
 -0.333333 -0.466667 -0.733333    0.00029630 113 t-inv F
 -0.733333 -0.466667 -0.333333    0.00029630 113 t-inv F
  0.733333  0.466667  0.333333    0.00029630 113 t-inv F
  0.466667 -0.266667  0.133333    0.00029630 113 t-inv F
 -0.466667  0.266667 -0.133333    0.00029630 113 t-inv F
  0.266667  0.733333  0.400000    0.00029630 113 t-inv F
 -0.266667 -0.733333 -0.400000    0.00029630 113 t-inv F
 -0.466667 -0.133333  0.266667    0.00029630 113 t-inv F
  0.466667  0.133333 -0.266667    0.00029630 113 t-inv F
 -0.266667 -0.400000 -0.733333    0.00029630 113 t-inv F
  0.266667  0.400000  0.733333    0.00029630 113 t-inv F
  0.733333  0.333333  0.466667    0.00029630 113 t-inv F
 -0.733333 -0.333333 -0.466667    0.00029630 113 t-inv F
  0.333333 -0.133333 -0.400000    0.00029630 113 t-inv F
 -0.333333  0.133333  0.400000    0.00029630 113 t-inv F
 -0.400000  0.333333 -0.133333    0.00029630 113 t-inv F
  0.400000 -0.333333  0.133333    0.00029630 113 t-inv F
 -0.133333 -0.400000  0.333333    0.00029630 113 t-inv F
  0.133333  0.400000 -0.333333    0.00029630 113 t-inv F
  0.266667 -0.400000 -0.133333    0.00029630 114 t-inv F
  0.133333 -0.266667  0.400000    0.00029630 114 t-inv F
 -0.133333  0.266667 -0.400000    0.00029630 114 t-inv F
  0.400000  0.133333 -0.266667    0.00029630 114 t-inv F
 -0.400000 -0.133333  0.266667    0.00029630 114 t-inv F
  0.400000  0.266667  0.666667    0.00029630 114 t-inv F
 -0.400000 -0.266667 -0.666667    0.00029630 114 t-inv F
 -0.266667 -0.666667 -0.400000    0.00029630 114 t-inv F
  0.266667  0.666667  0.400000    0.00029630 114 t-inv F
  0.133333  0.400000 -0.266667    0.00029630 114 t-inv F
 -0.133333 -0.400000  0.266667    0.00029630 114 t-inv F
 -0.666667 -0.266667 -0.400000    0.00029630 114 t-inv F
  0.666667  0.266667  0.400000    0.00029630 114 t-inv F
  0.400000  0.666667  0.266667    0.00029630 114 t-inv F
 -0.400000 -0.666667 -0.266667    0.00029630 114 t-inv F
 -0.266667  0.133333  0.400000    0.00029630 114 t-inv F
  0.266667 -0.133333 -0.400000    0.00029630 114 t-inv F
  0.666667  0.400000  0.266667    0.00029630 114 t-inv F
 -0.666667 -0.400000 -0.266667    0.00029630 114 t-inv F
  0.266667  0.400000  0.666667    0.00029630 114 t-inv F
 -0.266667 -0.400000 -0.666667    0.00029630 114 t-inv F
  0.400000 -0.266667  0.133333    0.00029630 114 t-inv F
 -0.400000  0.266667 -0.133333    0.00029630 114 t-inv F
  0.400000 -0.466667 -0.133333    0.00029630 115 t-inv F
  0.133333 -0.400000  0.466667    0.00029630 115 t-inv F
 -0.133333  0.400000 -0.466667    0.00029630 115 t-inv F
  0.466667  0.133333 -0.400000    0.00029630 115 t-inv F
 -0.466667 -0.133333  0.400000    0.00029630 115 t-inv F
  0.466667  0.333333  0.866667    0.00029630 115 t-inv F
 -0.466667 -0.333333 -0.866667    0.00029630 115 t-inv F
 -0.400000 -0.866667 -0.533333    0.00029630 115 t-inv F
  0.400000  0.866667  0.533333    0.00029630 115 t-inv F
  0.133333  0.533333 -0.333333    0.00029630 115 t-inv F
 -0.133333 -0.533333  0.333333    0.00029630 115 t-inv F
  0.333333 -0.533333 -0.133333    0.00029630 115 t-inv F
 -0.333333  0.533333  0.133333    0.00029630 115 t-inv F
 -0.866667 -0.333333 -0.466667    0.00029630 115 t-inv F
  0.866667  0.333333  0.466667    0.00029630 115 t-inv F
 -0.533333 -0.400000 -0.866667    0.00029630 115 t-inv F
  0.533333  0.400000  0.866667    0.00029630 115 t-inv F
 -0.333333  0.133333  0.533333    0.00029630 115 t-inv F
  0.333333 -0.133333 -0.533333    0.00029630 115 t-inv F
 -0.466667 -0.866667 -0.333333    0.00029630 115 t-inv F
  0.466667  0.866667  0.333333    0.00029630 115 t-inv F
 -0.866667 -0.533333 -0.400000    0.00029630 115 t-inv F
  0.866667  0.533333  0.400000    0.00029630 115 t-inv F
  0.333333 -0.466667 -0.133333    0.00029630 116 t-inv F
  0.133333 -0.333333  0.466667    0.00029630 116 t-inv F
 -0.133333  0.333333 -0.466667    0.00029630 116 t-inv F
  0.466667  0.133333 -0.333333    0.00029630 116 t-inv F
 -0.466667 -0.133333  0.333333    0.00029630 116 t-inv F
  0.466667  0.333333  0.800000    0.00029630 116 t-inv F
 -0.466667 -0.333333 -0.800000    0.00029630 116 t-inv F
 -0.333333 -0.800000 -0.466667    0.00029630 116 t-inv F
  0.333333  0.800000  0.466667    0.00029630 116 t-inv F
  0.133333  0.466667 -0.333333    0.00029630 116 t-inv F
 -0.133333 -0.466667  0.333333    0.00029630 116 t-inv F
 -0.800000 -0.333333 -0.466667    0.00029630 116 t-inv F
  0.800000  0.333333  0.466667    0.00029630 116 t-inv F
  0.466667  0.800000  0.333333    0.00029630 116 t-inv F
 -0.466667 -0.800000 -0.333333    0.00029630 116 t-inv F
 -0.333333  0.133333  0.466667    0.00029630 116 t-inv F
  0.333333 -0.133333 -0.466667    0.00029630 116 t-inv F
  0.800000  0.466667  0.333333    0.00029630 116 t-inv F
 -0.800000 -0.466667 -0.333333    0.00029630 116 t-inv F
  0.333333  0.466667  0.800000    0.00029630 116 t-inv F
 -0.333333 -0.466667 -0.800000    0.00029630 116 t-inv F
  0.466667 -0.333333  0.133333    0.00029630 116 t-inv F
 -0.466667  0.333333 -0.133333    0.00029630 116 t-inv F
  0.400000 -0.400000 -0.200000    0.00029630 117 t-inv F
  0.200000 -0.400000  0.400000    0.00029630 117 t-inv F
 -0.200000  0.400000 -0.400000    0.00029630 117 t-inv F
  0.400000  0.200000 -0.400000    0.00029630 117 t-inv F
 -0.400000 -0.200000  0.400000    0.00029630 117 t-inv F
  0.400000  0.200000  0.800000    0.00029630 117 t-inv F
 -0.400000 -0.200000 -0.800000    0.00029630 117 t-inv F
 -0.400000 -0.800000 -0.600000    0.00029630 117 t-inv F
  0.400000  0.800000  0.600000    0.00029630 117 t-inv F
  0.200000  0.600000 -0.200000    0.00029630 117 t-inv F
 -0.200000 -0.600000  0.200000    0.00029630 117 t-inv F
  0.200000 -0.600000 -0.200000    0.00029630 117 t-inv F
 -0.200000  0.600000  0.200000    0.00029630 117 t-inv F
 -0.800000 -0.200000 -0.400000    0.00029630 117 t-inv F
  0.800000  0.200000  0.400000    0.00029630 117 t-inv F
 -0.600000 -0.400000 -0.800000    0.00029630 117 t-inv F
  0.600000  0.400000  0.800000    0.00029630 117 t-inv F
 -0.200000  0.200000  0.600000    0.00029630 117 t-inv F
  0.200000 -0.200000 -0.600000    0.00029630 117 t-inv F
 -0.400000 -0.800000 -0.200000    0.00029630 117 t-inv F
  0.400000  0.800000  0.200000    0.00029630 117 t-inv F
 -0.800000 -0.600000 -0.400000    0.00029630 117 t-inv F
  0.800000  0.600000  0.400000    0.00029630 117 t-inv F
  0.333333 -0.400000 -0.200000    0.00029630 118 t-inv F
  0.200000 -0.333333  0.400000    0.00029630 118 t-inv F
 -0.200000  0.333333 -0.400000    0.00029630 118 t-inv F
  0.400000  0.200000 -0.333333    0.00029630 118 t-inv F
 -0.400000 -0.200000  0.333333    0.00029630 118 t-inv F
  0.400000  0.200000  0.733333    0.00029630 118 t-inv F
 -0.400000 -0.200000 -0.733333    0.00029630 118 t-inv F
 -0.333333 -0.733333 -0.533333    0.00029630 118 t-inv F
  0.333333  0.733333  0.533333    0.00029630 118 t-inv F
  0.200000  0.533333 -0.200000    0.00029630 118 t-inv F
 -0.200000 -0.533333  0.200000    0.00029630 118 t-inv F
  0.200000 -0.533333 -0.200000    0.00029630 118 t-inv F
 -0.200000  0.533333  0.200000    0.00029630 118 t-inv F
 -0.733333 -0.200000 -0.400000    0.00029630 118 t-inv F
  0.733333  0.200000  0.400000    0.00029630 118 t-inv F
  0.533333  0.733333  0.333333    0.00029630 118 t-inv F
 -0.533333 -0.733333 -0.333333    0.00029630 118 t-inv F
 -0.533333 -0.333333 -0.733333    0.00029630 118 t-inv F
  0.533333  0.333333  0.733333    0.00029630 118 t-inv F
 -0.200000  0.200000  0.533333    0.00029630 118 t-inv F
  0.200000 -0.200000 -0.533333    0.00029630 118 t-inv F
  0.733333  0.400000  0.200000    0.00029630 118 t-inv F
 -0.733333 -0.400000 -0.200000    0.00029630 118 t-inv F
 -0.200000  0.200000 -0.533333    0.00029630 118 t-inv F
  0.200000 -0.200000  0.533333    0.00029630 118 t-inv F
 -0.400000 -0.733333 -0.200000    0.00029630 118 t-inv F
  0.400000  0.733333  0.200000    0.00029630 118 t-inv F
  0.333333  0.533333  0.733333    0.00029630 118 t-inv F
 -0.333333 -0.533333 -0.733333    0.00029630 118 t-inv F
 -0.733333 -0.533333 -0.333333    0.00029630 118 t-inv F
  0.733333  0.533333  0.333333    0.00029630 118 t-inv F
  0.533333 -0.200000  0.200000    0.00029630 118 t-inv F
 -0.533333  0.200000 -0.200000    0.00029630 118 t-inv F
  0.200000  0.733333  0.400000    0.00029630 118 t-inv F
 -0.200000 -0.733333 -0.400000    0.00029630 118 t-inv F
 -0.533333 -0.200000  0.200000    0.00029630 118 t-inv F
  0.533333  0.200000 -0.200000    0.00029630 118 t-inv F
 -0.200000 -0.400000 -0.733333    0.00029630 118 t-inv F
  0.200000  0.400000  0.733333    0.00029630 118 t-inv F
  0.733333  0.333333  0.533333    0.00029630 118 t-inv F
 -0.733333 -0.333333 -0.533333    0.00029630 118 t-inv F
  0.333333 -0.200000 -0.400000    0.00029630 118 t-inv F
 -0.333333  0.200000  0.400000    0.00029630 118 t-inv F
 -0.400000  0.333333 -0.200000    0.00029630 118 t-inv F
  0.400000 -0.333333  0.200000    0.00029630 118 t-inv F
 -0.200000 -0.400000  0.333333    0.00029630 118 t-inv F
  0.200000  0.400000 -0.333333    0.00029630 118 t-inv F
  0.333333 -0.466667 -0.200000    0.00029630 119 t-inv F
  0.200000 -0.333333  0.466667    0.00029630 119 t-inv F
 -0.200000  0.333333 -0.466667    0.00029630 119 t-inv F
  0.466667  0.200000 -0.333333    0.00029630 119 t-inv F
 -0.466667 -0.200000  0.333333    0.00029630 119 t-inv F
  0.466667  0.266667  0.800000    0.00029630 119 t-inv F
 -0.466667 -0.266667 -0.800000    0.00029630 119 t-inv F
 -0.333333 -0.800000 -0.533333    0.00029630 119 t-inv F
  0.333333  0.800000  0.533333    0.00029630 119 t-inv F
  0.200000  0.533333 -0.266667    0.00029630 119 t-inv F
 -0.200000 -0.533333  0.266667    0.00029630 119 t-inv F
  0.266667 -0.533333 -0.200000    0.00029630 119 t-inv F
 -0.266667  0.533333  0.200000    0.00029630 119 t-inv F
 -0.800000 -0.266667 -0.466667    0.00029630 119 t-inv F
  0.800000  0.266667  0.466667    0.00029630 119 t-inv F
 -0.533333 -0.333333 -0.800000    0.00029630 119 t-inv F
  0.533333  0.333333  0.800000    0.00029630 119 t-inv F
 -0.266667  0.200000  0.533333    0.00029630 119 t-inv F
  0.266667 -0.200000 -0.533333    0.00029630 119 t-inv F
 -0.466667 -0.800000 -0.266667    0.00029630 119 t-inv F
  0.466667  0.800000  0.266667    0.00029630 119 t-inv F
 -0.800000 -0.533333 -0.333333    0.00029630 119 t-inv F
  0.800000  0.533333  0.333333    0.00029630 119 t-inv F
  0.266667 -0.466667 -0.200000    0.00029630 120 t-inv F
  0.200000 -0.266667  0.466667    0.00029630 120 t-inv F
 -0.200000  0.266667 -0.466667    0.00029630 120 t-inv F
  0.466667  0.200000 -0.266667    0.00029630 120 t-inv F
 -0.466667 -0.200000  0.266667    0.00029630 120 t-inv F
  0.466667  0.266667  0.733333    0.00029630 120 t-inv F
 -0.466667 -0.266667 -0.733333    0.00029630 120 t-inv F
 -0.266667 -0.733333 -0.466667    0.00029630 120 t-inv F
  0.266667  0.733333  0.466667    0.00029630 120 t-inv F
  0.200000  0.466667 -0.266667    0.00029630 120 t-inv F
 -0.200000 -0.466667  0.266667    0.00029630 120 t-inv F
 -0.733333 -0.266667 -0.466667    0.00029630 120 t-inv F
  0.733333  0.266667  0.466667    0.00029630 120 t-inv F
  0.466667  0.733333  0.266667    0.00029630 120 t-inv F
 -0.466667 -0.733333 -0.266667    0.00029630 120 t-inv F
 -0.266667  0.200000  0.466667    0.00029630 120 t-inv F
  0.266667 -0.200000 -0.466667    0.00029630 120 t-inv F
  0.733333  0.466667  0.266667    0.00029630 120 t-inv F
 -0.733333 -0.466667 -0.266667    0.00029630 120 t-inv F
  0.266667  0.466667  0.733333    0.00029630 120 t-inv F
 -0.266667 -0.466667 -0.733333    0.00029630 120 t-inv F
  0.466667 -0.266667  0.200000    0.00029630 120 t-inv F
 -0.466667  0.266667 -0.200000    0.00029630 120 t-inv F
 -----------------------------------------------------------------------------
|                                                                             |
|           W    W    AA    RRRRR   N    N  II  N    N   GGGG   !!!           |
|           W    W   A  A   R    R  NN   N  II  NN   N  G    G  !!!           |
|           W    W  A    A  R    R  N N  N  II  N N  N  G       !!!           |
|           W WW W  AAAAAA  RRRRR   N  N N  II  N  N N  G  GGG   !            |
|           WW  WW  A    A  R   R   N   NN  II  N   NN  G    G                |
|           W    W  A    A  R    R  N    N  II  N    N   GGGG   !!!           |
|                                                                             |
|     The number of bands has been changed from the values supplied in        |
|     the INCAR file. This is a result of running the parallel version.       |
|     The orbitals not found in the WAVECAR file will be initialized with     |
|     random numbers, which is usually adequate. For correlated               |
|     calculations, however, you should redo the groundstate calculation.     |
|     I found NBANDS = 30. Now, NBANDS = 36.                                  |
|                                                                             |
 -----------------------------------------------------------------------------



--------------------------------------------------------------------------------------------------------




 Dimension of arrays:
   k-points           NKPTS =    120   k-points in BZ     NKDIM =    120   number of bands    NBANDS=     36
   number of dos      NEDOS =    301   number of ions     NIONS =      2
   non local maximal  LDIM  =      4   non local SUM 2l+1 LMDIM =      8
   total plane-waves  NPLWV =  32768
   max r-space proj   IRMAX =      1   max aug-charges    IRDMAX=  20604
   dimension x,y,z NGX =    32 NGY =   32 NGZ =   32
   dimension x,y,z NGXF=    64 NGYF=   64 NGZF=   64
   support grid    NGXF=    64 NGYF=   64 NGZF=   64
   ions per type =               1   1
   NGX,Y,Z   is equivalent  to a cutoff of  13.21, 13.21, 13.21 a.u.
   NGXF,Y,Z  is equivalent  to a cutoff of  26.42, 26.42, 26.42 a.u.

 SYSTEM =  unknown system                          
 POSCAR =  Generated by VASPKIT code               

 Startparameter for this run:
   NWRITE =      2    write-flag & timer
   PREC   = accura    normal or accurate (medium, high low for compatibility)
   ISTART =      0    job   : 0-new  1-cont  2-samecut
   ICHARG =      2    charge: 1-file 2-atom 10-const
   ISPIN  =      1    spin polarized calculation?
   LNONCOLLINEAR =      F non collinear calculations
   LSORBIT =      F    spin-orbit coupling
   INIWAV =      1    electr: 0-lowe 1-rand  2-diag
   LASPH  =      F    aspherical Exc in radial PAW
 Electronic Relaxation 1
   ENCUT  =  550.0 eV  40.42 Ry    6.36 a.u.   7.70  7.70  7.70*2*pi/ulx,y,z
   ENINI  =  550.0     initial cutoff
   ENAUG  =  368.1 eV  augmentation charge cutoff
   NELM   =    200;   NELMIN=  2; NELMDL= -5     # of ELM steps 
   EDIFF  = 0.1E-07   stopping-criterion for ELM
   LREAL  =      F    real-space projection
   NLSPLINE    = F    spline interpolate recip. space projectors
   LCOMPAT=      F    compatible to vasp.4.4
   GGA_COMPAT  = T    GGA compatible to vasp.4.4-vasp.4.6
   LMAXPAW     = -100 max onsite density
   LMAXMIX     =    2 max onsite mixed and CHGCAR
   VOSKOWN=      0    Vosko Wilk Nusair interpolation
   ROPT   =    0.00000   0.00000
 Ionic relaxation
   EDIFFG = 0.1E-06   stopping-criterion for IOM
   NSW    =      0    number of steps for IOM
   NBLOCK =      1;   KBLOCK =      1    inner block; outer block 
   IBRION =     -1    ionic relax: 0-MD 1-quasi-New 2-CG
   NFREE  =      0    steps in history (QN), initial steepest desc. (CG)
   ISIF   =      2    stress and relaxation
   IWAVPR =     10    prediction:  0-non 1-charg 2-wave 3-comb
   ISYM   =      2    0-nonsym 1-usesym 2-fastsym
   LCORR  =      T    Harris-Foulkes like correction to forces

   POTIM  = 0.5000    time-step for ionic-motion
   TEIN   =    0.0    initial temperature
   TEBEG  =    0.0;   TEEND  =   0.0 temperature during run
   SMASS  =  -3.00    Nose mass-parameter (am)
   estimated Nose-frequenzy (Omega)   =  0.10E-29 period in steps = 0.13E+47 mass=  -0.371E-27a.u.
   SCALEE = 1.0000    scale energy and forces
   NPACO  =    256;   APACO  = 10.0  distance and # of slots for P.C.
   PSTRESS=    0.0 pullay stress

  Mass of Ions in am
   POMASS =  22.99 35.45
  Ionic Valenz
   ZVAL   =   7.00  7.00
  Atomic Wigner-Seitz radii
   RWIGS  =  -1.00 -1.00
  virtual crystal weights 
   VCA    =   1.00  1.00
   NELECT =      14.0000    total number of electrons
   NUPDOWN=      -1.0000    fix difference up-down

 DOS related values:
   EMIN   =  10.00;   EMAX   =-10.00  energy-range for DOS
   EFERMI =   0.00;   METHOD = LEGACY      
   ISMEAR =     0;   SIGMA  =   0.05  broadening in eV -4-tet -1-fermi 0-gaus

 Electronic relaxation 2 (details)
   IALGO  =     38    algorithm
   LDIAG  =      T    sub-space diagonalisation (order eigenvalues)
   LSUBROT=      F    optimize rotation matrix (better conditioning)
   TURBO    =      0    0=normal 1=particle mesh
   IRESTART =      0    0=no restart 2=restart with 2 vectors
   NREBOOT  =      0    no. of reboots
   NMIN     =      0    reboot dimension
   EREF     =   0.00    reference energy to select bands
   IMIX   =      4    mixing-type and parameters
     AMIX     =   0.40;   BMIX     =  1.00
     AMIX_MAG =   1.60;   BMIX_MAG =  1.00
     AMIN     =   0.10
     WC   =   100.;   INIMIX=   1;  MIXPRE=   1;  MAXMIX= -45

 Intra band minimization:
   WEIMIN = 0.0000     energy-eigenvalue tresh-hold
   EBREAK =  0.69E-10  absolut break condition
   DEPER  =   0.30     relativ break condition  

   TIME   =   0.40     timestep for ELM

  volume/ion in A,a.u.               =      23.08       155.76
  Fermi-wavevector in a.u.,A,eV,Ry     =   1.099914  2.078536 16.460473  1.209811
  Thomas-Fermi vector in A             =   2.236316
 
 Write flags
   LWAVE        =      T    write WAVECAR
   LDOWNSAMPLE  =      F    k-point downsampling of WAVECAR
   LCHARG       =      T    write CHGCAR
   LVTOT        =      F    write LOCPOT, total local potential
   LVHAR        =      F    write LOCPOT, Hartree potential only
   LELF         =      F    write electronic localiz. function (ELF)
   LORBIT       =     11    0 simple, 1 ext, 2 COOP (PROOUT), +10 PAW based schemes


 Dipole corrections
   LMONO  =      F    monopole corrections only (constant potential shift)
   LDIPOL =      F    correct potential (dipole corrections)
   IDIPOL =      0    1-x, 2-y, 3-z, 4-all directions 
   EPSILON=  1.0000000 bulk dielectric constant

 Exchange correlation treatment:
   GGA     =    --    GGA type
   LEXCH   =     8    internal setting for exchange type
   LIBXC   =     F    Libxc                    
   VOSKOWN =     0    Vosko Wilk Nusair interpolation
   LHFCALC =     F    Hartree Fock is set to
   LHFONE  =     F    Hartree Fock one center treatment
   AEXX    =    0.0000 exact exchange contribution

 Linear response parameters
   LEPSILON=     F    determine dielectric tensor
   LRPA    =     F    only Hartree local field effects (RPA)
   LNABLA  =     F    use nabla operator in PAW spheres
   LVEL    =     F    velocity operator in full k-point grid
   CSHIFT  =0.1000    complex shift for real part using Kramers Kronig
   OMEGAMAX=  -1.0    maximum frequency
   DEG_THRESHOLD= 0.2000000E-02 threshold for treating states as degnerate
   RTIME   =   -0.100 relaxation time in fs
  (WPLASMAI=    0.000 imaginary part of plasma frequency in eV, 0.658/RTIME)
   DFIELD  = 0.0000000 0.0000000 0.0000000 field for delta impulse in time
 
  Optional k-point grid parameters
   LKPOINTS_OPT  =     F    use optional k-point grid
   KPOINTS_OPT_MODE=     1    mode for optional k-point grid
 
 Orbital magnetization related:
   ORBITALMAG=     F  switch on orbital magnetization
   LCHIMAG   =     F  perturbation theory with respect to B field
   DQ        =  0.001000  dq finite difference perturbation B field
   LLRAUG    =     F  two centre corrections for induced B field
   LBONE     =     F  B-component reconstruction in AE one-centre
   LVGVCALC  =     T  calculate vGv susceptibility
   LVGVAPPL  =     F  apply vGv susceptibility instead of pGv for G=0

 Random number generation:
   RANDOM_GENERATOR = DEFAULT
   PCG_SEED         = not used


--------------------------------------------------------------------------------------------------------


 Static calculation
 charge density and potential will be updated during run
 non-spin polarized calculation
 Variant of blocked Davidson
 Davidson routine will perform the subspace rotation
 perform sub-space diagonalisation
    after iterative eigenvector-optimisation
 modified Broyden-mixing scheme, WC =      100.0
 initial mixing is a Kerker type mixing with AMIX =  0.4000 and BMIX =      1.0000
 Hartree-type preconditioning will be used
 using additional bands           29
 reciprocal scheme for non local part
 use partial core corrections
 calculate Harris-corrections to forces 
   (improved forces if not selfconsistent)
 use gradient corrections 
 use of overlap-Matrix (Vanderbilt PP)
 Gauss-broadening in eV      SIGMA  =   0.05


--------------------------------------------------------------------------------------------------------


  energy-cutoff  :      550.00
  volume of cell :       46.16
      direct lattice vectors                 reciprocal lattice vectors
     0.000000000  2.847183628  2.847183628    -0.175612137  0.175612137  0.175612137
     2.847183628  0.000000000  2.847183628     0.175612137 -0.175612137  0.175612137
     2.847183628  2.847183628  0.000000000     0.175612137  0.175612137 -0.175612137

  length of vectors
     4.026525701  4.026525701  4.026525701     0.304169143  0.304169143  0.304169143


 
 k-points in units of 2pi/SCALE and weight: K-Spacing Value to Generate K-Mesh: 0.02
   0.00000000  0.00000000  0.00000000       0.000
  -0.01170748  0.01170748  0.01170748       0.002
  -0.02341495  0.02341495  0.02341495       0.002
  -0.03512243  0.03512243  0.03512243       0.002
  -0.04682990  0.04682990  0.04682990       0.002
  -0.05853738  0.05853738  0.05853738       0.002
  -0.07024485  0.07024485  0.07024485       0.002
  -0.08195233  0.08195233  0.08195233       0.002
   0.00000000  0.00000000  0.02341495       0.002
  -0.01170748  0.01170748  0.03512243       0.007
  -0.02341495  0.02341495  0.04682990       0.007
  -0.03512243  0.03512243  0.05853738       0.007
  -0.04682990  0.04682990  0.07024485       0.007
  -0.05853738  0.05853738  0.08195233       0.007
  -0.07024485  0.07024485  0.09365981       0.007
   0.09365981 -0.09365981 -0.07024485       0.007
   0.08195233 -0.08195233 -0.05853738       0.007
   0.07024485 -0.07024485 -0.04682990       0.007
   0.05853738 -0.05853738 -0.03512243       0.007
   0.04682990 -0.04682990 -0.02341495       0.007
   0.03512243 -0.03512243 -0.01170748       0.007
   0.02341495 -0.02341495  0.00000000       0.004
   0.00000000  0.00000000  0.04682990       0.002
  -0.01170748  0.01170748  0.05853738       0.007
  -0.02341495  0.02341495  0.07024485       0.007
  -0.03512243  0.03512243  0.08195233       0.007
  -0.04682990  0.04682990  0.09365981       0.007
  -0.05853738  0.05853738  0.10536728       0.007
   0.10536728 -0.10536728 -0.05853738       0.007
   0.09365981 -0.09365981 -0.04682990       0.007
   0.08195233 -0.08195233 -0.03512243       0.007
   0.07024485 -0.07024485 -0.02341495       0.007
   0.05853738 -0.05853738 -0.01170748       0.007
   0.04682990 -0.04682990  0.00000000       0.004
   0.00000000  0.00000000  0.07024485       0.002
  -0.01170748  0.01170748  0.08195233       0.007
  -0.02341495  0.02341495  0.09365981       0.007
  -0.03512243  0.03512243  0.10536728       0.007
  -0.04682990  0.04682990  0.11707476       0.007
   0.11707476 -0.11707476 -0.04682990       0.007
   0.10536728 -0.10536728 -0.03512243       0.007
   0.09365981 -0.09365981 -0.02341495       0.007
   0.08195233 -0.08195233 -0.01170748       0.007
   0.07024485 -0.07024485  0.00000000       0.004
   0.00000000  0.00000000  0.09365981       0.002
  -0.01170748  0.01170748  0.10536728       0.007
  -0.02341495  0.02341495  0.11707476       0.007
  -0.03512243  0.03512243  0.12878223       0.007
   0.12878223 -0.12878223 -0.03512243       0.007
   0.11707476 -0.11707476 -0.02341495       0.007
   0.10536728 -0.10536728 -0.01170748       0.007
   0.09365981 -0.09365981  0.00000000       0.004
   0.00000000  0.00000000  0.11707476       0.002
  -0.01170748  0.01170748  0.12878223       0.007
  -0.02341495  0.02341495  0.14048971       0.007
   0.14048971 -0.14048971 -0.02341495       0.007
   0.12878223 -0.12878223 -0.01170748       0.007
   0.11707476 -0.11707476  0.00000000       0.004
   0.00000000  0.00000000  0.14048971       0.002
  -0.01170748  0.01170748  0.15219718       0.007
   0.15219718 -0.15219718 -0.01170748       0.007
   0.14048971 -0.14048971  0.00000000       0.004
   0.00000000  0.00000000  0.16390466       0.002
   0.16390466 -0.16390466  0.00000000       0.004
   0.00000000  0.02341495  0.04682990       0.007
  -0.01170748  0.03512243  0.05853738       0.014
  -0.02341495  0.04682990  0.07024485       0.014
  -0.03512243  0.05853738  0.08195233       0.014
  -0.04682990  0.07024485  0.09365981       0.014
   0.11707476 -0.09365981 -0.07024485       0.014
   0.00000000  0.02341495  0.07024485       0.007
  -0.01170748  0.03512243  0.08195233       0.014
  -0.02341495  0.04682990  0.09365981       0.014
  -0.03512243  0.05853738  0.10536728       0.014
   0.12878223 -0.10536728 -0.05853738       0.014
   0.11707476 -0.09365981 -0.04682990       0.014
   0.10536728 -0.08195233 -0.03512243       0.014
   0.09365981 -0.07024485 -0.02341495       0.014
   0.08195233 -0.05853738 -0.01170748       0.014
   0.07024485 -0.04682990  0.00000000       0.007
   0.00000000  0.02341495  0.09365981       0.007
  -0.01170748  0.03512243  0.10536728       0.014
  -0.02341495  0.04682990  0.11707476       0.014
   0.14048971 -0.11707476 -0.04682990       0.014
   0.12878223 -0.10536728 -0.03512243       0.014
   0.11707476 -0.09365981 -0.02341495       0.014
   0.10536728 -0.08195233 -0.01170748       0.014
   0.09365981 -0.07024485  0.00000000       0.007
   0.00000000  0.02341495  0.11707476       0.007
  -0.01170748  0.03512243  0.12878223       0.014
   0.15219718 -0.12878223 -0.03512243       0.014
   0.14048971 -0.11707476 -0.02341495       0.014
   0.12878223 -0.10536728 -0.01170748       0.014
   0.11707476 -0.09365981  0.00000000       0.007
   0.00000000  0.02341495  0.14048971       0.007
   0.16390466 -0.14048971 -0.02341495       0.014
   0.15219718 -0.12878223 -0.01170748       0.014
   0.14048971 -0.11707476  0.00000000       0.007
   0.17561214 -0.15219718 -0.01170748       0.007
   0.16390466 -0.14048971  0.00000000       0.007
   0.00000000  0.04682990  0.09365981       0.007
  -0.01170748  0.05853738  0.10536728       0.014
   0.15219718 -0.10536728 -0.05853738       0.014
   0.14048971 -0.09365981 -0.04682990       0.014
   0.00000000  0.04682990  0.11707476       0.007
   0.16390466 -0.11707476 -0.04682990       0.014
   0.15219718 -0.10536728 -0.03512243       0.014
   0.14048971 -0.09365981 -0.02341495       0.014
   0.12878223 -0.08195233 -0.01170748       0.014
   0.11707476 -0.07024485  0.00000000       0.007
   0.17561214 -0.12878223 -0.03512243       0.007
   0.16390466 -0.11707476 -0.02341495       0.014
   0.15219718 -0.10536728 -0.01170748       0.014
   0.14048971 -0.09365981  0.00000000       0.007
   0.17561214 -0.12878223 -0.01170748       0.007
   0.16390466 -0.11707476  0.00000000       0.007
   0.17561214 -0.10536728 -0.03512243       0.007
   0.16390466 -0.09365981 -0.02341495       0.014
   0.17561214 -0.10536728 -0.01170748       0.007
   0.16390466 -0.09365981  0.00000000       0.007
 
 k-points in reciprocal lattice and weights: K-Spacing Value to Generate K-Mesh: 0.02
   0.00000000  0.00000000  0.00000000       0.000
   0.06666667  0.00000000  0.00000000       0.002
   0.13333333  0.00000000  0.00000000       0.002
   0.20000000  0.00000000  0.00000000       0.002
   0.26666667  0.00000000  0.00000000       0.002
   0.33333333  0.00000000  0.00000000       0.002
   0.40000000  0.00000000  0.00000000       0.002
   0.46666667  0.00000000  0.00000000       0.002
   0.06666667  0.06666667  0.00000000       0.002
   0.13333333  0.06666667  0.00000000       0.007
   0.20000000  0.06666667  0.00000000       0.007
   0.26666667  0.06666667  0.00000000       0.007
   0.33333333  0.06666667  0.00000000       0.007
   0.40000000  0.06666667  0.00000000       0.007
   0.46666667  0.06666667  0.00000000       0.007
  -0.46666667  0.06666667  0.00000000       0.007
  -0.40000000  0.06666667  0.00000000       0.007
  -0.33333333  0.06666667  0.00000000       0.007
  -0.26666667  0.06666667  0.00000000       0.007
  -0.20000000  0.06666667  0.00000000       0.007
  -0.13333333  0.06666667  0.00000000       0.007
  -0.06666667  0.06666667  0.00000000       0.004
   0.13333333  0.13333333  0.00000000       0.002
   0.20000000  0.13333333  0.00000000       0.007
   0.26666667  0.13333333  0.00000000       0.007
   0.33333333  0.13333333  0.00000000       0.007
   0.40000000  0.13333333  0.00000000       0.007
   0.46666667  0.13333333  0.00000000       0.007
  -0.46666667  0.13333333  0.00000000       0.007
  -0.40000000  0.13333333  0.00000000       0.007
  -0.33333333  0.13333333  0.00000000       0.007
  -0.26666667  0.13333333  0.00000000       0.007
  -0.20000000  0.13333333  0.00000000       0.007
  -0.13333333  0.13333333  0.00000000       0.004
   0.20000000  0.20000000  0.00000000       0.002
   0.26666667  0.20000000  0.00000000       0.007
   0.33333333  0.20000000  0.00000000       0.007
   0.40000000  0.20000000  0.00000000       0.007
   0.46666667  0.20000000  0.00000000       0.007
  -0.46666667  0.20000000  0.00000000       0.007
  -0.40000000  0.20000000  0.00000000       0.007
  -0.33333333  0.20000000  0.00000000       0.007
  -0.26666667  0.20000000  0.00000000       0.007
  -0.20000000  0.20000000  0.00000000       0.004
   0.26666667  0.26666667  0.00000000       0.002
   0.33333333  0.26666667  0.00000000       0.007
   0.40000000  0.26666667  0.00000000       0.007
   0.46666667  0.26666667  0.00000000       0.007
  -0.46666667  0.26666667  0.00000000       0.007
  -0.40000000  0.26666667  0.00000000       0.007
  -0.33333333  0.26666667  0.00000000       0.007
  -0.26666667  0.26666667  0.00000000       0.004
   0.33333333  0.33333333  0.00000000       0.002
   0.40000000  0.33333333  0.00000000       0.007
   0.46666667  0.33333333  0.00000000       0.007
  -0.46666667  0.33333333  0.00000000       0.007
  -0.40000000  0.33333333  0.00000000       0.007
  -0.33333333  0.33333333  0.00000000       0.004
   0.40000000  0.40000000  0.00000000       0.002
   0.46666667  0.40000000  0.00000000       0.007
  -0.46666667  0.40000000  0.00000000       0.007
  -0.40000000  0.40000000  0.00000000       0.004
   0.46666667  0.46666667  0.00000000       0.002
  -0.46666667  0.46666667  0.00000000       0.004
   0.20000000  0.13333333  0.06666667       0.007
   0.26666667  0.13333333  0.06666667       0.014
   0.33333333  0.13333333  0.06666667       0.014
   0.40000000  0.13333333  0.06666667       0.014
   0.46666667  0.13333333  0.06666667       0.014
  -0.46666667  0.13333333  0.06666667       0.014
   0.26666667  0.20000000  0.06666667       0.007
   0.33333333  0.20000000  0.06666667       0.014
   0.40000000  0.20000000  0.06666667       0.014
   0.46666667  0.20000000  0.06666667       0.014
  -0.46666667  0.20000000  0.06666667       0.014
  -0.40000000  0.20000000  0.06666667       0.014
  -0.33333333  0.20000000  0.06666667       0.014
  -0.26666667  0.20000000  0.06666667       0.014
  -0.20000000  0.20000000  0.06666667       0.014
  -0.13333333  0.20000000  0.06666667       0.007
   0.33333333  0.26666667  0.06666667       0.007
   0.40000000  0.26666667  0.06666667       0.014
   0.46666667  0.26666667  0.06666667       0.014
  -0.46666667  0.26666667  0.06666667       0.014
  -0.40000000  0.26666667  0.06666667       0.014
  -0.33333333  0.26666667  0.06666667       0.014
  -0.26666667  0.26666667  0.06666667       0.014
  -0.20000000  0.26666667  0.06666667       0.007
   0.40000000  0.33333333  0.06666667       0.007
   0.46666667  0.33333333  0.06666667       0.014
  -0.46666667  0.33333333  0.06666667       0.014
  -0.40000000  0.33333333  0.06666667       0.014
  -0.33333333  0.33333333  0.06666667       0.014
  -0.26666667  0.33333333  0.06666667       0.007
   0.46666667  0.40000000  0.06666667       0.007
  -0.46666667  0.40000000  0.06666667       0.014
  -0.40000000  0.40000000  0.06666667       0.014
  -0.33333333  0.40000000  0.06666667       0.007
  -0.46666667  0.46666667  0.06666667       0.007
  -0.40000000  0.46666667  0.06666667       0.007
   0.40000000  0.26666667  0.13333333       0.007
   0.46666667  0.26666667  0.13333333       0.014
  -0.46666667  0.26666667  0.13333333       0.014
  -0.40000000  0.26666667  0.13333333       0.014
   0.46666667  0.33333333  0.13333333       0.007
  -0.46666667  0.33333333  0.13333333       0.014
  -0.40000000  0.33333333  0.13333333       0.014
  -0.33333333  0.33333333  0.13333333       0.014
  -0.26666667  0.33333333  0.13333333       0.014
  -0.20000000  0.33333333  0.13333333       0.007
  -0.46666667  0.40000000  0.13333333       0.007
  -0.40000000  0.40000000  0.13333333       0.014
  -0.33333333  0.40000000  0.13333333       0.014
  -0.26666667  0.40000000  0.13333333       0.007
  -0.40000000  0.46666667  0.13333333       0.007
  -0.33333333  0.46666667  0.13333333       0.007
  -0.40000000  0.40000000  0.20000000       0.007
  -0.33333333  0.40000000  0.20000000       0.014
  -0.33333333  0.46666667  0.20000000       0.007
  -0.26666667  0.46666667  0.20000000       0.007
 
 position of ions in fractional coordinates (direct lattice) 
   0.00000000  0.00000000  0.00000000
   0.50000000  0.50000000  0.50000000
 
 position of ions in cartesian coordinates  (Angst):
   0.00000000  0.00000000  0.00000000
   2.84718363  2.84718363  2.84718363
 


--------------------------------------------------------------------------------------------------------


 k-point   1 :   0.0000 0.0000 0.0000  plane waves:    1363
 k-point   2 :   0.0667 0.0000 0.0000  plane waves:    1375
 k-point   3 :   0.1333 0.0000 0.0000  plane waves:    1360
 k-point   4 :   0.2000 0.0000 0.0000  plane waves:    1363
 k-point   5 :   0.2667 0.0000 0.0000  plane waves:    1357
 k-point   6 :   0.3333 0.0000 0.0000  plane waves:    1356
 k-point   7 :   0.4000 0.0000 0.0000  plane waves:    1362
 k-point   8 :   0.4667 0.0000 0.0000  plane waves:    1365
 k-point   9 :   0.0667 0.0667 0.0000  plane waves:    1367
 k-point  10 :   0.1333 0.0667 0.0000  plane waves:    1356
 k-point  11 :   0.2000 0.0667 0.0000  plane waves:    1354
 k-point  12 :   0.2667 0.0667 0.0000  plane waves:    1352
 k-point  13 :   0.3333 0.0667 0.0000  plane waves:    1355
 k-point  14 :   0.4000 0.0667 0.0000  plane waves:    1358
 k-point  15 :   0.4667 0.0667 0.0000  plane waves:    1359
 k-point  16 :  -0.4667 0.0667 0.0000  plane waves:    1359
 k-point  17 :  -0.4000 0.0667 0.0000  plane waves:    1361
 k-point  18 :  -0.3333 0.0667 0.0000  plane waves:    1356
 k-point  19 :  -0.2667 0.0667 0.0000  plane waves:    1356
 k-point  20 :  -0.2000 0.0667 0.0000  plane waves:    1357
 k-point  21 :  -0.1333 0.0667 0.0000  plane waves:    1361
 k-point  22 :  -0.0667 0.0667 0.0000  plane waves:    1361
 k-point  23 :   0.1333 0.1333 0.0000  plane waves:    1355
 k-point  24 :   0.2000 0.1333 0.0000  plane waves:    1352
 k-point  25 :   0.2667 0.1333 0.0000  plane waves:    1348
 k-point  26 :   0.3333 0.1333 0.0000  plane waves:    1350
 k-point  27 :   0.4000 0.1333 0.0000  plane waves:    1352
 k-point  28 :   0.4667 0.1333 0.0000  plane waves:    1356
 k-point  29 :  -0.4667 0.1333 0.0000  plane waves:    1351
 k-point  30 :  -0.4000 0.1333 0.0000  plane waves:    1361
 k-point  31 :  -0.3333 0.1333 0.0000  plane waves:    1353
 k-point  32 :  -0.2667 0.1333 0.0000  plane waves:    1350
 k-point  33 :  -0.2000 0.1333 0.0000  plane waves:    1360
 k-point  34 :  -0.1333 0.1333 0.0000  plane waves:    1365
 k-point  35 :   0.2000 0.2000 0.0000  plane waves:    1351
 k-point  36 :   0.2667 0.2000 0.0000  plane waves:    1352
 k-point  37 :   0.3333 0.2000 0.0000  plane waves:    1347
 k-point  38 :   0.4000 0.2000 0.0000  plane waves:    1349
 k-point  39 :   0.4667 0.2000 0.0000  plane waves:    1350
 k-point  40 :  -0.4667 0.2000 0.0000  plane waves:    1358
 k-point  41 :  -0.4000 0.2000 0.0000  plane waves:    1360
 k-point  42 :  -0.3333 0.2000 0.0000  plane waves:    1350
 k-point  43 :  -0.2667 0.2000 0.0000  plane waves:    1348
 k-point  44 :  -0.2000 0.2000 0.0000  plane waves:    1358
 k-point  45 :   0.2667 0.2667 0.0000  plane waves:    1351
 k-point  46 :   0.3333 0.2667 0.0000  plane waves:    1346
 k-point  47 :   0.4000 0.2667 0.0000  plane waves:    1351
 k-point  48 :   0.4667 0.2667 0.0000  plane waves:    1359
 k-point  49 :  -0.4667 0.2667 0.0000  plane waves:    1349
 k-point  50 :  -0.4000 0.2667 0.0000  plane waves:    1345
 k-point  51 :  -0.3333 0.2667 0.0000  plane waves:    1343
 k-point  52 :  -0.2667 0.2667 0.0000  plane waves:    1348
 k-point  53 :   0.3333 0.3333 0.0000  plane waves:    1347
 k-point  54 :   0.4000 0.3333 0.0000  plane waves:    1350
 k-point  55 :   0.4667 0.3333 0.0000  plane waves:    1349
 k-point  56 :  -0.4667 0.3333 0.0000  plane waves:    1346
 k-point  57 :  -0.4000 0.3333 0.0000  plane waves:    1348
 k-point  58 :  -0.3333 0.3333 0.0000  plane waves:    1360
 k-point  59 :   0.4000 0.4000 0.0000  plane waves:    1351
 k-point  60 :   0.4667 0.4000 0.0000  plane waves:    1350
 k-point  61 :  -0.4667 0.4000 0.0000  plane waves:    1344
 k-point  62 :  -0.4000 0.4000 0.0000  plane waves:    1348
 k-point  63 :   0.4667 0.4667 0.0000  plane waves:    1350
 k-point  64 :  -0.4667 0.4667 0.0000  plane waves:    1348
 k-point  65 :   0.2000 0.1333 0.0667  plane waves:    1360
 k-point  66 :   0.2667 0.1333 0.0667  plane waves:    1357
 k-point  67 :   0.3333 0.1333 0.0667  plane waves:    1357
 k-point  68 :   0.4000 0.1333 0.0667  plane waves:    1353
 k-point  69 :   0.4667 0.1333 0.0667  plane waves:    1355
 k-point  70 :  -0.4667 0.1333 0.0667  plane waves:    1364
 k-point  71 :   0.2667 0.2000 0.0667  plane waves:    1346
 k-point  72 :   0.3333 0.2000 0.0667  plane waves:    1347
 k-point  73 :   0.4000 0.2000 0.0667  plane waves:    1355
 k-point  74 :   0.4667 0.2000 0.0667  plane waves:    1353
 k-point  75 :  -0.4667 0.2000 0.0667  plane waves:    1354
 k-point  76 :  -0.4000 0.2000 0.0667  plane waves:    1355
 k-point  77 :  -0.3333 0.2000 0.0667  plane waves:    1355
 k-point  78 :  -0.2667 0.2000 0.0667  plane waves:    1354
 k-point  79 :  -0.2000 0.2000 0.0667  plane waves:    1349
 k-point  80 :  -0.1333 0.2000 0.0667  plane waves:    1357
 k-point  81 :   0.3333 0.2667 0.0667  plane waves:    1345
 k-point  82 :   0.4000 0.2667 0.0667  plane waves:    1351
 k-point  83 :   0.4667 0.2667 0.0667  plane waves:    1351
 k-point  84 :  -0.4667 0.2667 0.0667  plane waves:    1357
 k-point  85 :  -0.4000 0.2667 0.0667  plane waves:    1353
 k-point  86 :  -0.3333 0.2667 0.0667  plane waves:    1354
 k-point  87 :  -0.2667 0.2667 0.0667  plane waves:    1349
 k-point  88 :  -0.2000 0.2667 0.0667  plane waves:    1348
 k-point  89 :   0.4000 0.3333 0.0667  plane waves:    1348
 k-point  90 :   0.4667 0.3333 0.0667  plane waves:    1347
 k-point  91 :  -0.4667 0.3333 0.0667  plane waves:    1346
 k-point  92 :  -0.4000 0.3333 0.0667  plane waves:    1349
 k-point  93 :  -0.3333 0.3333 0.0667  plane waves:    1346
 k-point  94 :  -0.2667 0.3333 0.0667  plane waves:    1343
 k-point  95 :   0.4667 0.4000 0.0667  plane waves:    1349
 k-point  96 :  -0.4667 0.4000 0.0667  plane waves:    1346
 k-point  97 :  -0.4000 0.4000 0.0667  plane waves:    1347
 k-point  98 :  -0.3333 0.4000 0.0667  plane waves:    1356
 k-point  99 :  -0.4667 0.4667 0.0667  plane waves:    1351
 k-point 100 :  -0.4000 0.4667 0.0667  plane waves:    1344
 k-point 101 :   0.4000 0.2667 0.1333  plane waves:    1355
 k-point 102 :   0.4667 0.2667 0.1333  plane waves:    1356
 k-point 103 :  -0.4667 0.2667 0.1333  plane waves:    1356
 k-point 104 :  -0.4000 0.2667 0.1333  plane waves:    1353
 k-point 105 :   0.4667 0.3333 0.1333  plane waves:    1352
 k-point 106 :  -0.4667 0.3333 0.1333  plane waves:    1353
 k-point 107 :  -0.4000 0.3333 0.1333  plane waves:    1354
 k-point 108 :  -0.3333 0.3333 0.1333  plane waves:    1354
 k-point 109 :  -0.2667 0.3333 0.1333  plane waves:    1352
 k-point 110 :  -0.2000 0.3333 0.1333  plane waves:    1348
 k-point 111 :  -0.4667 0.4000 0.1333  plane waves:    1338
 k-point 112 :  -0.4000 0.4000 0.1333  plane waves:    1346
 k-point 113 :  -0.3333 0.4000 0.1333  plane waves:    1356
 k-point 114 :  -0.2667 0.4000 0.1333  plane waves:    1349
 k-point 115 :  -0.4000 0.4667 0.1333  plane waves:    1346
 k-point 116 :  -0.3333 0.4667 0.1333  plane waves:    1350
 k-point 117 :  -0.4000 0.4000 0.2000  plane waves:    1356
 k-point 118 :  -0.3333 0.4000 0.2000  plane waves:    1355
 k-point 119 :  -0.3333 0.4667 0.2000  plane waves:    1356
 k-point 120 :  -0.2667 0.4667 0.2000  plane waves:    1362

 maximum and minimum number of plane-waves per node :      1375     1338

 maximum number of plane-waves:      1375
 maximum index in each direction: 
   IXMAX=    8   IYMAX=    7   IZMAX=    7
   IXMIN=   -8   IYMIN=   -8   IZMIN=   -7


 serial   3D FFT for wavefunctions
 parallel 3D FFT for charge:
    minimum data exchange during FFTs selected (reduces bandwidth)


 total amount of memory used by VASP MPI-rank0    63029. kBytes
=======================================================================

   base      :      30000. kBytes
   nonl-proj :      21240. kBytes
   fftplans  :        962. kBytes
   grid      :       2734. kBytes
   one-center:          6. kBytes
   wavefun   :       8087. kBytes
 
     INWAV:  cpu time      0.0000: real time      0.0002
 Broyden mixing: mesh for mixing (old mesh)
   NGX = 15   NGY = 15   NGZ = 15
  (NGX  = 64   NGY  = 64   NGZ  = 64)
  gives a total of   3375 points

 initial charge density was supplied:
 charge density of overlapping atoms calculated
 number of electron      14.0000000 magnetization 
 keeping initial charge density in first step


--------------------------------------------------------------------------------------------------------


 Maximum index for augmentation-charges         2114 (set IRDMAX)


--------------------------------------------------------------------------------------------------------


 First call to EWALD:  gamma=   0.494
 Maximum number of real-space cells 3x 3x 3
 Maximum number of reciprocal cells 3x 3x 3

    FEWALD:  cpu time      0.0003: real time      0.0003


--------------------------------------- Ionic step        1  -------------------------------------------




--------------------------------------- Iteration      1(   1)  ---------------------------------------


    POTLOK:  cpu time      0.0166: real time      0.0364
    SETDIJ:  cpu time      0.0010: real time      0.0013
     EDDAV:  cpu time      1.0881: real time      1.1889
       DOS:  cpu time      0.0009: real time      0.0009
    --------------------------------------------
      LOOP:  cpu time      1.1067: real time      1.2275

 eigenvalue-minimisations  :  8796
 total energy-change (2. order) : 0.1185653E+03  (-0.5952071E+03)
 number of electron      14.0000000 magnetization 
 augmentation part       14.0000000 magnetization 

 Free energy of the ion-electron system (eV)
  ---------------------------------------------------
  alpha Z        PSCENC =        22.36081445
  Ewald energy   TEWEN  =      -703.13958985
  -Hartree energ DENC   =      -287.32761589
  -exchange      EXHF   =         0.00000000
  -V(xc)+E(xc)   XCENC  =        44.74315440
  PAW double counting   =       827.62341595     -916.31000354
  entropy T*S    EENTRO =        -0.00016054
  eigenvalues    EBANDS =       -45.15097527
  atomic energy  EATOM  =      1175.76629971
  Solvation  Ediel_sol  =         0.00000000
  ---------------------------------------------------
  free energy    TOTEN  =       118.56533941 eV

  energy without entropy =      118.56549995  energy(sigma->0) =      118.56541968


--------------------------------------------------------------------------------------------------------




--------------------------------------- Iteration      1(   2)  ---------------------------------------


     EDDAV:  cpu time      1.0156: real time      1.0539
       DOS:  cpu time      0.0004: real time      0.0004
    --------------------------------------------
      LOOP:  cpu time      1.0160: real time      1.0543

 eigenvalue-minimisations  :  9156
 total energy-change (2. order) :-0.1183977E+03  (-0.1103167E+03)
 number of electron      14.0000000 magnetization 
 augmentation part       14.0000000 magnetization 

 Free energy of the ion-electron system (eV)
  ---------------------------------------------------
  alpha Z        PSCENC =        22.36081445
  Ewald energy   TEWEN  =      -703.13958985
  -Hartree energ DENC   =      -287.32761589
  -exchange      EXHF   =         0.00000000
  -V(xc)+E(xc)   XCENC  =        44.74315440
  PAW double counting   =       827.62341595     -916.31000354
  entropy T*S    EENTRO =        -0.00000000
  eigenvalues    EBANDS =      -163.54888338
  atomic energy  EATOM  =      1175.76629971
  Solvation  Ediel_sol  =         0.00000000
  ---------------------------------------------------
  free energy    TOTEN  =         0.16759185 eV

  energy without entropy =        0.16759185  energy(sigma->0) =        0.16759185


--------------------------------------------------------------------------------------------------------




--------------------------------------- Iteration      1(   3)  ---------------------------------------


     EDDAV:  cpu time      1.2253: real time      1.2411
       DOS:  cpu time      0.0004: real time      0.0004
    --------------------------------------------
      LOOP:  cpu time      1.2257: real time      1.2415

 eigenvalue-minimisations  : 11100
 total energy-change (2. order) :-0.7095745E+01  (-0.7055821E+01)
 number of electron      14.0000000 magnetization 
 augmentation part       14.0000000 magnetization 

 Free energy of the ion-electron system (eV)
  ---------------------------------------------------
  alpha Z        PSCENC =        22.36081445
  Ewald energy   TEWEN  =      -703.13958985
  -Hartree energ DENC   =      -287.32761589
  -exchange      EXHF   =         0.00000000
  -V(xc)+E(xc)   XCENC  =        44.74315440
  PAW double counting   =       827.62341595     -916.31000354
  entropy T*S    EENTRO =        -0.00000000
  eigenvalues    EBANDS =      -170.64462880
  atomic energy  EATOM  =      1175.76629971
  Solvation  Ediel_sol  =         0.00000000
  ---------------------------------------------------
  free energy    TOTEN  =        -6.92815358 eV

  energy without entropy =       -6.92815358  energy(sigma->0) =       -6.92815358


--------------------------------------------------------------------------------------------------------




--------------------------------------- Iteration      1(   4)  ---------------------------------------


     EDDAV:  cpu time      1.0985: real time      1.1126
       DOS:  cpu time      0.0004: real time      0.0004
    --------------------------------------------
      LOOP:  cpu time      1.0990: real time      1.1131

 eigenvalue-minimisations  :  9744
 total energy-change (2. order) :-0.5353328E-01  (-0.5352628E-01)
 number of electron      14.0000000 magnetization 
 augmentation part       14.0000000 magnetization 

 Free energy of the ion-electron system (eV)
  ---------------------------------------------------
  alpha Z        PSCENC =        22.36081445
  Ewald energy   TEWEN  =      -703.13958985
  -Hartree energ DENC   =      -287.32761589
  -exchange      EXHF   =         0.00000000
  -V(xc)+E(xc)   XCENC  =        44.74315440
  PAW double counting   =       827.62341595     -916.31000354
  entropy T*S    EENTRO =        -0.00000000
  eigenvalues    EBANDS =      -170.69816208
  atomic energy  EATOM  =      1175.76629971
  Solvation  Ediel_sol  =         0.00000000
  ---------------------------------------------------
  free energy    TOTEN  =        -6.98168685 eV

  energy without entropy =       -6.98168685  energy(sigma->0) =       -6.98168685


--------------------------------------------------------------------------------------------------------




--------------------------------------- Iteration      1(   5)  ---------------------------------------


     EDDAV:  cpu time      1.2269: real time      1.2416
       DOS:  cpu time      0.0015: real time      0.0088
    CHARGE:  cpu time      0.0312: real time      0.0790
    MIXING:  cpu time      0.0002: real time      0.0005
    --------------------------------------------
      LOOP:  cpu time      1.2598: real time      1.3299

 eigenvalue-minimisations  : 11112
 total energy-change (2. order) :-0.3175412E-03  (-0.3175389E-03)
 number of electron      13.9999997 magnetization 
 augmentation part        3.4944779 magnetization 

 Broyden mixing:
  rms(total) = 0.21413E+00    rms(broyden)= 0.21412E+00
  rms(prec ) = 0.75750E+00
  weight for this iteration     100.00

 Free energy of the ion-electron system (eV)
  ---------------------------------------------------
  alpha Z        PSCENC =        22.36081445
  Ewald energy   TEWEN  =      -703.13958985
  -Hartree energ DENC   =      -287.32761589
  -exchange      EXHF   =         0.00000000
  -V(xc)+E(xc)   XCENC  =        44.74315440
  PAW double counting   =       827.62341595     -916.31000354
  entropy T*S    EENTRO =        -0.00000000
  eigenvalues    EBANDS =      -170.69847962
  atomic energy  EATOM  =      1175.76629971
  Solvation  Ediel_sol  =         0.00000000
  ---------------------------------------------------
  free energy    TOTEN  =        -6.98200440 eV

  energy without entropy =       -6.98200440  energy(sigma->0) =       -6.98200440


--------------------------------------------------------------------------------------------------------




--------------------------------------- Iteration      1(   6)  ---------------------------------------


    POTLOK:  cpu time      0.0068: real time      0.0070
    SETDIJ:  cpu time      0.0008: real time      0.0008
     EDDAV:  cpu time      1.1658: real time      1.1761
       DOS:  cpu time      0.0017: real time      0.0056
    CHARGE:  cpu time      0.0421: real time      0.0433
    MIXING:  cpu time      0.0004: real time      0.0004
    --------------------------------------------
      LOOP:  cpu time      1.2177: real time      1.2332

 eigenvalue-minimisations  : 10920
 total energy-change (2. order) : 0.1986855E+00  (-0.3267207E-01)
 number of electron      13.9999997 magnetization 
 augmentation part        3.5217489 magnetization 

 Broyden mixing:
  rms(total) = 0.15161E+00    rms(broyden)= 0.15161E+00
  rms(prec ) = 0.33121E+00
  weight for this iteration     100.00

 eigenvalues of (default mixing * dielectric matrix)
  average eigenvalue GAMMA=   1.1165
  1.1165

 Free energy of the ion-electron system (eV)
  ---------------------------------------------------
  alpha Z        PSCENC =        22.36081445
  Ewald energy   TEWEN  =      -703.13958985
  -Hartree energ DENC   =      -290.31828534
  -exchange      EXHF   =         0.00000000
  -V(xc)+E(xc)   XCENC  =        45.10506436
  PAW double counting   =       856.72674921     -945.35147387
  entropy T*S    EENTRO =        -0.00000000
  eigenvalues    EBANDS =      -167.93289756
  atomic energy  EATOM  =      1175.76629971
  Solvation  Ediel_sol  =         0.00000000
  ---------------------------------------------------
  free energy    TOTEN  =        -6.78331890 eV

  energy without entropy =       -6.78331890  energy(sigma->0) =       -6.78331890


--------------------------------------------------------------------------------------------------------




--------------------------------------- Iteration      1(   7)  ---------------------------------------


    POTLOK:  cpu time      0.0065: real time      0.0067
    SETDIJ:  cpu time      0.0007: real time      0.0007
     EDDAV:  cpu time      1.3043: real time      1.3149
       DOS:  cpu time      0.0026: real time      0.0026
    CHARGE:  cpu time      0.0261: real time      0.0262
    MIXING:  cpu time      0.0002: real time      0.0002
    --------------------------------------------
      LOOP:  cpu time      1.3403: real time      1.3513

 eigenvalue-minimisations  : 12192
 total energy-change (2. order) : 0.1088581E-01  (-0.8023936E-02)
 number of electron      13.9999997 magnetization 
 augmentation part        3.5340505 magnetization 

 Broyden mixing:
  rms(total) = 0.11522E+00    rms(broyden)= 0.11522E+00
  rms(prec ) = 0.16127E+00
  weight for this iteration     100.00

 eigenvalues of (default mixing * dielectric matrix)
  average eigenvalue GAMMA=   2.6206
  1.4442  3.7969

 Free energy of the ion-electron system (eV)
  ---------------------------------------------------
  alpha Z        PSCENC =        22.36081445
  Ewald energy   TEWEN  =      -703.13958985
  -Hartree energ DENC   =      -291.53176811
  -exchange      EXHF   =         0.00000000
  -V(xc)+E(xc)   XCENC  =        45.32404827
  PAW double counting   =       894.48721609     -983.23123966
  entropy T*S    EENTRO =        -0.00000000
  eigenvalues    EBANDS =      -166.80821397
  atomic energy  EATOM  =      1175.76629971
  Solvation  Ediel_sol  =         0.00000000
  ---------------------------------------------------
  free energy    TOTEN  =        -6.77243309 eV

  energy without entropy =       -6.77243309  energy(sigma->0) =       -6.77243309


--------------------------------------------------------------------------------------------------------




--------------------------------------- Iteration      1(   8)  ---------------------------------------


    POTLOK:  cpu time      0.0065: real time      0.0066
    SETDIJ:  cpu time      0.0007: real time      0.0007
     EDDAV:  cpu time      1.0831: real time      1.0909
       DOS:  cpu time      0.0004: real time      0.0004
    CHARGE:  cpu time      0.0243: real time      0.0244
    MIXING:  cpu time      0.0003: real time      0.0003
    --------------------------------------------
      LOOP:  cpu time      1.1153: real time      1.1234

 eigenvalue-minimisations  : 10044
 total energy-change (2. order) :-0.5919138E-02  (-0.1463596E-02)
 number of electron      13.9999997 magnetization 
 augmentation part        3.5323560 magnetization 

 Broyden mixing:
  rms(total) = 0.53898E-01    rms(broyden)= 0.53898E-01
  rms(prec ) = 0.62039E-01
  weight for this iteration     100.00

 eigenvalues of (default mixing * dielectric matrix)
  average eigenvalue GAMMA=   1.6120
  2.6561  1.3988  0.7810

 Free energy of the ion-electron system (eV)
  ---------------------------------------------------
  alpha Z        PSCENC =        22.36081445
  Ewald energy   TEWEN  =      -703.13958985
  -Hartree energ DENC   =      -291.01563376
  -exchange      EXHF   =         0.00000000
  -V(xc)+E(xc)   XCENC  =        45.42246427
  PAW double counting   =       959.75621780    -1048.74510819
  entropy T*S    EENTRO =        -0.00000000
  eigenvalues    EBANDS =      -167.18381665
  atomic energy  EATOM  =      1175.76629971
  Solvation  Ediel_sol  =         0.00000000
  ---------------------------------------------------
  free energy    TOTEN  =        -6.77835223 eV

  energy without entropy =       -6.77835223  energy(sigma->0) =       -6.77835223


--------------------------------------------------------------------------------------------------------




--------------------------------------- Iteration      1(   9)  ---------------------------------------


    POTLOK:  cpu time      0.0067: real time      0.0068
    SETDIJ:  cpu time      0.0008: real time      0.0008
     EDDAV:  cpu time      1.1050: real time      1.1130
       DOS:  cpu time      0.0015: real time      0.0015
    CHARGE:  cpu time      0.0243: real time      0.0245
    MIXING:  cpu time      0.0002: real time      0.0002
    --------------------------------------------
      LOOP:  cpu time      1.1385: real time      1.1468

 eigenvalue-minimisations  : 10284
 total energy-change (2. order) : 0.3787057E-03  (-0.8036693E-04)
 number of electron      13.9999997 magnetization 
 augmentation part        3.5334638 magnetization 

 Broyden mixing:
  rms(total) = 0.20629E-01    rms(broyden)= 0.20629E-01
  rms(prec ) = 0.22052E-01
  weight for this iteration     100.00

 eigenvalues of (default mixing * dielectric matrix)
  average eigenvalue GAMMA=   1.8499
  2.8683  2.1640  1.1113  1.2559

 Free energy of the ion-electron system (eV)
  ---------------------------------------------------
  alpha Z        PSCENC =        22.36081445
  Ewald energy   TEWEN  =      -703.13958985
  -Hartree energ DENC   =      -291.15967051
  -exchange      EXHF   =         0.00000000
  -V(xc)+E(xc)   XCENC  =        45.41477049
  PAW double counting   =       946.75570528    -1035.70333364
  entropy T*S    EENTRO =        -0.00000000
  eigenvalues    EBANDS =      -167.07296944
  atomic energy  EATOM  =      1175.76629971
  Solvation  Ediel_sol  =         0.00000000
  ---------------------------------------------------
  free energy    TOTEN  =        -6.77797352 eV

  energy without entropy =       -6.77797352  energy(sigma->0) =       -6.77797352


--------------------------------------------------------------------------------------------------------




--------------------------------------- Iteration      1(  10)  ---------------------------------------


    POTLOK:  cpu time      0.0064: real time      0.0065
    SETDIJ:  cpu time      0.0007: real time      0.0007
     EDDAV:  cpu time      1.1048: real time      1.1118
       DOS:  cpu time      0.0004: real time      0.0004
    CHARGE:  cpu time      0.0236: real time      0.0237
    MIXING:  cpu time      0.0003: real time      0.0003
    --------------------------------------------
      LOOP:  cpu time      1.1361: real time      1.1434

 eigenvalue-minimisations  : 10404
 total energy-change (2. order) :-0.6318606E-04  (-0.8476808E-05)
 number of electron      13.9999997 magnetization 
 augmentation part        3.5339120 magnetization 

 Broyden mixing:
  rms(total) = 0.22154E-02    rms(broyden)= 0.22153E-02
  rms(prec ) = 0.25144E-02
  weight for this iteration     100.00

 eigenvalues of (default mixing * dielectric matrix)
  average eigenvalue GAMMA=   1.7676
  2.9938  2.5236  1.3259  0.9974  0.9974

 Free energy of the ion-electron system (eV)
  ---------------------------------------------------
  alpha Z        PSCENC =        22.36081445
  Ewald energy   TEWEN  =      -703.13958985
  -Hartree energ DENC   =      -291.17193492
  -exchange      EXHF   =         0.00000000
  -V(xc)+E(xc)   XCENC  =        45.41305000
  PAW double counting   =       937.92562464    -1026.86545977
  entropy T*S    EENTRO =        -0.00000000
  eigenvalues    EBANDS =      -167.06684095
  atomic energy  EATOM  =      1175.76629971
  Solvation  Ediel_sol  =         0.00000000
  ---------------------------------------------------
  free energy    TOTEN  =        -6.77803671 eV

  energy without entropy =       -6.77803671  energy(sigma->0) =       -6.77803671


--------------------------------------------------------------------------------------------------------




--------------------------------------- Iteration      1(  11)  ---------------------------------------


    POTLOK:  cpu time      0.0066: real time      0.0067
    SETDIJ:  cpu time      0.0007: real time      0.0007
     EDDAV:  cpu time      1.1620: real time      1.1725
       DOS:  cpu time      0.0004: real time      0.0004
    CHARGE:  cpu time      0.0248: real time      0.0249
    MIXING:  cpu time      0.0003: real time      0.0003
    --------------------------------------------
      LOOP:  cpu time      1.1947: real time      1.2055

 eigenvalue-minimisations  : 10800
 total energy-change (2. order) :-0.5876811E-05  (-0.5924796E-06)
 number of electron      13.9999997 magnetization 
 augmentation part        3.5339911 magnetization 

 Broyden mixing:
  rms(total) = 0.99312E-03    rms(broyden)= 0.99311E-03
  rms(prec ) = 0.10750E-02
  weight for this iteration     100.00

 eigenvalues of (default mixing * dielectric matrix)
  average eigenvalue GAMMA=   1.6722
  2.9942  2.2678  1.0564  1.0564  1.3291  1.3291

 Free energy of the ion-electron system (eV)
  ---------------------------------------------------
  alpha Z        PSCENC =        22.36081445
  Ewald energy   TEWEN  =      -703.13958985
  -Hartree energ DENC   =      -291.17677925
  -exchange      EXHF   =         0.00000000
  -V(xc)+E(xc)   XCENC  =        45.41309925
  PAW double counting   =       936.59705120    -1025.53772987
  entropy T*S    EENTRO =        -0.00000000
  eigenvalues    EBANDS =      -167.06120821
  atomic energy  EATOM  =      1175.76629971
  Solvation  Ediel_sol  =         0.00000000
  ---------------------------------------------------
  free energy    TOTEN  =        -6.77804258 eV

  energy without entropy =       -6.77804258  energy(sigma->0) =       -6.77804258


--------------------------------------------------------------------------------------------------------




--------------------------------------- Iteration      1(  12)  ---------------------------------------


    POTLOK:  cpu time      0.0066: real time      0.0067
    SETDIJ:  cpu time      0.0007: real time      0.0007
     EDDAV:  cpu time      1.1200: real time      1.1284
       DOS:  cpu time      0.0004: real time      0.0004
    CHARGE:  cpu time      0.0255: real time      0.0256
    MIXING:  cpu time      0.0003: real time      0.0003
    --------------------------------------------
      LOOP:  cpu time      1.1535: real time      1.1622

 eigenvalue-minimisations  : 10428
 total energy-change (2. order) : 0.3513469E-07  (-0.3433721E-07)
 number of electron      13.9999997 magnetization 
 augmentation part        3.5339592 magnetization 

 Broyden mixing:
  rms(total) = 0.10839E-03    rms(broyden)= 0.10839E-03
  rms(prec ) = 0.20131E-03
  weight for this iteration     100.00

 eigenvalues of (default mixing * dielectric matrix)
  average eigenvalue GAMMA=   1.8126
  3.2070  2.7603  2.2883  0.9979  0.9979  1.2185  1.2185

 Free energy of the ion-electron system (eV)
  ---------------------------------------------------
  alpha Z        PSCENC =        22.36081445
  Ewald energy   TEWEN  =      -703.13958985
  -Hartree energ DENC   =      -291.17840708
  -exchange      EXHF   =         0.00000000
  -V(xc)+E(xc)   XCENC  =        45.41340029
  PAW double counting   =       937.11940585    -1026.06142615
  entropy T*S    EENTRO =        -0.00000000
  eigenvalues    EBANDS =      -167.05853977
  atomic energy  EATOM  =      1175.76629971
  Solvation  Ediel_sol  =         0.00000000
  ---------------------------------------------------
  free energy    TOTEN  =        -6.77804255 eV

  energy without entropy =       -6.77804255  energy(sigma->0) =       -6.77804255


--------------------------------------------------------------------------------------------------------




--------------------------------------- Iteration      1(  13)  ---------------------------------------


    POTLOK:  cpu time      0.0067: real time      0.0068
    SETDIJ:  cpu time      0.0008: real time      0.0008
     EDDAV:  cpu time      1.0721: real time      1.0785
       DOS:  cpu time      0.0004: real time      0.0004
    CHARGE:  cpu time      0.0245: real time      0.0246
    MIXING:  cpu time      0.0003: real time      0.0003
    --------------------------------------------
      LOOP:  cpu time      1.1046: real time      1.1113

 eigenvalue-minimisations  : 10044
 total energy-change (2. order) :-0.3051107E-06  (-0.1489110E-07)
 number of electron      13.9999997 magnetization 
 augmentation part        3.5339632 magnetization 

 Broyden mixing:
  rms(total) = 0.10699E-03    rms(broyden)= 0.10699E-03
  rms(prec ) = 0.11723E-03
  weight for this iteration     100.00

 eigenvalues of (default mixing * dielectric matrix)
  average eigenvalue GAMMA=   1.7644
  3.1502  2.7911  2.3340  1.4577  1.3210  1.1159  1.0075  0.9381

 Free energy of the ion-electron system (eV)
  ---------------------------------------------------
  alpha Z        PSCENC =        22.36081445
  Ewald energy   TEWEN  =      -703.13958985
  -Hartree energ DENC   =      -291.18043181
  -exchange      EXHF   =         0.00000000
  -V(xc)+E(xc)   XCENC  =        45.41338823
  PAW double counting   =       937.03002319    -1025.97179665
  entropy T*S    EENTRO =        -0.00000000
  eigenvalues    EBANDS =      -167.05675011
  atomic energy  EATOM  =      1175.76629971
  Solvation  Ediel_sol  =         0.00000000
  ---------------------------------------------------
  free energy    TOTEN  =        -6.77804285 eV

  energy without entropy =       -6.77804285  energy(sigma->0) =       -6.77804285


--------------------------------------------------------------------------------------------------------




--------------------------------------- Iteration      1(  14)  ---------------------------------------


    POTLOK:  cpu time      0.0065: real time      0.0067
    SETDIJ:  cpu time      0.0007: real time      0.0007
     EDDAV:  cpu time      1.1290: real time      1.1396
       DOS:  cpu time      0.0004: real time      0.0004
    CHARGE:  cpu time      0.0235: real time      0.0238
    MIXING:  cpu time      0.0003: real time      0.0003
    --------------------------------------------
      LOOP:  cpu time      1.1602: real time      1.1713

 eigenvalue-minimisations  : 10560
 total energy-change (2. order) : 0.3828495E-07  (-0.2574660E-09)
 number of electron      13.9999997 magnetization 
 augmentation part        3.5339647 magnetization 

 Broyden mixing:
  rms(total) = 0.30742E-04    rms(broyden)= 0.30742E-04
  rms(prec ) = 0.37048E-04
  weight for this iteration     100.00

 eigenvalues of (default mixing * dielectric matrix)
  average eigenvalue GAMMA=   1.7769
  3.2218  2.6744  2.6744  1.9322  1.2609  1.2609  0.9885  0.9885  0.9905

 Free energy of the ion-electron system (eV)
  ---------------------------------------------------
  alpha Z        PSCENC =        22.36081445
  Ewald energy   TEWEN  =      -703.13958985
  -Hartree energ DENC   =      -291.18048326
  -exchange      EXHF   =         0.00000000
  -V(xc)+E(xc)   XCENC  =        45.41339439
  PAW double counting   =       937.06932257    -1026.01089908
  entropy T*S    EENTRO =        -0.00000000
  eigenvalues    EBANDS =      -167.05690174
  atomic energy  EATOM  =      1175.76629971
  Solvation  Ediel_sol  =         0.00000000
  ---------------------------------------------------
  free energy    TOTEN  =        -6.77804282 eV

  energy without entropy =       -6.77804282  energy(sigma->0) =       -6.77804282


--------------------------------------------------------------------------------------------------------




--------------------------------------- Iteration      1(  15)  ---------------------------------------


    POTLOK:  cpu time      0.0066: real time      0.0068
    SETDIJ:  cpu time      0.0007: real time      0.0007
     EDDAV:  cpu time      0.8444: real time      0.8500
       DOS:  cpu time      0.0004: real time      0.0004
    CHARGE:  cpu time      0.0240: real time      0.0241
    MIXING:  cpu time      0.0003: real time      0.0003
    --------------------------------------------
      LOOP:  cpu time      0.8763: real time      0.8823

 eigenvalue-minimisations  :  6672
 total energy-change (2. order) : 0.3938544E-07  (-0.9433951E-10)
 number of electron      13.9999997 magnetization 
 augmentation part        3.5339637 magnetization 

 Broyden mixing:
  rms(total) = 0.34651E-04    rms(broyden)= 0.34651E-04
  rms(prec ) = 0.37619E-04
  weight for this iteration     100.00

 eigenvalues of (default mixing * dielectric matrix)
  average eigenvalue GAMMA=   1.8200
  3.2875  2.9770  2.5655  2.4867  1.5279  1.2264  1.2264  0.9568  0.9568  0.9888

 Free energy of the ion-electron system (eV)
  ---------------------------------------------------
  alpha Z        PSCENC =        22.36081445
  Ewald energy   TEWEN  =      -703.13958985
  -Hartree energ DENC   =      -291.18048564
  -exchange      EXHF   =         0.00000000
  -V(xc)+E(xc)   XCENC  =        45.41341170
  PAW double counting   =       937.09552930    -1026.03706560
  entropy T*S    EENTRO =        -0.00000000
  eigenvalues    EBANDS =      -167.05695683
  atomic energy  EATOM  =      1175.76629971
  Solvation  Ediel_sol  =         0.00000000
  ---------------------------------------------------
  free energy    TOTEN  =        -6.77804278 eV

  energy without entropy =       -6.77804278  energy(sigma->0) =       -6.77804278


--------------------------------------------------------------------------------------------------------




--------------------------------------- Iteration      1(  16)  ---------------------------------------


    POTLOK:  cpu time      0.0067: real time      0.0068
    SETDIJ:  cpu time      0.0007: real time      0.0007
     EDDAV:  cpu time      0.7360: real time      0.7408
       DOS:  cpu time      0.0004: real time      0.0004
    CHARGE:  cpu time      0.0238: real time      0.0239
    MIXING:  cpu time      0.0003: real time      0.0003
    --------------------------------------------
      LOOP:  cpu time      0.7679: real time      0.7729

 eigenvalue-minimisations  :  5376
 total energy-change (2. order) :-0.1480612E-07  (-0.2318126E-10)
 number of electron      13.9999997 magnetization 
 augmentation part        3.5339639 magnetization 

 Broyden mixing:
  rms(total) = 0.21150E-06    rms(broyden)= 0.21138E-06
  rms(prec ) = 0.39432E-06
  weight for this iteration     100.00

 eigenvalues of (default mixing * dielectric matrix)
  average eigenvalue GAMMA=   1.7888
  3.2736  2.9876  2.5120  2.5120  1.5198  1.5198  1.2203  1.2203  0.9724  0.9724
  0.9669

 Free energy of the ion-electron system (eV)
  ---------------------------------------------------
  alpha Z        PSCENC =        22.36081445
  Ewald energy   TEWEN  =      -703.13958985
  -Hartree energ DENC   =      -291.18058674
  -exchange      EXHF   =         0.00000000
  -V(xc)+E(xc)   XCENC  =        45.41341040
  PAW double counting   =       937.07883222    -1026.02039023
  entropy T*S    EENTRO =        -0.00000000
  eigenvalues    EBANDS =      -167.05683274
  atomic energy  EATOM  =      1175.76629971
  Solvation  Ediel_sol  =         0.00000000
  ---------------------------------------------------
  free energy    TOTEN  =        -6.77804279 eV

  energy without entropy =       -6.77804279  energy(sigma->0) =       -6.77804279


--------------------------------------------------------------------------------------------------------




--------------------------------------- Iteration      1(  17)  ---------------------------------------


    POTLOK:  cpu time      0.0065: real time      0.0066
    SETDIJ:  cpu time      0.0007: real time      0.0007
     EDDAV:  cpu time      0.7148: real time      0.7193
       DOS:  cpu time      0.0012: real time      0.0012
    --------------------------------------------
      LOOP:  cpu time      0.7232: real time      0.7278

 eigenvalue-minimisations  :  5136
 total energy-change (2. order) : 0.1948592E-09  (-0.8391957E-12)
 number of electron      13.9999997 magnetization 
 augmentation part        3.5339639 magnetization 

 Free energy of the ion-electron system (eV)
  ---------------------------------------------------
  alpha Z        PSCENC =        22.36081445
  Ewald energy   TEWEN  =      -703.13958985
  -Hartree energ DENC   =      -291.18058466
  -exchange      EXHF   =         0.00000000
  -V(xc)+E(xc)   XCENC  =        45.41341019
  PAW double counting   =       937.07873949    -1026.02029761
  entropy T*S    EENTRO =        -0.00000000
  eigenvalues    EBANDS =      -167.05683449
  atomic energy  EATOM  =      1175.76629971
  Solvation  Ediel_sol  =         0.00000000
  ---------------------------------------------------
  free energy    TOTEN  =        -6.77804279 eV

  energy without entropy =       -6.77804279  energy(sigma->0) =       -6.77804279


--------------------------------------------------------------------------------------------------------




 average (electrostatic) potential at core
  the test charge radii are     0.9254  0.9406
  (the norm of the test charge is              1.0000)
       1 -47.5876       2 -93.6731
 
 
 
 E-fermi :  -0.6989     XC(G=0):  -8.0438     alpha+bet : -7.8569

 Fermi energy:        -0.6988982360

 k-point     1 :       0.0000    0.0000    0.0000
  band No.  band energies     occupation 
      1     -21.7699      2.00000
      2     -21.7699      2.00000
      3     -21.7699      2.00000
      4     -13.4901      2.00000
      5      -0.8947      2.00000
      6      -0.8947      2.00000
      7      -0.8947      2.00000
      8       4.1040      0.00000
      9      10.1947      0.00000
     10      10.1947      0.00000
     11      10.1947      0.00000
     12      12.3184      0.00000
     13      12.3184      0.00000
     14      13.8774      0.00000
     15      15.9372      0.00000
     16      15.9372      0.00000
     17      15.9372      0.00000
     18      22.4297      0.00000
     19      25.2676      0.00000
     20      25.2676      0.00000
     21      25.2676      0.00000
     22      26.0093      0.00000
     23      26.0093      0.00000
     24      26.0093      0.00000
     25      29.2629      0.00000
     26      29.2629      0.00000
     27      32.8186      0.00000
     28      32.8186      0.00000
     29      32.8186      0.00000
     30      35.1369      0.00000
     31      35.1369      0.00000
     32      35.4546      0.00000
     33      36.9482      0.00000
     34      39.2093      0.00000
     35      39.2093      0.00000
     36      39.2093      0.00000

 k-point     2 :       0.0667    0.0000    0.0000
  band No.  band energies     occupation 
      1     -21.7710      2.00000
      2     -21.7700      2.00000
      3     -21.7700      2.00000
      4     -13.4775      2.00000
      5      -1.0043      2.00000
      6      -0.9061      2.00000
      7      -0.9061      2.00000
      8       4.2528      0.00000
      9      10.0012      0.00000
     10      10.2548      0.00000
     11      10.2548      0.00000
     12      12.2143      0.00000
     13      12.2143      0.00000
     14      14.2049      0.00000
     15      15.8528      0.00000
     16      16.1858      0.00000
     17      16.1858      0.00000
     18      22.5823      0.00000
     19      24.2168      0.00000
     20      24.6481      0.00000
     21      24.6482      0.00000
     22      26.2272      0.00000
     23      26.2272      0.00000
     24      27.0050      0.00000
     25      29.2598      0.00000
     26      29.2598      0.00000
     27      32.8513      0.00000
     28      32.8513      0.00000
     29      32.8763      0.00000
     30      35.4832      0.00000
     31      35.4832      0.00000
     32      35.6788      0.00000
     33      36.9516      0.00000
     34      38.6454      0.00000
     35      38.9634      0.00000
     36      38.9634      0.00000

 k-point     3 :       0.1333    0.0000    0.0000
  band No.  band energies     occupation 
      1     -21.7741      2.00000
      2     -21.7702      2.00000
      3     -21.7702      2.00000
      4     -13.4413      2.00000
      5      -1.2888      2.00000
      6      -0.9378      2.00000
      7      -0.9378      2.00000
      8       4.6469      0.00000
      9       9.5964      0.00000
     10      10.3978      0.00000
     11      10.3978      0.00000
     12      12.0250      0.00000
     13      12.0250      0.00000
     14      14.7997      0.00000
     15      15.8719      0.00000
     16      16.8410      0.00000
     17      16.8410      0.00000
     18      22.2406      0.00000
     19      23.4414      0.00000
     20      23.4414      0.00000
     21      23.7061      0.00000
     22      26.3890      0.00000
     23      26.3890      0.00000
     24      28.0983      0.00000
     25      29.2902      0.00000
     26      29.2902      0.00000
     27      32.7112      0.00000
     28      32.7112      0.00000
     29      33.0485      0.00000
     30      36.1863      0.00000
     31      36.5182      0.00000
     32      36.5183      0.00000
     33      36.9626      0.00000
     34      37.4185      0.00000
     35      38.4045      0.00000
     36      38.4045      0.00000

 k-point     4 :       0.2000    0.0000    0.0000
  band No.  band energies     occupation 
      1     -21.7787      2.00000
      2     -21.7706      2.00000
      3     -21.7706      2.00000
      4     -13.3872      2.00000
      5      -1.6583      2.00000
      6      -0.9837      2.00000
      7      -0.9837      2.00000
      8       5.1682      0.00000
      9       9.2222      0.00000
     10      10.4900      0.00000
     11      10.4900      0.00000
     12      12.0148      0.00000
     13      12.0148      0.00000
     14      14.7425      0.00000
     15      16.7977      0.00000
     16      17.7552      0.00000
     17      17.7552      0.00000
     18      20.8843      0.00000
     19      22.0159      0.00000
     20      22.0160      0.00000
     21      24.5066      0.00000
     22      26.3863      0.00000
     23      26.3863      0.00000
     24      28.9495      0.00000
     25      29.3864      0.00000
     26      29.3864      0.00000
     27      32.3050      0.00000
     28      32.3050      0.00000
     29      33.3325      0.00000
     30      35.2066      0.00000
     31      36.9020      0.00000
     32      37.2426      0.00000
     33      37.2426      0.00000
     34      37.7255      0.00000
     35      38.4829      0.00000
     36      38.4829      0.00000

 k-point     5 :       0.2667    0.0000    0.0000
  band No.  band energies     occupation 
      1     -21.7840      2.00000
      2     -21.7710      2.00000
      3     -21.7710      2.00000
      4     -13.3238      2.00000
      5      -2.0332      2.00000
      6      -1.0352      2.00000
      7      -1.0352      2.00000
      8       5.6803      0.00000
      9       9.0192      0.00000
     10      10.4102      0.00000
     11      10.4102      0.00000
     12      12.3770      0.00000
     13      12.3770      0.00000
     14      14.4093      0.00000
     15      18.2259      0.00000
     16      18.8206      0.00000
     17      18.8206      0.00000
     18      19.4867      0.00000
     19      20.5383      0.00000
     20      20.5383      0.00000
     21      25.6288      0.00000
     22      26.1968      0.00000
     23      26.1968      0.00000
     24      29.5020      0.00000
     25      29.5387      0.00000
     26      29.5387      0.00000
     27      31.7798      0.00000
     28      31.7798      0.00000
     29      33.3988      0.00000
     30      33.7213      0.00000
     31      36.6494      0.00000
     32      36.6494      0.00000
     33      36.9110      0.00000
     34      37.9429      0.00000
     35      38.9522      0.00000
     36      38.9522      0.00000

 k-point     6 :       0.3333    0.0000    0.0000
  band No.  band energies     occupation 
      1     -21.7890      2.00000
      2     -21.7713      2.00000
      3     -21.7713      2.00000
      4     -13.2618      2.00000
      5      -2.3574      2.00000
      6      -1.0833      2.00000
      7      -1.0833      2.00000
      8       6.0569      0.00000
      9       9.0544      0.00000
     10      10.2437      0.00000
     11      10.2437      0.00000
     12      13.0509      0.00000
     13      13.0509      0.00000
     14      14.1190      0.00000
     15      18.1577      0.00000
     16      18.9994      0.00000
     17      18.9994      0.00000
     18      19.9113      0.00000
     19      20.0678      0.00000
     20      20.0678      0.00000
     21      25.7594      0.00000
     22      25.7594      0.00000
     23      26.8445      0.00000
     24      29.5318      0.00000
     25      29.7214      0.00000
     26      29.7214      0.00000
     27      31.2958      0.00000
     28      31.2958      0.00000
     29      31.9161      0.00000
     30      34.1988      0.00000
     31      36.0174      0.00000
     32      36.0174      0.00000
     33      36.0490      0.00000
     34      36.9115      0.00000
     35      38.0274      0.00000
     36      38.0274      0.00000

 k-point     7 :       0.4000    0.0000    0.0000
  band No.  band energies     occupation 
      1     -21.7929      2.00000
      2     -21.7716      2.00000
      3     -21.7716      2.00000
      4     -13.2124      2.00000
      5      -2.5933      2.00000
      6      -1.1202      2.00000
      7      -1.1202      2.00000
      8       6.2520      0.00000
      9       9.2693      0.00000
     10      10.0975      0.00000
     11      10.0975      0.00000
     12      13.9255      0.00000
     13      13.9255      0.00000
     14      13.9507      0.00000
     15      17.1193      0.00000
     16      17.6402      0.00000
     17      17.6402      0.00000
     18      21.2421      0.00000
     19      21.2421      0.00000
     20      21.6430      0.00000
     21      25.0522      0.00000
     22      25.0522      0.00000
     23      27.4230      0.00000
     24      29.2028      0.00000
     25      29.8966      0.00000
     26      29.8966      0.00000
     27      30.9596      0.00000
     28      30.9596      0.00000
     29      31.4052      0.00000
     30      34.1550      0.00000
     31      34.7193      0.00000
     32      35.5368      0.00000
     33      35.5368      0.00000
     34      36.9093      0.00000
     35      37.2483      0.00000
     36      37.2483      0.00000

 k-point     8 :       0.4667    0.0000    0.0000
  band No.  band energies     occupation 
      1     -21.7950      2.00000
      2     -21.7718      2.00000
      3     -21.7718      2.00000
      4     -13.1851      2.00000
      5      -2.7172      2.00000
      6      -1.1401      2.00000
      7      -1.1401      2.00000
      8       6.3200      0.00000
      9       9.4668      0.00000
     10      10.0169      0.00000
     11      10.0169      0.00000
     12      13.9036      0.00000
     13      14.8809      0.00000
     14      14.8809      0.00000
     15      16.4342      0.00000
     16      16.4342      0.00000
     17      16.4928      0.00000
     18      22.2877      0.00000
     19      22.2877      0.00000
     20      23.2323      0.00000
     21      24.2400      0.00000
     22      24.2400      0.00000
     23      26.2833      0.00000
     24      30.0116      0.00000
     25      30.0116      0.00000
     26      30.2684      0.00000
     27      30.7954      0.00000
     28      30.7954      0.00000
     29      31.2385      0.00000
     30      32.5960      0.00000
     31      35.1371      0.00000
     32      35.2774      0.00000
     33      35.2774      0.00000
     34      36.8330      0.00000
     35      36.8330      0.00000
     36      36.9075      0.00000

 k-point     9 :       0.0667    0.0667    0.0000
  band No.  band energies     occupation 
      1     -21.7710      2.00000
      2     -21.7702      2.00000
      3     -21.7702      2.00000
      4     -13.4733      2.00000
      5      -1.0145      2.00000
      6      -0.9223      2.00000
      7      -0.9223      2.00000
      8       4.3018      0.00000
      9       9.9088      0.00000
     10      10.2946      0.00000
     11      10.2946      0.00000
     12      11.9794      0.00000
     13      12.3791      0.00000
     14      14.3193      0.00000
     15      16.0552      0.00000
     16      16.0552      0.00000
     17      16.2320      0.00000
     18      22.6493      0.00000
     19      24.0853      0.00000
     20      24.0853      0.00000
     21      25.2932      0.00000
     22      25.3040      0.00000
     23      27.0117      0.00000
     24      27.0117      0.00000
     25      28.6207      0.00000
     26      29.7766      0.00000
     27      32.5699      0.00000
     28      33.1449      0.00000
     29      33.1449      0.00000
     30      34.8264      0.00000
     31      35.7669      0.00000
     32      36.1436      0.00000
     33      36.9531      0.00000
     34      38.5659      0.00000
     35      38.5659      0.00000
     36      39.0383      0.00000

 k-point    10 :       0.1333    0.0667    0.0000
  band No.  band energies     occupation 
      1     -21.7733      2.00000
      2     -21.7706      2.00000
      3     -21.7703      2.00000
      4     -13.4453      2.00000
      5      -1.2268      2.00000
      6      -0.9583      2.00000
      7      -0.9461      2.00000
      8       4.6131      0.00000
      9       9.5749      0.00000
     10      10.4178      0.00000
     11      10.4312      0.00000
     12      11.6607      0.00000
     13      12.3671      0.00000
     14      14.9006      0.00000
     15      15.9940      0.00000
     16      16.4082      0.00000
     17      16.8586      0.00000
     18      22.4568      0.00000
     19      23.1379      0.00000
     20      23.4978      0.00000
     21      24.5223      0.00000
     22      25.2705      0.00000
     23      27.3581      0.00000
     24      27.8812      0.00000
     25      28.2182      0.00000
     26      30.0948      0.00000
     27      32.4419      0.00000
     28      33.0588      0.00000
     29      33.4740      0.00000
     30      35.2490      0.00000
     31      36.2604      0.00000
     32      36.9708      0.00000
     33      37.1486      0.00000
     34      37.5589      0.00000
     35      37.9002      0.00000
     36      38.6756      0.00000

 k-point    11 :       0.2000    0.0667    0.0000
  band No.  band energies     occupation 
      1     -21.7773      2.00000
      2     -21.7710      2.00000
      3     -21.7705      2.00000
      4     -13.3975      2.00000
      5      -1.5578      2.00000
      6      -1.0071      2.00000
      7      -0.9839      2.00000
      8       5.0939      0.00000
      9       9.2110      0.00000
     10      10.4870      0.00000
     11      10.5591      0.00000
     12      11.5260      0.00000
     13      12.3798      0.00000
     14      15.1149      0.00000
     15      16.5289      0.00000
     16      17.1332      0.00000
     17      17.7946      0.00000
     18      21.0984      0.00000
     19      21.8736      0.00000
     20      23.2516      0.00000
     21      24.1609      0.00000
     22      25.3246      0.00000
     23      27.3613      0.00000
     24      28.1476      0.00000
     25      28.7102      0.00000
     26      30.4617      0.00000
     27      32.2913      0.00000
     28      32.3403      0.00000
     29      33.7679      0.00000
     30      35.6779      0.00000
     31      36.6502      0.00000
     32      36.8471      0.00000
     33      36.8895      0.00000
     34      37.4777      0.00000
     35      38.1128      0.00000
     36      38.8001      0.00000

 k-point    12 :       0.2667    0.0667    0.0000
  band No.  band energies     occupation 
      1     -21.7822      2.00000
      2     -21.7715      2.00000
      3     -21.7709      2.00000
      4     -13.3377      2.00000
      5      -1.9195      2.00000
      6      -1.0596      2.00000
      7      -1.0362      2.00000
      8       5.6194      0.00000
      9       8.9654      0.00000
     10      10.3332      0.00000
     11      10.5469      0.00000
     12      11.8250      0.00000
     13      12.6643      0.00000
     14      14.8239      0.00000
     15      17.8051      0.00000
     16      18.0838      0.00000
     17      18.8894      0.00000
     18      19.6413      0.00000
     19      20.4637      0.00000
     20      21.8704      0.00000
     21      24.8342      0.00000
     22      25.5944      0.00000
     23      27.2115      0.00000
     24      28.1774      0.00000
     25      29.2446      0.00000
     26      30.9223      0.00000
     27      31.4426      0.00000
     28      32.0789      0.00000
     29      34.0289      0.00000
     30      34.0799      0.00000
     31      36.0469      0.00000
     32      36.8800      0.00000
     33      36.9129      0.00000
     34      37.4544      0.00000
     35      38.9584      0.00000
     36      39.3607      0.00000

 k-point    13 :       0.3333    0.0667    0.0000
  band No.  band energies     occupation 
      1     -21.7872      2.00000
      2     -21.7718      2.00000
      3     -21.7713      2.00000
      4     -13.2756      2.00000
      5      -2.2503      2.00000
      6      -1.1067      2.00000
      7      -1.0935      2.00000
      8       6.0560      0.00000
      9       8.9318      0.00000
     10      10.1018      0.00000
     11      10.4086      0.00000
     12      12.4356      0.00000
     13      13.2647      0.00000
     14      14.5227      0.00000
     15      18.2396      0.00000
     16      18.8481      0.00000
     17      19.3510      0.00000
     18      19.3548      0.00000
     19      19.9226      0.00000
     20      20.6459      0.00000
     21      24.8209      0.00000
     22      26.5290      0.00000
     23      26.8127      0.00000
     24      28.2968      0.00000
     25      29.4723      0.00000
     26      30.5836      0.00000
     27      31.1926      0.00000
     28      31.8606      0.00000
     29      32.6167      0.00000
     30      34.2234      0.00000
     31      35.4477      0.00000
     32      35.8361      0.00000
     33      36.5887      0.00000
     34      36.9140      0.00000
     35      38.2855      0.00000
     36      38.8015      0.00000

 k-point    14 :       0.4000    0.0667    0.0000
  band No.  band energies     occupation 
      1     -21.7914      2.00000
      2     -21.7720      2.00000
      3     -21.7718      2.00000
      4     -13.2223      2.00000
      5      -2.5079      2.00000
      6      -1.1458      2.00000
      7      -1.1410      2.00000
      8       6.3156      0.00000
      9       9.1052      0.00000
     10       9.9292      0.00000
     11      10.2480      0.00000
     12      13.2102      0.00000
     13      14.0882      0.00000
     14      14.3417      0.00000
     15      17.0742      0.00000
     16      17.5904      0.00000
     17      18.9631      0.00000
     18      20.3930      0.00000
     19      20.9356      0.00000
     20      21.5416      0.00000
     21      24.4365      0.00000
     22      26.0855      0.00000
     23      27.3608      0.00000
     24      28.5265      0.00000
     25      29.1378      0.00000
     26      30.2117      0.00000
     27      30.7447      0.00000
     28      31.6914      0.00000
     29      32.1857      0.00000
     30      34.1602      0.00000
     31      34.4706      0.00000
     32      35.3198      0.00000
     33      35.6858      0.00000
     34      36.8897      0.00000
     35      37.3994      0.00000
     36      37.8161      0.00000

 k-point    15 :       0.4667    0.0667    0.0000
  band No.  band energies     occupation 
      1     -21.7940      2.00000
      2     -21.7722      2.00000
      3     -21.7721      2.00000
      4     -13.1876      2.00000
      5      -2.6645      2.00000
      6      -1.1846      2.00000
      7      -1.1571      2.00000
      8       6.4219      0.00000
      9       9.3125      0.00000
     10       9.8660      0.00000
     11      10.1310      0.00000
     12      13.9616      0.00000
     13      14.4201      0.00000
     14      14.9828      0.00000
     15      16.2050      0.00000
     16      16.4027      0.00000
     17      17.7806      0.00000
     18      21.5272      0.00000
     19      22.1824      0.00000
     20      22.9117      0.00000
     21      23.9733      0.00000
     22      25.1153      0.00000
     23      26.6961      0.00000
     24      28.8228      0.00000
     25      29.4816      0.00000
     26      29.8593      0.00000
     27      30.7723      0.00000
     28      31.5586      0.00000
     29      31.9818      0.00000
     30      33.3528      0.00000
     31      33.9776      0.00000
     32      35.0215      0.00000
     33      35.5076      0.00000
     34      36.7997      0.00000
     35      37.0237      0.00000
     36      37.1655      0.00000

 k-point    16 :      -0.4667    0.0667    0.0000
  band No.  band energies     occupation 
      1     -21.7947      2.00000
      2     -21.7725      2.00000
      3     -21.7720      2.00000
      4     -13.1785      2.00000
      5      -2.7045      2.00000
      6      -1.2038      2.00000
      7      -1.1528      2.00000
      8       6.4437      0.00000
      9       9.3789      0.00000
     10       9.8707      0.00000
     11      10.0866      0.00000
     12      14.1776      0.00000
     13      14.8059      0.00000
     14      15.1001      0.00000
     15      15.6078      0.00000
     16      16.5330      0.00000
     17      17.1296      0.00000
     18      22.0397      0.00000
     19      22.4086      0.00000
     20      23.6224      0.00000
     21      24.1597      0.00000
     22      24.3473      0.00000
     23      26.1038      0.00000
     24      29.0031      0.00000
     25      29.1620      0.00000
     26      30.6533      0.00000
     27      31.1332      0.00000
     28      31.1904      0.00000
     29      31.4065      0.00000
     30      33.1610      0.00000
     31      33.9785      0.00000
     32      34.7036      0.00000
     33      35.5777      0.00000
     34      36.8041      0.00000
     35      36.9705      0.00000
     36      37.0266      0.00000

 k-point    17 :      -0.4000    0.0667    0.0000
  band No.  band energies     occupation 
      1     -21.7933      2.00000
      2     -21.7725      2.00000
      3     -21.7717      2.00000
      4     -13.1966      2.00000
      5      -2.6241      2.00000
      6      -1.2005      2.00000
      7      -1.1285      2.00000
      8       6.4025      0.00000
      9       9.2717      0.00000
     10       9.8949      0.00000
     11      10.1256      0.00000
     12      13.8080      0.00000
     13      14.2092      0.00000
     14      14.7850      0.00000
     15      16.0210      0.00000
     16      17.5908      0.00000
     17      17.7310      0.00000
     18      20.9844      0.00000
     19      22.1262      0.00000
     20      22.3902      0.00000
     21      24.1169      0.00000
     22      25.3502      0.00000
     23      27.0822      0.00000
     24      28.6406      0.00000
     25      29.5741      0.00000
     26      29.7179      0.00000
     27      31.1978      0.00000
     28      31.3299      0.00000
     29      31.8980      0.00000
     30      33.7269      0.00000
     31      34.2118      0.00000
     32      34.7973      0.00000
     33      35.4415      0.00000
     34      36.8896      0.00000
     35      37.2198      0.00000
     36      37.4006      0.00000

 k-point    18 :      -0.3333    0.0667    0.0000
  band No.  band energies     occupation 
      1     -21.7901      2.00000
      2     -21.7724      2.00000
      3     -21.7713      2.00000
      4     -13.2383      2.00000
      5      -2.4313      2.00000
      6      -1.1748      2.00000
      7      -1.0880      2.00000
      8       6.2544      0.00000
      9       9.0522      0.00000
     10      10.0151      0.00000
     11      10.2461      0.00000
     12      12.8868      0.00000
     13      13.8478      0.00000
     14      14.3838      0.00000
     15      17.1181      0.00000
     16      18.6512      0.00000
     17      19.0892      0.00000
     18      19.7500      0.00000
     19      20.7850      0.00000
     20      21.0178      0.00000
     21      24.6351      0.00000
     22      26.1428      0.00000
     23      27.1275      0.00000
     24      28.7518      0.00000
     25      29.3955      0.00000
     26      30.1058      0.00000
     27      30.9551      0.00000
     28      31.8950      0.00000
     29      31.9772      0.00000
     30      34.4120      0.00000
     31      34.8706      0.00000
     32      35.4523      0.00000
     33      35.5059      0.00000
     34      36.9078      0.00000
     35      37.7825      0.00000
     36      38.2388      0.00000

 k-point    19 :      -0.2667    0.0667    0.0000
  band No.  band energies     occupation 
      1     -21.7856      2.00000
      2     -21.7721      2.00000
      3     -21.7708      2.00000
      4     -13.2958      2.00000
      5      -2.1462      2.00000
      6      -1.1302      2.00000
      7      -1.0376      2.00000
      8       5.9313      0.00000
      9       8.9401      0.00000
     10      10.2072      0.00000
     11      10.4270      0.00000
     12      12.1344      0.00000
     13      13.0901      0.00000
     14      14.6207      0.00000
     15      18.3544      0.00000
     16      18.5050      0.00000
     17      19.0510      0.00000
     18      19.7090      0.00000
     19      20.1711      0.00000
     20      20.6575      0.00000
     21      24.9841      0.00000
     22      25.8554      0.00000
     23      26.9989      0.00000
     24      28.3867      0.00000
     25      29.9521      0.00000
     26      30.5121      0.00000
     27      30.9606      0.00000
     28      31.9488      0.00000
     29      33.0487      0.00000
     30      34.2583      0.00000
     31      35.6542      0.00000
     32      36.1349      0.00000
     33      36.8966      0.00000
     34      37.0031      0.00000
     35      38.4768      0.00000
     36      39.2033      0.00000

 k-point    20 :      -0.2000    0.0667    0.0000
  band No.  band energies     occupation 
      1     -21.7806      2.00000
      2     -21.7716      2.00000
      3     -21.7704      2.00000
      4     -13.3583      2.00000
      5      -1.8016      2.00000
      6      -1.0729      2.00000
      7      -0.9856      2.00000
      8       5.4484      0.00000
      9       9.0558      0.00000
     10      10.3869      0.00000
     11      10.5819      0.00000
     12      11.6500      0.00000
     13      12.5370      0.00000
     14      14.9444      0.00000
     15      17.1589      0.00000
     16      17.8400      0.00000
     17      18.6105      0.00000
     18      19.8627      0.00000
     19      21.4325      0.00000
     20      22.1200      0.00000
     21      24.8421      0.00000
     22      25.1267      0.00000
     23      27.2098      0.00000
     24      28.2089      0.00000
     25      29.6996      0.00000
     26      30.3290      0.00000
     27      31.6085      0.00000
     28      32.1727      0.00000
     29      34.0138      0.00000
     30      34.6849      0.00000
     31      36.3848      0.00000
     32      36.9117      0.00000
     33      36.9230      0.00000
     34      38.0159      0.00000
     35      38.1166      0.00000
     36      39.3877      0.00000

 k-point    21 :      -0.1333    0.0667    0.0000
  band No.  band energies     occupation 
      1     -21.7760      2.00000
      2     -21.7711      2.00000
      3     -21.7701      2.00000
      4     -13.4152      2.00000
      5      -1.4472      2.00000
      6      -1.0109      2.00000
      7      -0.9412      2.00000
      8       4.9207      0.00000
      9       9.3592      0.00000
     10      10.4430      0.00000
     11      10.5217      0.00000
     12      11.6165      0.00000
     13      12.2823      0.00000
     14      15.1421      0.00000
     15      16.1293      0.00000
     16      16.8405      0.00000
     17      17.5869      0.00000
     18      21.3487      0.00000
     19      22.6925      0.00000
     20      23.6100      0.00000
     21      23.9299      0.00000
     22      25.1256      0.00000
     23      27.2288      0.00000
     24      28.2561      0.00000
     25      28.8988      0.00000
     26      30.0837      0.00000
     27      32.2199      0.00000
     28      32.4958      0.00000
     29      33.8006      0.00000
     30      36.2276      0.00000
     31      36.2628      0.00000
     32      36.8744      0.00000
     33      37.0252      0.00000
     34      37.4664      0.00000
     35      38.1436      0.00000
     36      38.2734      0.00000

 k-point    22 :      -0.0667    0.0667    0.0000
  band No.  band energies     occupation 
      1     -21.7726      2.00000
      2     -21.7705      2.00000
      3     -21.7699      2.00000
      4     -13.4570      2.00000
      5      -1.1545      2.00000
      6      -0.9513      2.00000
      7      -0.9128      2.00000
      8       4.4828      0.00000
      9       9.7361      0.00000
     10      10.3450      0.00000
     11      10.3572      0.00000
     12      11.9008      0.00000
     13      12.2621      0.00000
     14      14.6608      0.00000
     15      15.9325      0.00000
     16      16.2100      0.00000
     17      16.7434      0.00000
     18      22.5451      0.00000
     19      23.5324      0.00000
     20      23.7284      0.00000
     21      24.8166      0.00000
     22      25.1874      0.00000
     23      27.0293      0.00000
     24      27.7555      0.00000
     25      28.6709      0.00000
     26      29.7698      0.00000
     27      32.6182      0.00000
     28      32.7180      0.00000
     29      33.4276      0.00000
     30      35.3778      0.00000
     31      36.0341      0.00000
     32      36.5889      0.00000
     33      36.9626      0.00000
     34      38.0476      0.00000
     35      38.1761      0.00000
     36      38.7831      0.00000

 k-point    23 :       0.1333    0.1333    0.0000
  band No.  band energies     occupation 
      1     -21.7739      2.00000
      2     -21.7711      2.00000
      3     -21.7711      2.00000
      4     -13.4264      2.00000
      5      -1.3099      2.00000
      6      -0.9986      2.00000
      7      -0.9986      2.00000
      8       4.8229      0.00000
      9       9.3029      0.00000
     10      10.5841      0.00000
     11      10.5841      0.00000
     12      11.2153      0.00000
     13      12.5581      0.00000
     14      15.3912      0.00000
     15      16.4073      0.00000
     16      16.4073      0.00000
     17      16.9223      0.00000
     18      22.5657      0.00000
     19      22.5657      0.00000
     20      22.7203      0.00000
     21      24.4925      0.00000
     22      25.4092      0.00000
     23      27.2096      0.00000
     24      28.0132      0.00000
     25      28.0132      0.00000
     26      30.4025      0.00000
     27      32.2770      0.00000
     28      33.9874      0.00000
     29      33.9874      0.00000
     30      34.2013      0.00000
     31      36.6298      0.00000
     32      36.9937      0.00000
     33      36.9937      0.00000
     34      37.0219      0.00000
     35      38.2055      0.00000
     36      38.4970      0.00000

 k-point    24 :       0.2000    0.1333    0.0000
  band No.  band energies     occupation 
      1     -21.7767      2.00000
      2     -21.7716      2.00000
      3     -21.7714      2.00000
      4     -13.3877      2.00000
      5      -1.5463      2.00000
      6      -1.0509      2.00000
      7      -1.0440      2.00000
      8       5.2212      0.00000
      9       8.9778      0.00000
     10      10.5595      0.00000
     11      10.7650      0.00000
     12      11.0721      0.00000
     13      12.6632      0.00000
     14      15.8833      0.00000
     15      16.6500      0.00000
     16      16.8485      0.00000
     17      17.7093      0.00000
     18      21.1733      0.00000
     19      21.6194      0.00000
     20      22.7915      0.00000
     21      24.6698      0.00000
     22      25.1713      0.00000
     23      26.6451      0.00000
     24      28.2892      0.00000
     25      28.6166      0.00000
     26      30.6087      0.00000
     27      32.1488      0.00000
     28      33.1226      0.00000
     29      34.2522      0.00000
     30      35.0165      0.00000
     31      36.2531      0.00000
     32      36.2791      0.00000
     33      36.8812      0.00000
     34      37.5204      0.00000
     35      37.9721      0.00000
     36      39.5143      0.00000

 k-point    25 :       0.2667    0.1333    0.0000
  band No.  band energies     occupation 
      1     -21.7808      2.00000
      2     -21.7722      2.00000
      3     -21.7717      2.00000
      4     -13.3351      2.00000
      5      -1.8483      2.00000
      6      -1.1056      2.00000
      7      -1.1009      2.00000
      8       5.7168      0.00000
      9       8.7297      0.00000
     10      10.1607      0.00000
     11      10.8323      0.00000
     12      11.4840      0.00000
     13      12.9185      0.00000
     14      15.6918      0.00000
     15      17.6053      0.00000
     16      17.6833      0.00000
     17      18.8065      0.00000
     18      19.6812      0.00000
     19      20.3880      0.00000
     20      22.5461      0.00000
     21      24.2410      0.00000
     22      25.6143      0.00000
     23      26.4870      0.00000
     24      28.2470      0.00000
     25      29.1806      0.00000
     26      30.6607      0.00000
     27      32.0195      0.00000
     28      32.4514      0.00000
     29      33.9740      0.00000
     30      34.3454      0.00000
     31      35.9738      0.00000
     32      36.6943      0.00000
     33      36.7652      0.00000
     34      36.9816      0.00000
     35      38.5785      0.00000
     36      39.5413      0.00000

 k-point    26 :       0.3333    0.1333    0.0000
  band No.  band energies     occupation 
      1     -21.7853      2.00000
      2     -21.7726      2.00000
      3     -21.7722      2.00000
      4     -13.2773      2.00000
      5      -2.1458      2.00000
      6      -1.1724      2.00000
      7      -1.1534      2.00000
      8       6.1929      0.00000
      9       8.6507      0.00000
     10       9.8018      0.00000
     11      10.7384      0.00000
     12      12.0687      0.00000
     13      13.4634      0.00000
     14      15.4058      0.00000
     15      18.2136      0.00000
     16      18.4265      0.00000
     17      19.0852      0.00000
     18      19.1690      0.00000
     19      19.9529      0.00000
     20      21.8079      0.00000
     21      23.8742      0.00000
     22      26.4410      0.00000
     23      26.6017      0.00000
     24      27.8714      0.00000
     25      29.4072      0.00000
     26      30.1631      0.00000
     27      31.9123      0.00000
     28      32.1308      0.00000
     29      33.3655      0.00000
     30      33.6347      0.00000
     31      35.2510      0.00000
     32      36.0642      0.00000
     33      36.6215      0.00000
     34      36.9274      0.00000
     35      38.6958      0.00000
     36      39.6202      0.00000

 k-point    27 :       0.4000    0.1333    0.0000
  band No.  band energies     occupation 
      1     -21.7892      2.00000
      2     -21.7729      2.00000
      3     -21.7728      2.00000
      4     -13.2243      2.00000
      5      -2.3930      2.00000
      6      -1.2476      2.00000
      7      -1.1866      2.00000
      8       6.5303      0.00000
      9       8.7781      0.00000
     10       9.5641      0.00000
     11      10.5739      0.00000
     12      12.7376      0.00000
     13      14.2426      0.00000
     14      15.2220      0.00000
     15      17.0078      0.00000
     16      17.5787      0.00000
     17      19.7337      0.00000
     18      20.0571      0.00000
     19      20.5515      0.00000
     20      21.8070      0.00000
     21      23.6748      0.00000
     22      26.8279      0.00000
     23      27.0599      0.00000
     24      27.2227      0.00000
     25      28.9112      0.00000
     26      30.2416      0.00000
     27      31.1800      0.00000
     28      31.8125      0.00000
     29      32.8421      0.00000
     30      33.3714      0.00000
     31      34.0755      0.00000
     32      36.1487      0.00000
     33      36.2535      0.00000
     34      36.8978      0.00000
     35      37.5773      0.00000
     36      38.4042      0.00000

 k-point    28 :       0.4667    0.1333    0.0000
  band No.  band energies     occupation 
      1     -21.7920      2.00000
      2     -21.7735      2.00000
      3     -21.7728      2.00000
      4     -13.1857      2.00000
      5      -2.5596      2.00000
      6      -1.3134      2.00000
      7      -1.2003      2.00000
      8       6.6992      0.00000
      9       8.9630      0.00000
     10       9.5241      0.00000
     11      10.4241      0.00000
     12      13.3910      0.00000
     13      15.0742      0.00000
     14      15.2030      0.00000
     15      16.1194      0.00000
     16      16.4450      0.00000
     17      19.0224      0.00000
     18      20.7894      0.00000
     19      21.7979      0.00000
     20      22.7452      0.00000
     21      23.7183      0.00000
     22      26.1356      0.00000
     23      26.7291      0.00000
     24      27.3320      0.00000
     25      29.0185      0.00000
     26      29.7234      0.00000
     27      30.8909      0.00000
     28      31.7001      0.00000
     29      32.4215      0.00000
     30      32.5570      0.00000
     31      34.0865      0.00000
     32      35.4097      0.00000
     33      36.4292      0.00000
     34      36.7659      0.00000
     35      37.0278      0.00000
     36      37.5348      0.00000

 k-point    29 :      -0.4667    0.1333    0.0000
  band No.  band energies     occupation 
      1     -21.7932      2.00000
      2     -21.7741      2.00000
      3     -21.7725      2.00000
      4     -13.1689      2.00000
      5      -2.6273      2.00000
      6      -1.3586      2.00000
      7      -1.1925      2.00000
      8       6.7610      0.00000
      9       9.0365      0.00000
     10       9.6049      0.00000
     11      10.3332      0.00000
     12      13.9798      0.00000
     13      14.7879      0.00000
     14      15.1215      0.00000
     15      15.8839      0.00000
     16      16.6542      0.00000
     17      18.0832      0.00000
     18      21.6454      0.00000
     19      21.7565      0.00000
     20      23.7813      0.00000
     21      24.2487      0.00000
     22      25.0156      0.00000
     23      26.3188      0.00000
     24      27.7882      0.00000
     25      28.1749      0.00000
     26      30.2015      0.00000
     27      31.2739      0.00000
     28      31.5718      0.00000
     29      31.7034      0.00000
     30      32.3986      0.00000
     31      34.0075      0.00000
     32      34.7686      0.00000
     33      36.4667      0.00000
     34      36.8064      0.00000
     35      37.0680      0.00000
     36      37.1834      0.00000

 k-point    30 :      -0.4000    0.1333    0.0000
  band No.  band energies     occupation 
      1     -21.7926      2.00000
      2     -21.7744      2.00000
      3     -21.7721      2.00000
      4     -13.1773      2.00000
      5      -2.5896      2.00000
      6      -1.3752      2.00000
      7      -1.1643      2.00000
      8       6.7537      0.00000
      9       9.0780      0.00000
     10       9.5398      0.00000
     11      10.3218      0.00000
     12      13.7735      0.00000
     13      14.6668      0.00000
     14      14.9618      0.00000
     15      15.7354      0.00000
     16      17.8265      0.00000
     17      17.9421      0.00000
     18      20.6510      0.00000
     19      22.3911      0.00000
     20      23.2251      0.00000
     21      23.9386      0.00000
     22      25.2405      0.00000
     23      26.7247      0.00000
     24      27.7665      0.00000
     25      28.3388      0.00000
     26      30.2967      0.00000
     27      31.3953      0.00000
     28      31.8119      0.00000
     29      31.8372      0.00000
     30      32.3847      0.00000
     31      33.7259      0.00000
     32      34.7030      0.00000
     33      36.3689      0.00000
     34      36.8915      0.00000
     35      37.3260      0.00000
     36      37.5565      0.00000

 k-point    31 :      -0.3333    0.1333    0.0000
  band No.  band energies     occupation 
      1     -21.7903      2.00000
      2     -21.7744      2.00000
      3     -21.7715      2.00000
      4     -13.2090      2.00000
      5      -2.4519      2.00000
      6      -1.3588      2.00000
      7      -1.1199      2.00000
      8       6.6451      0.00000
      9       8.9830      0.00000
     10       9.5305      0.00000
     11      10.3988      0.00000
     12      12.8243      0.00000
     13      14.6812      0.00000
     14      15.1761      0.00000
     15      15.7990      0.00000
     16      18.6716      0.00000
     17      19.1600      0.00000
     18      19.4655      0.00000
     19      21.8640      0.00000
     20      22.0024      0.00000
     21      23.5942      0.00000
     22      25.6231      0.00000
     23      27.0960      0.00000
     24      28.4874      0.00000
     25      29.0136      0.00000
     26      29.5139      0.00000
     27      31.6184      0.00000
     28      31.9481      0.00000
     29      32.7349      0.00000
     30      32.9398      0.00000
     31      33.5271      0.00000
     32      35.1570      0.00000
     33      36.2678      0.00000
     34      36.9090      0.00000
     35      37.7629      0.00000
     36      38.3987      0.00000

 k-point    32 :      -0.2667    0.1333    0.0000
  band No.  band energies     occupation 
      1     -21.7868      2.00000
      2     -21.7741      2.00000
      3     -21.7710      2.00000
      4     -13.2581      2.00000
      5      -2.2322      2.00000
      6      -1.3086      2.00000
      7      -1.0663      2.00000
      8       6.3597      0.00000
      9       8.8236      0.00000
     10       9.7532      0.00000
     11      10.5652      0.00000
     12      12.0146      0.00000
     13      13.9253      0.00000
     14      15.3512      0.00000
     15      16.9809      0.00000
     16      18.1434      0.00000
     17      19.4790      0.00000
     18      20.3896      0.00000
     19      20.7349      0.00000
     20      21.0902      0.00000
     21      23.7236      0.00000
     22      25.3573      0.00000
     23      27.4612      0.00000
     24      28.1970      0.00000
     25      29.8035      0.00000
     26      30.0985      0.00000
     27      31.2927      0.00000
     28      32.3204      0.00000
     29      32.8110      0.00000
     30      33.8419      0.00000
     31      34.4930      0.00000
     32      36.1510      0.00000
     33      36.2056      0.00000
     34      36.9164      0.00000
     35      38.3475      0.00000
     36      38.9911      0.00000

 k-point    33 :      -0.2000    0.1333    0.0000
  band No.  band energies     occupation 
      1     -21.7827      2.00000
      2     -21.7734      2.00000
      3     -21.7705      2.00000
      4     -13.3154      2.00000
      5      -1.9613      2.00000
      6      -1.2273      2.00000
      7      -1.0124      2.00000
      8       5.8957      0.00000
      9       8.8532      0.00000
     10      10.0585      0.00000
     11      10.8015      0.00000
     12      11.3837      0.00000
     13      13.1900      0.00000
     14      15.6452      0.00000
     15      16.9815      0.00000
     16      18.3812      0.00000
     17      18.6368      0.00000
     18      19.6125      0.00000
     19      21.2774      0.00000
     20      22.1894      0.00000
     21      23.7733      0.00000
     22      24.9091      0.00000
     23      27.3397      0.00000
     24      27.9528      0.00000
     25      30.5981      0.00000
     26      30.7262      0.00000
     27      31.0032      0.00000
     28      31.7413      0.00000
     29      34.0378      0.00000
     30      34.6449      0.00000
     31      35.3430      0.00000
     32      36.4194      0.00000
     33      36.9138      0.00000
     34      37.7599      0.00000
     35      38.0364      0.00000
     36      38.9206      0.00000

 k-point    34 :      -0.1333    0.1333    0.0000
  band No.  band energies     occupation 
      1     -21.7789      2.00000
      2     -21.7723      2.00000
      3     -21.7702      2.00000
      4     -13.3708      2.00000
      5      -1.6830      2.00000
      6      -1.1219      2.00000
      7      -0.9679      2.00000
      8       5.3713      0.00000
      9       9.0644      0.00000
     10      10.3301      0.00000
     11      10.7928      0.00000
     12      11.2503      0.00000
     13      12.6272      0.00000
     14      15.7869      0.00000
     15      16.1404      0.00000
     16      17.5127      0.00000
     17      18.5378      0.00000
     18      19.8808      0.00000
     19      22.1287      0.00000
     20      23.5962      0.00000
     21      23.8086      0.00000
     22      24.3766      0.00000
     23      27.2602      0.00000
     24      27.9844      0.00000
     25      29.9614      0.00000
     26      30.5492      0.00000
     27      31.5116      0.00000
     28      32.0718      0.00000
     29      34.6757      0.00000
     30      35.5200      0.00000
     31      35.9855      0.00000
     32      36.6989      0.00000
     33      36.9132      0.00000
     34      37.2633      0.00000
     35      37.9590      0.00000
     36      39.7493      0.00000

 k-point    35 :       0.2000    0.2000    0.0000
  band No.  band energies     occupation 
      1     -21.7777      2.00000
      2     -21.7724      2.00000
      3     -21.7724      2.00000
      4     -13.3592      2.00000
      5      -1.6627      2.00000
      6      -1.1067      2.00000
      7      -1.1067      2.00000
      8       5.5141      0.00000
      9       8.6641      0.00000
     10      10.3776      0.00000
     11      11.0360      0.00000
     12      11.0360      0.00000
     13      12.8443      0.00000
     14      16.8008      0.00000
     15      16.9759      0.00000
     16      16.9759      0.00000
     17      17.7922      0.00000
     18      21.1073      0.00000
     19      21.1073      0.00000
     20      21.4454      0.00000
     21      25.2734      0.00000
     22      25.5716      0.00000
     23      25.6344      0.00000
     24      28.7301      0.00000
     25      28.7301      0.00000
     26      30.3630      0.00000
     27      32.0325      0.00000
     28      33.8312      0.00000
     29      33.8312      0.00000
     30      33.8730      0.00000
     31      36.3877      0.00000
     32      36.3877      0.00000
     33      36.9038      0.00000
     34      37.3636      0.00000
     35      38.0650      0.00000
     36      40.3284      0.00000

 k-point    36 :       0.2667    0.2000    0.0000
  band No.  band energies     occupation 
      1     -21.7804      2.00000
      2     -21.7730      2.00000
      3     -21.7729      2.00000
      4     -13.3165      2.00000
      5      -1.8695      2.00000
      6      -1.1703      2.00000
      7      -1.1643      2.00000
      8       5.9205      0.00000
      9       8.4019      0.00000
     10       9.9563      0.00000
     11      11.2263      0.00000
     12      11.4153      0.00000
     13      13.0800      0.00000
     14      16.7880      0.00000
     15      17.4636      0.00000
     16      17.8858      0.00000
     17      18.6250      0.00000
     18      19.7544      0.00000
     19      20.2385      0.00000
     20      21.3695      0.00000
     21      25.1244      0.00000
     22      25.2103      0.00000
     23      25.9205      0.00000
     24      28.8617      0.00000
     25      29.1804      0.00000
     26      30.1093      0.00000
     27      31.9018      0.00000
     28      32.7653      0.00000
     29      32.9509      0.00000
     30      34.0389      0.00000
     31      36.3774      0.00000
     32      36.8417      0.00000
     33      36.8650      0.00000
     34      36.9821      0.00000
     35      38.5464      0.00000
     36      39.4262      0.00000

 k-point    37 :       0.3333    0.2000    0.0000
  band No.  band energies     occupation 
      1     -21.7839      2.00000
      2     -21.7735      2.00000
      3     -21.7735      2.00000
      4     -13.2666      2.00000
      5      -2.0963      2.00000
      6      -1.2559      2.00000
      7      -1.2140      2.00000
      8       6.3686      0.00000
      9       8.2746      0.00000
     10       9.5727      0.00000
     11      11.2132      0.00000
     12      11.9400      0.00000
     13      13.5750      0.00000
     14      16.5128      0.00000
     15      18.0595      0.00000
     16      18.2509      0.00000
     17      19.1462      0.00000
     18      19.2408      0.00000
     19      19.6653      0.00000
     20      21.5448      0.00000
     21      24.3494      0.00000
     22      25.0773      0.00000
     23      26.5493      0.00000
     24      28.6420      0.00000
     25      29.3961      0.00000
     26      29.7824      0.00000
     27      31.5348      0.00000
     28      31.9916      0.00000
     29      32.3689      0.00000
     30      34.3693      0.00000
     31      35.5736      0.00000
     32      35.8663      0.00000
     33      36.9246      0.00000
     34      37.1315      0.00000
     35      38.6111      0.00000
     36      39.2130      0.00000

 k-point    38 :       0.4000    0.2000    0.0000
  band No.  band energies     occupation 
      1     -21.7871      2.00000
      2     -21.7744      2.00000
      3     -21.7738      2.00000
      4     -13.2180      2.00000
      5      -2.2946      2.00000
      6      -1.3609      2.00000
      7      -1.2478      2.00000
      8       6.7541      0.00000
      9       8.3409      0.00000
     10       9.2904      0.00000
     11      11.0605      0.00000
     12      12.5164      0.00000
     13      14.3207      0.00000
     14      16.2831      0.00000
     15      17.0927      0.00000
     16      17.5455      0.00000
     17      19.4057      0.00000
     18      20.0376      0.00000
     19      20.4290      0.00000
     20      22.2505      0.00000
     21      23.4909      0.00000
     22      25.3388      0.00000
     23      26.7654      0.00000
     24      28.0726      0.00000
     25      28.7078      0.00000
     26      30.3466      0.00000
     27      30.8175      0.00000
     28      31.3745      0.00000
     29      32.3702      0.00000
     30      33.3608      0.00000
     31      34.9784      0.00000
     32      35.6880      0.00000
     33      36.9162      0.00000
     34      37.2386      0.00000
     35      37.9224      0.00000
     36      38.8983      0.00000

 k-point    39 :       0.4667    0.2000    0.0000
  band No.  band energies     occupation 
      1     -21.7896      2.00000
      2     -21.7753      2.00000
      3     -21.7738      2.00000
      4     -13.1795      2.00000
      5      -2.4353      2.00000
      6      -1.4675      2.00000
      7      -1.2608      2.00000
      8       7.0005      0.00000
      9       8.5249      0.00000
     10       9.2005      0.00000
     11      10.8810      0.00000
     12      12.9938      0.00000
     13      15.1187      0.00000
     14      16.0761      0.00000
     15      16.3946      0.00000
     16      16.5130      0.00000
     17      19.6038      0.00000
     18      20.2712      0.00000
     19      21.5440      0.00000
     20      22.9287      0.00000
     21      23.5082      0.00000
     22      25.8020      0.00000
     23      26.2558      0.00000
     24      27.2040      0.00000
     25      28.7642      0.00000
     26      30.2288      0.00000
     27      30.2404      0.00000
     28      31.1346      0.00000
     29      31.8322      0.00000
     30      32.5171      0.00000
     31      34.7221      0.00000
     32      36.1332      0.00000
     33      36.8174      0.00000
     34      36.9308      0.00000
     35      37.2231      0.00000
     36      38.2235      0.00000

 k-point    40 :      -0.4667    0.2000    0.0000
  band No.  band energies     occupation 
      1     -21.7908      2.00000
      2     -21.7763      2.00000
      3     -21.7734      2.00000
      4     -13.1580      2.00000
      5      -2.5021      2.00000
      6      -1.5548      2.00000
      7      -1.2511      2.00000
      8       7.1403      0.00000
      9       8.6068      0.00000
     10       9.3281      0.00000
     11      10.7380      0.00000
     12      13.2622      0.00000
     13      14.8452      0.00000
     14      15.8095      0.00000
     15      16.4879      0.00000
     16      16.7136      0.00000
     17      18.8107      0.00000
     18      21.1041      0.00000
     19      21.3791      0.00000
     20      23.7909      0.00000
     21      24.0440      0.00000
     22      26.0294      0.00000
     23      26.2949      0.00000
     24      26.4980      0.00000
     25      28.3324      0.00000
     26      29.5720      0.00000
     27      30.0143      0.00000
     28      30.8755      0.00000
     29      31.9592      0.00000
     30      32.5911      0.00000
     31      34.2100      0.00000
     32      35.7174      0.00000
     33      36.9089      0.00000
     34      36.9258      0.00000
     35      37.0386      0.00000
     36      37.7710      0.00000

 k-point    41 :      -0.4000    0.2000    0.0000
  band No.  band energies     occupation 
      1     -21.7908      2.00000
      2     -21.7770      2.00000
      3     -21.7729      2.00000
      4     -13.1578      2.00000
      5      -2.4910      2.00000
      6      -1.6035      2.00000
      7      -1.2201      2.00000
      8       7.2077      0.00000
      9       8.6758      0.00000
     10       9.3173      0.00000
     11      10.6609      0.00000
     12      13.6140      0.00000
     13      13.8516      0.00000
     14      15.7642      0.00000
     15      16.6853      0.00000
     16      17.8448      0.00000
     17      18.2585      0.00000
     18      20.4128      0.00000
     19      21.7433      0.00000
     20      23.7257      0.00000
     21      24.8476      0.00000
     22      24.9673      0.00000
     23      26.7885      0.00000
     24      27.1862      0.00000
     25      27.3752      0.00000
     26      30.0249      0.00000
     27      30.2489      0.00000
     28      31.0506      0.00000
     29      31.8490      0.00000
     30      32.4716      0.00000
     31      33.8819      0.00000
     32      35.4813      0.00000
     33      36.8510      0.00000
     34      36.9131      0.00000
     35      36.9319      0.00000
     36      37.7423      0.00000

 k-point    42 :      -0.3333    0.2000    0.0000
  band No.  band energies     occupation 
      1     -21.7895      2.00000
      2     -21.7771      2.00000
      3     -21.7722      2.00000
      4     -13.1789      2.00000
      5      -2.4103      2.00000
      6      -1.5979      2.00000
      7      -1.1723      2.00000
      8       7.1589      0.00000
      9       8.8204      0.00000
     10       9.0871      0.00000
     11      10.6623      0.00000
     12      12.9131      0.00000
     13      14.3362      0.00000
     14      15.6737      0.00000
     15      16.3721      0.00000
     16      18.5383      0.00000
     17      19.1291      0.00000
     18      19.3110      0.00000
     19      22.1042      0.00000
     20      23.0493      0.00000
     21      23.6117      0.00000
     22      24.7890      0.00000
     23      27.0021      0.00000
     24      27.9830      0.00000
     25      28.2734      0.00000
     26      30.0239      0.00000
     27      30.9883      0.00000
     28      31.2419      0.00000
     29      32.1699      0.00000
     30      32.3464      0.00000
     31      33.9200      0.00000
     32      35.3483      0.00000
     33      36.7552      0.00000
     34      36.9138      0.00000
     35      37.0604      0.00000
     36      37.9007      0.00000

 k-point    43 :      -0.2667    0.2000    0.0000
  band No.  band energies     occupation 
      1     -21.7875      2.00000
      2     -21.7765      2.00000
      3     -21.7715      2.00000
      4     -13.2172      2.00000
      5      -2.2799      2.00000
      6      -1.5276      2.00000
      7      -1.1153      2.00000
      8       6.8979      0.00000
      9       8.7455      0.00000
     10       9.2282      0.00000
     11      10.7421      0.00000
     12      12.1178      0.00000
     13      14.7330      0.00000
     14      15.7001      0.00000
     15      16.3839      0.00000
     16      17.8212      0.00000
     17      19.4608      0.00000
     18      20.4012      0.00000
     19      21.9609      0.00000
     20      22.0330      0.00000
     21      22.6813      0.00000
     22      24.4483      0.00000
     23      27.5868      0.00000
     24      28.6543      0.00000
     25      28.8311      0.00000
     26      30.0395      0.00000
     27      31.3957      0.00000
     28      31.7747      0.00000
     29      32.1678      0.00000
     30      33.3476      0.00000
     31      34.2312      0.00000
     32      35.4342      0.00000
     33      36.9087      0.00000
     34      37.0576      0.00000
     35      37.1485      0.00000
     36      38.2929      0.00000

 k-point    44 :      -0.2000    0.2000    0.0000
  band No.  band energies     occupation 
      1     -21.7851      2.00000
      2     -21.7752      2.00000
      3     -21.7709      2.00000
      4     -13.2655      2.00000
      5      -2.1242      2.00000
      6      -1.3953      2.00000
      7      -1.0586      2.00000
      8       6.4259      0.00000
      9       8.7202      0.00000
     10       9.6274      0.00000
     11      10.8651      0.00000
     12      11.5277      0.00000
     13      13.9724      0.00000
     14      16.5634      0.00000
     15      16.7506      0.00000
     16      16.9323      0.00000
     17      19.4975      0.00000
     18      20.6115      0.00000
     19      21.2350      0.00000
     20      22.0181      0.00000
     21      22.7060      0.00000
     22      24.5918      0.00000
     23      27.6664      0.00000
     24      28.1067      0.00000
     25      29.7232      0.00000
     26      30.8156      0.00000
     27      31.3804      0.00000
     28      31.8042      0.00000
     29      33.1182      0.00000
     30      33.5663      0.00000
     31      34.9184      0.00000
     32      36.6606      0.00000
     33      36.9144      0.00000
     34      36.9589      0.00000
     35      37.7559      0.00000
     36      38.4964      0.00000

 k-point    45 :       0.2667    0.2667    0.0000
  band No.  band energies     occupation 
      1     -21.7815      2.00000
      2     -21.7738      2.00000
      3     -21.7738      2.00000
      4     -13.2848      2.00000
      5      -1.9848      2.00000
      6      -1.2250      2.00000
      7      -1.2250      2.00000
      8       6.1903      0.00000
      9       8.1062      0.00000
     10       9.7221      0.00000
     11      11.6147      0.00000
     12      11.6147      0.00000
     13      13.2151      0.00000
     14      17.6424      0.00000
     15      17.6424      0.00000
     16      18.4209      0.00000
     17      18.6281      0.00000
     18      19.8940      0.00000
     19      19.8940      0.00000
     20      20.0295      0.00000
     21      24.1456      0.00000
     22      25.7714      0.00000
     23      26.4268      0.00000
     24      29.1706      0.00000
     25      29.1707      0.00000
     26      29.8402      0.00000
     27      31.8116      0.00000
     28      31.8452      0.00000
     29      31.8452      0.00000
     30      34.0622      0.00000
     31      35.3652      0.00000
     32      36.9160      0.00000
     33      37.5187      0.00000
     34      37.5187      0.00000
     35      39.1287      0.00000
     36      39.6026      0.00000

 k-point    46 :       0.3333    0.2667    0.0000
  band No.  band energies     occupation 
      1     -21.7836      2.00000
      2     -21.7746      2.00000
      3     -21.7745      2.00000
      4     -13.2452      2.00000
      5      -2.1363      2.00000
      6      -1.2995      2.00000
      7      -1.2774      2.00000
      8       6.5037      0.00000
      9       7.9213      0.00000
     10       9.4902      0.00000
     11      11.7815      0.00000
     12      12.0163      0.00000
     13      13.5773      0.00000
     14      17.4474      0.00000
     15      17.8669      0.00000
     16      18.5486      0.00000
     17      19.1185      0.00000
     18      19.4219      0.00000
     19      19.5490      0.00000
     20      20.6234      0.00000
     21      23.7494      0.00000
     22      25.4536      0.00000
     23      26.7175      0.00000
     24      29.0646      0.00000
     25      29.1255      0.00000
     26      29.8391      0.00000
     27      30.8037      0.00000
     28      31.0690      0.00000
     29      31.8897      0.00000
     30      34.3469      0.00000
     31      34.5059      0.00000
     32      36.6583      0.00000
     33      36.9332      0.00000
     34      37.6434      0.00000
     35      38.9095      0.00000
     36      39.5784      0.00000

 k-point    47 :       0.4000    0.2667    0.0000
  band No.  band energies     occupation 
      1     -21.7858      2.00000
      2     -21.7756      2.00000
      3     -21.7748      2.00000
      4     -13.2046      2.00000
      5      -2.2694      2.00000
      6      -1.4159      2.00000
      7      -1.3133      2.00000
      8       6.8217      0.00000
      9       7.9030      0.00000
     10       9.2972      0.00000
     11      11.6817      0.00000
     12      12.5022      0.00000
     13      14.2666      0.00000
     14      16.7347      0.00000
     15      17.4136      0.00000
     16      17.9453      0.00000
     17      19.2127      0.00000
     18      19.5241      0.00000
     19      20.6344      0.00000
     20      21.9236      0.00000
     21      23.8866      0.00000
     22      24.5972      0.00000
     23      26.4866      0.00000
     24      28.5134      0.00000
     25      28.6306      0.00000
     26      29.7991      0.00000
     27      30.4498      0.00000
     28      30.7844      0.00000
     29      32.1609      0.00000
     30      33.7382      0.00000
     31      34.3999      0.00000
     32      35.6080      0.00000
     33      36.9195      0.00000
     34      37.5016      0.00000
     35      38.2520      0.00000
     36      39.4668      0.00000

 k-point    48 :       0.4667    0.2667    0.0000
  band No.  band energies     occupation 
      1     -21.7874      2.00000
      2     -21.7770      2.00000
      3     -21.7748      2.00000
      4     -13.1699      2.00000
      5      -2.3532      2.00000
      6      -1.5645      2.00000
      7      -1.3273      2.00000
      8       7.0825      0.00000
      9       8.0628      0.00000
     10       9.1910      0.00000
     11      11.4776      0.00000
     12      12.8500      0.00000
     13      15.0755      0.00000
     14      16.0842      0.00000
     15      16.5203      0.00000
     16      17.7116      0.00000
     17      19.0832      0.00000
     18      20.1075      0.00000
     19      21.6923      0.00000
     20      23.2068      0.00000
     21      23.8886      0.00000
     22      24.4105      0.00000
     23      25.7400      0.00000
     24      28.0522      0.00000
     25      28.3483      0.00000
     26      28.8410      0.00000
     27      30.0952      0.00000
     28      31.6513      0.00000
     29      32.1779      0.00000
     30      32.5072      0.00000
     31      33.5297      0.00000
     32      36.4866      0.00000
     33      36.9221      0.00000
     34      37.3302      0.00000
     35      37.4796      0.00000
     36      38.7012      0.00000

 k-point    49 :      -0.4667    0.2667    0.0000
  band No.  band energies     occupation 
      1     -21.7882      2.00000
      2     -21.7785      2.00000
      3     -21.7745      2.00000
      4     -13.1475      2.00000
      5      -2.3757      2.00000
      6      -1.7163      2.00000
      7      -1.3175      2.00000
      8       7.2941      0.00000
      9       8.2532      0.00000
     10       9.2154      0.00000
     11      11.2717      0.00000
     12      12.8506      0.00000
     13      14.9849      0.00000
     14      16.0136      0.00000
     15      16.5919      0.00000
     16      17.7048      0.00000
     17      18.7077      0.00000
     18      20.7001      0.00000
     19      21.6451      0.00000
     20      23.5809      0.00000
     21      24.2476      0.00000
     22      25.2148      0.00000
     23      25.9710      0.00000
     24      27.1919      0.00000
     25      28.2816      0.00000
     26      28.3341      0.00000
     27      29.6197      0.00000
     28      30.2971      0.00000
     29      32.5305      0.00000
     30      32.7782      0.00000
     31      33.5855      0.00000
     32      35.5945      0.00000
     33      36.9101      0.00000
     34      37.1548      0.00000
     35      37.8482      0.00000
     36      38.2721      0.00000

 k-point    50 :      -0.4000    0.2667    0.0000
  band No.  band energies     occupation 
      1     -21.7882      2.00000
      2     -21.7798      2.00000
      3     -21.7739      2.00000
      4     -13.1416      2.00000
      5      -2.3464      2.00000
      6      -1.8301      2.00000
      7      -1.2852      2.00000
      8       7.4959      0.00000
      9       8.3491      0.00000
     10       9.2255      0.00000
     11      11.1030      0.00000
     12      12.8437      0.00000
     13      14.0684      0.00000
     14      16.3313      0.00000
     15      17.6485      0.00000
     16      17.8762      0.00000
     17      18.1619      0.00000
     18      20.5039      0.00000
     19      21.1458      0.00000
     20      23.5234      0.00000
     21      25.1258      0.00000
     22      25.8670      0.00000
     23      26.3390      0.00000
     24      27.1997      0.00000
     25      27.4776      0.00000
     26      28.3621      0.00000
     27      28.9059      0.00000
     28      30.3816      0.00000
     29      32.5839      0.00000
     30      32.8262      0.00000
     31      34.0627      0.00000
     32      34.7316      0.00000
     33      36.8781      0.00000
     34      37.0465      0.00000
     35      37.0665      0.00000
     36      37.9178      0.00000

 k-point    51 :      -0.3333    0.2667    0.0000
  band No.  band energies     occupation 
      1     -21.7879      2.00000
      2     -21.7800      2.00000
      3     -21.7731      2.00000
      4     -13.1531      2.00000
      5      -2.3069      2.00000
      6      -1.8469      2.00000
      7      -1.2352      2.00000
      8       7.6047      0.00000
      9       8.4654      0.00000
     10       9.0114      0.00000
     11      10.9779      0.00000
     12      13.2037      0.00000
     13      13.3104      0.00000
     14      16.4619      0.00000
     15      17.4734      0.00000
     16      18.3429      0.00000
     17      18.8155      0.00000
     18      19.2900      0.00000
     19      21.4390      0.00000
     20      23.4499      0.00000
     21      24.7098      0.00000
     22      25.1057      0.00000
     23      26.8546      0.00000
     24      27.1473      0.00000
     25      28.1179      0.00000
     26      29.1256      0.00000
     27      29.1425      0.00000
     28      31.4719      0.00000
     29      31.7924      0.00000
     30      32.6051      0.00000
     31      34.5203      0.00000
     32      34.7732      0.00000
     33      36.0594      0.00000
     34      36.9141      0.00000
     35      37.2244      0.00000
     36      37.8517      0.00000

 k-point    52 :      -0.2667    0.2667    0.0000
  band No.  band energies     occupation 
      1     -21.7877      2.00000
      2     -21.7788      2.00000
      3     -21.7722      2.00000
      4     -13.1799      2.00000
      5      -2.2945      2.00000
      6      -1.7299      2.00000
      7      -1.1752      2.00000
      8       7.3952      0.00000
      9       8.7640      0.00000
     10       8.7861      0.00000
     11      10.8745      0.00000
     12      12.5248      0.00000
     13      14.2131      0.00000
     14      15.9060      0.00000
     15      17.3304      0.00000
     16      17.7828      0.00000
     17      19.1736      0.00000
     18      19.8560      0.00000
     19      21.7443      0.00000
     20      23.4576      0.00000
     21      23.4887      0.00000
     22      23.7637      0.00000
     23      27.3874      0.00000
     24      27.9587      0.00000
     25      28.7176      0.00000
     26      29.9093      0.00000
     27      30.4918      0.00000
     28      30.6802      0.00000
     29      32.2202      0.00000
     30      33.0301      0.00000
     31      34.6524      0.00000
     32      35.1321      0.00000
     33      35.5658      0.00000
     34      36.9151      0.00000
     35      37.4025      0.00000
     36      38.0336      0.00000

 k-point    53 :       0.3333    0.3333    0.0000
  band No.  band energies     occupation 
      1     -21.7845      2.00000
      2     -21.7752      2.00000
      3     -21.7752      2.00000
      4     -13.2168      2.00000
      5      -2.2321      2.00000
      6      -1.3329      2.00000
      7      -1.3329      2.00000
      8       6.6053      0.00000
      9       7.6708      0.00000
     10       9.5070      0.00000
     11      12.2807      0.00000
     12      12.2807      0.00000
     13      13.6284      0.00000
     14      17.6612      0.00000
     15      17.6612      0.00000
     16      17.9972      0.00000
     17      19.6992      0.00000
     18      19.6992      0.00000
     19      20.1778      0.00000
     20      20.3085      0.00000
     21      22.8631      0.00000
     22      25.9834      0.00000
     23      26.6639      0.00000
     24      28.6633      0.00000
     25      28.6634      0.00000
     26      30.0715      0.00000
     27      30.5450      0.00000
     28      30.5450      0.00000
     29      31.6245      0.00000
     30      32.9456      0.00000
     31      34.5347      0.00000
     32      36.9190      0.00000
     33      37.4946      0.00000
     34      37.4946      0.00000
     35      38.9596      0.00000
     36      39.3484      0.00000

 k-point    54 :       0.4000    0.3333    0.0000
  band No.  band energies     occupation 
      1     -21.7858      2.00000
      2     -21.7761      2.00000
      3     -21.7757      2.00000
      4     -13.1862      2.00000
      5      -2.3221      2.00000
      6      -1.4099      2.00000
      7      -1.3717      2.00000
      8       6.7335      0.00000
      9       7.5659      0.00000
     10       9.5344      0.00000
     11      12.3861      0.00000
     12      12.6670      0.00000
     13      14.0929      0.00000
     14      16.7863      0.00000
     15      17.1815      0.00000
     16      17.8872      0.00000
     17      19.5485      0.00000
     18      20.0334      0.00000
     19      21.0934      0.00000
     20      21.6067      0.00000
     21      22.6695      0.00000
     22      25.6720      0.00000
     23      26.1637      0.00000
     24      27.8649      0.00000
     25      27.9073      0.00000
     26      30.1295      0.00000
     27      30.2685      0.00000
     28      30.9030      0.00000
     29      31.8202      0.00000
     30      32.0908      0.00000
     31      35.1269      0.00000
     32      35.9355      0.00000
     33      36.9215      0.00000
     34      37.2235      0.00000
     35      38.7341      0.00000
     36      39.6765      0.00000

 k-point    55 :       0.4667    0.3333    0.0000
  band No.  band energies     occupation 
      1     -21.7866      2.00000
      2     -21.7776      2.00000
      3     -21.7758      2.00000
      4     -13.1586      2.00000
      5      -2.3650      2.00000
      6      -1.5502      2.00000
      7      -1.3881      2.00000
      8       6.9065      0.00000
      9       7.6394      0.00000
     10       9.5352      0.00000
     11      12.1813      0.00000
     12      12.9342      0.00000
     13      14.8896      0.00000
     14      16.0786      0.00000
     15      16.4379      0.00000
     16      17.8779      0.00000
     17      19.3662      0.00000
     18      20.3511      0.00000
     19      22.0475      0.00000
     20      23.0009      0.00000
     21      23.1947      0.00000
     22      24.9634      0.00000
     23      25.3634      0.00000
     24      27.1570      0.00000
     25      27.5571      0.00000
     26      29.3139      0.00000
     27      29.6326      0.00000
     28      31.7520      0.00000
     29      32.2100      0.00000
     30      32.2943      0.00000
     31      33.6576      0.00000
     32      36.3138      0.00000
     33      36.9176      0.00000
     34      37.0230      0.00000
     35      38.0068      0.00000
     36      39.0186      0.00000

 k-point    56 :      -0.4667    0.3333    0.0000
  band No.  band energies     occupation 
      1     -21.7865      2.00000
      2     -21.7797      2.00000
      3     -21.7755      2.00000
      4     -13.1392      2.00000
      5      -2.3407      2.00000
      6      -1.7393      2.00000
      7      -1.3798      2.00000
      8       7.1091      0.00000
      9       7.8716      0.00000
     10       9.5089      0.00000
     11      11.8953      0.00000
     12      12.7776      0.00000
     13      15.1962      0.00000
     14      16.0889      0.00000
     15      16.2122      0.00000
     16      17.7936      0.00000
     17      19.2722      0.00000
     18      20.6196      0.00000
     19      22.1530      0.00000
     20      23.3360      0.00000
     21      24.2185      0.00000
     22      24.8907      0.00000
     23      25.7152      0.00000
     24      26.6976      0.00000
     25      27.3439      0.00000
     26      28.2990      0.00000
     27      29.1493      0.00000
     28      31.3774      0.00000
     29      32.1091      0.00000
     30      32.7403      0.00000
     31      33.1447      0.00000
     32      36.6176      0.00000
     33      36.9169      0.00000
     34      36.9269      0.00000
     35      37.5642      0.00000
     36      38.7238      0.00000

 k-point    57 :      -0.4000    0.3333    0.0000
  band No.  band energies     occupation 
      1     -21.7855      2.00000
      2     -21.7821      2.00000
      3     -21.7749      2.00000
      4     -13.1312      2.00000
      5      -2.2437      2.00000
      6      -1.9461      2.00000
      7      -1.3480      2.00000
      8       7.3531      0.00000
      9       8.1359      0.00000
     10       9.4120      0.00000
     11      11.5974      0.00000
     12      12.4926      0.00000
     13      14.4436      0.00000
     14      16.6304      0.00000
     15      17.1305      0.00000
     16      17.5829      0.00000
     17      19.2425      0.00000
     18      20.8242      0.00000
     19      20.8345      0.00000
     20      23.3474      0.00000
     21      25.4904      0.00000
     22      25.5168      0.00000
     23      26.6215      0.00000
     24      26.9907      0.00000
     25      27.1571      0.00000
     26      27.1800      0.00000
     27      29.1783      0.00000
     28      29.5723      0.00000
     29      32.3867      0.00000
     30      32.9849      0.00000
     31      33.6908      0.00000
     32      35.6419      0.00000
     33      36.9108      0.00000
     34      36.9352      0.00000
     35      37.1274      0.00000
     36      38.1640      0.00000

 k-point    58 :      -0.3333    0.3333    0.0000
  band No.  band energies     occupation 
      1     -21.7857      2.00000
      2     -21.7825      2.00000
      3     -21.7740      2.00000
      4     -13.1362      2.00000
      5      -2.1580      2.00000
      6      -2.0596      2.00000
      7      -1.2971      2.00000
      8       7.6122      0.00000
      9       8.2981      0.00000
     10       9.1819      0.00000
     11      11.2943      0.00000
     12      12.6321      0.00000
     13      13.7243      0.00000
     14      17.0425      0.00000
     15      17.3954      0.00000
     16      18.0950      0.00000
     17      19.1945      0.00000
     18      19.4171      0.00000
     19      21.0484      0.00000
     20      23.2566      0.00000
     21      25.8723      0.00000
     22      26.3191      0.00000
     23      26.5408      0.00000
     24      26.5557      0.00000
     25      27.4606      0.00000
     26      27.8852      0.00000
     27      28.3392      0.00000
     28      30.3775      0.00000
     29      32.4917      0.00000
     30      32.9213      0.00000
     31      33.6623      0.00000
     32      35.1820      0.00000
     33      36.5068      0.00000
     34      36.9121      0.00000
     35      37.1068      0.00000
     36      37.8072      0.00000

 k-point    59 :       0.4000    0.4000    0.0000
  band No.  band energies     occupation 
      1     -21.7865      2.00000
      2     -21.7764      2.00000
      3     -21.7764      2.00000
      4     -13.1660      2.00000
      5      -2.3920      2.00000
      6      -1.4139      2.00000
      7      -1.4139      2.00000
      8       6.6502      0.00000
      9       7.3746      0.00000
     10       9.7914      0.00000
     11      12.9749      0.00000
     12      12.9749      0.00000
     13      14.0101      0.00000
     14      16.7987      0.00000
     15      16.8268      0.00000
     16      16.8268      0.00000
     17      20.7333      0.00000
     18      20.7333      0.00000
     19      21.5308      0.00000
     20      21.8914      0.00000
     21      21.9567      0.00000
     22      25.6803      0.00000
     23      26.1885      0.00000
     24      26.8464      0.00000
     25      26.8464      0.00000
     26      30.5969      0.00000
     27      30.6196      0.00000
     28      30.6196      0.00000
     29      31.3596      0.00000
     30      31.4885      0.00000
     31      35.1851      0.00000
     32      36.9034      0.00000
     33      36.9034      0.00000
     34      36.9207      0.00000
     35      38.6107      0.00000
     36      39.1221      0.00000

 k-point    60 :       0.4667    0.4000    0.0000
  band No.  band energies     occupation 
      1     -21.7870      2.00000
      2     -21.7772      2.00000
      3     -21.7766      2.00000
      4     -13.1477      2.00000
      5      -2.4266      2.00000
      6      -1.4841      2.00000
      7      -1.4337      2.00000
      8       6.6826      0.00000
      9       7.3486      0.00000
     10       9.9302      0.00000
     11      12.9410      0.00000
     12      13.2174      0.00000
     13      14.5424      0.00000
     14      16.0714      0.00000
     15      16.3055      0.00000
     16      16.8440      0.00000
     17      20.8433      0.00000
     18      20.9138      0.00000
     19      22.2502      0.00000
     20      22.5058      0.00000
     21      22.9333      0.00000
     22      24.8692      0.00000
     23      25.7619      0.00000
     24      26.0224      0.00000
     25      26.5905      0.00000
     26      29.2494      0.00000
     27      30.1903      0.00000
     28      30.9343      0.00000
     29      31.8596      0.00000
     30      32.3382      0.00000
     31      35.3288      0.00000
     32      35.8982      0.00000
     33      36.6992      0.00000
     34      36.9210      0.00000
     35      38.6351      0.00000
     36      38.9654      0.00000

 k-point    61 :      -0.4667    0.4000    0.0000
  band No.  band energies     occupation 
      1     -21.7867      2.00000
      2     -21.7789      2.00000
      3     -21.7764      2.00000
      4     -13.1345      2.00000
      5      -2.4020      2.00000
      6      -1.6288      2.00000
      7      -1.4282      2.00000
      8       6.8375      0.00000
      9       7.5031      0.00000
     10       9.9160      0.00000
     11      12.5602      0.00000
     12      13.0201      0.00000
     13      15.3390      0.00000
     14      15.7340      0.00000
     15      16.1065      0.00000
     16      16.8637      0.00000
     17      20.7267      0.00000
     18      20.7793      0.00000
     19      22.5693      0.00000
     20      23.3327      0.00000
     21      23.4275      0.00000
     22      24.8480      0.00000
     23      25.5058      0.00000
     24      25.9121      0.00000
     25      26.6771      0.00000
     26      28.1264      0.00000
     27      29.3084      0.00000
     28      31.2051      0.00000
     29      32.4328      0.00000
     30      33.2053      0.00000
     31      33.4452      0.00000
     32      36.6330      0.00000
     33      36.8844      0.00000
     34      36.9173      0.00000
     35      37.9258      0.00000
     36      38.1274      0.00000

 k-point    62 :      -0.4000    0.4000    0.0000
  band No.  band energies     occupation 
      1     -21.7856      2.00000
      2     -21.7812      2.00000
      3     -21.7758      2.00000
      4     -13.1287      2.00000
      5      -2.3186      2.00000
      6      -1.8160      2.00000
      7      -1.3982      2.00000
      8       7.0757      0.00000
      9       7.8084      0.00000
     10       9.7324      0.00000
     11      12.0952      0.00000
     12      12.6101      0.00000
     13      14.9705      0.00000
     14      16.3563      0.00000
     15      16.6469      0.00000
     16      16.9282      0.00000
     17      20.3915      0.00000
     18      20.7478      0.00000
     19      21.3633      0.00000
     20      23.4374      0.00000
     21      24.7696      0.00000
     22      25.4585      0.00000
     23      25.5799      0.00000
     24      26.2860      0.00000
     25      27.0186      0.00000
     26      28.0206      0.00000
     27      28.2811      0.00000
     28      31.1872      0.00000
     29      31.6274      0.00000
     30      32.8504      0.00000
     31      34.0034      0.00000
     32      36.7177      0.00000
     33      36.7352      0.00000
     34      36.9320      0.00000
     35      37.0482      0.00000
     36      38.8564      0.00000

 k-point    63 :       0.4667    0.4667    0.0000
  band No.  band energies     occupation 
      1     -21.7874      2.00000
      2     -21.7770      2.00000
      3     -21.7770      2.00000
      4     -13.1391      2.00000
      5      -2.4685      2.00000
      6      -1.4571      2.00000
      7      -1.4571      2.00000
      8       6.5703      0.00000
      9       7.2250      0.00000
     10      10.1616      0.00000
     11      13.5311      0.00000
     12      13.5311      0.00000
     13      14.2507      0.00000
     14      16.0337      0.00000
     15      16.1205      0.00000
     16      16.1205      0.00000
     17      21.3531      0.00000
     18      21.9399      0.00000
     19      21.9399      0.00000
     20      22.8847      0.00000
     21      23.3700      0.00000
     22      24.3443      0.00000
     23      25.2133      0.00000
     24      25.2133      0.00000
     25      26.4027      0.00000
     26      28.7813      0.00000
     27      30.8032      0.00000
     28      30.8032      0.00000
     29      31.4171      0.00000
     30      32.4601      0.00000
     31      36.2155      0.00000
     32      36.5138      0.00000
     33      36.5138      0.00000
     34      36.9223      0.00000
     35      37.9512      0.00000
     36      38.4490      0.00000

 k-point    64 :      -0.4667    0.4667    0.0000
  band No.  band energies     occupation 
      1     -21.7873      2.00000
      2     -21.7776      2.00000
      3     -21.7769      2.00000
      4     -13.1345      2.00000
      5      -2.4597      2.00000
      6      -1.5102      2.00000
      7      -1.4552      2.00000
      8       6.6306      0.00000
      9       7.2755      0.00000
     10      10.1585      0.00000
     11      13.1986      0.00000
     12      13.4282      0.00000
     13      14.7714      0.00000
     14      15.8716      0.00000
     15      16.0867      0.00000
     16      16.1222      0.00000
     17      21.0496      0.00000
     18      21.8206      0.00000
     19      22.6809      0.00000
     20      23.0829      0.00000
     21      23.5128      0.00000
     22      24.1742      0.00000
     23      24.9596      0.00000
     24      25.3045      0.00000
     25      26.6437      0.00000
     26      28.0557      0.00000
     27      30.2281      0.00000
     28      30.9025      0.00000
     29      31.8949      0.00000
     30      33.0218      0.00000
     31      35.1300      0.00000
     32      36.4905      0.00000
     33      36.9209      0.00000
     34      37.0902      0.00000
     35      37.0976      0.00000
     36      38.6641      0.00000

 k-point    65 :       0.2000    0.1333    0.0667
  band No.  band energies     occupation 
      1     -21.7756      2.00000
      2     -21.7714      2.00000
      3     -21.7704      2.00000
      4     -13.4117      2.00000
      5      -1.4349      2.00000
      6      -1.0315      2.00000
      7      -0.9675      2.00000
      8       4.9683      0.00000
      9       9.2552      0.00000
     10      10.4910      0.00000
     11      10.6120      0.00000
     12      11.3377      0.00000
     13      12.4676      0.00000
     14      15.4809      0.00000
     15      16.1400      0.00000
     16      16.7105      0.00000
     17      17.5518      0.00000
     18      21.3719      0.00000
     19      22.5122      0.00000
     20      23.4829      0.00000
     21      24.4456      0.00000
     22      24.7039      0.00000
     23      27.5294      0.00000
     24      27.6563      0.00000
     25      28.7652      0.00000
     26      30.4643      0.00000
     27      32.1922      0.00000
     28      32.7150      0.00000
     29      34.1689      0.00000
     30      35.4960      0.00000
     31      36.6159      0.00000
     32      36.6191      0.00000
     33      36.9083      0.00000
     34      37.2624      0.00000
     35      38.1736      0.00000
     36      38.5657      0.00000

 k-point    66 :       0.2667    0.1333    0.0667
  band No.  band energies     occupation 
      1     -21.7794      2.00000
      2     -21.7722      2.00000
      3     -21.7706      2.00000
      4     -13.3615      2.00000
      5      -1.7305      2.00000
      6      -1.1125      2.00000
      7      -1.0039      2.00000
      8       5.4600      0.00000
      9       8.9579      0.00000
     10      10.3270      0.00000
     11      10.7740      0.00000
     12      11.3148      0.00000
     13      12.7040      0.00000
     14      15.5713      0.00000
     15      16.7115      0.00000
     16      17.6027      0.00000
     17      18.5462      0.00000
     18      19.8819      0.00000
     19      21.5070      0.00000
     20      22.9994      0.00000
     21      24.1584      0.00000
     22      24.9579      0.00000
     23      27.3531      0.00000
     24      27.6022      0.00000
     25      29.6272      0.00000
     26      30.8297      0.00000
     27      31.6180      0.00000
     28      32.2947      0.00000
     29      34.3282      0.00000
     30      35.1606      0.00000
     31      35.9524      0.00000
     32      36.7091      0.00000
     33      36.9028      0.00000
     34      37.3493      0.00000
     35      38.1085      0.00000
     36      39.5917      0.00000

 k-point    67 :       0.3333    0.1333    0.0667
  band No.  band energies     occupation 
      1     -21.7839      2.00000
      2     -21.7728      2.00000
      3     -21.7710      2.00000
      4     -13.3029      2.00000
      5      -2.0452      2.00000
      6      -1.1860      2.00000
      7      -1.0542      2.00000
      8       5.9704      0.00000
      9       8.7980      0.00000
     10      10.0238      0.00000
     11      10.6754      0.00000
     12      11.7587      0.00000
     13      13.2159      0.00000
     14      15.2696      0.00000
     15      17.7881      0.00000
     16      18.4129      0.00000
     17      18.7783      0.00000
     18      19.6652      0.00000
     19      20.2813      0.00000
     20      21.8465      0.00000
     21      24.0804      0.00000
     22      25.6752      0.00000
     23      27.4004      0.00000
     24      27.5674      0.00000
     25      29.8609      0.00000
     26      30.6085      0.00000
     27      31.5762      0.00000
     28      32.0021      0.00000
     29      33.5233      0.00000
     30      34.2923      0.00000
     31      35.6151      0.00000
     32      36.1347      0.00000
     33      36.8339      0.00000
     34      36.9946      0.00000
     35      38.5084      0.00000
     36      39.6109      0.00000

 k-point    68 :       0.4000    0.1333    0.0667
  band No.  band energies     occupation 
      1     -21.7883      2.00000
      2     -21.7733      2.00000
      3     -21.7715      2.00000
      4     -13.2456      2.00000
      5      -2.3246      2.00000
      6      -1.2455      2.00000
      7      -1.1076      2.00000
      8       6.3675      0.00000
      9       8.8490      0.00000
     10       9.7545      0.00000
     11      10.4940      0.00000
     12      12.4364      0.00000
     13      13.9445      0.00000
     14      15.0147      0.00000
     15      17.0569      0.00000
     16      18.6765      0.00000
     17      19.0875      0.00000
     18      20.0615      0.00000
     19      20.4921      0.00000
     20      21.2577      0.00000
     21      23.9512      0.00000
     22      26.2550      0.00000
     23      27.1734      0.00000
     24      27.9202      0.00000
     25      29.3431      0.00000
     26      30.0902      0.00000
     27      31.4049      0.00000
     28      32.1671      0.00000
     29      32.7832      0.00000
     30      33.5204      0.00000
     31      35.0352      0.00000
     32      35.3047      0.00000
     33      36.1290      0.00000
     34      36.9094      0.00000
     35      38.0055      0.00000
     36      39.0088      0.00000

 k-point    69 :       0.4667    0.1333    0.0667
  band No.  band energies     occupation 
      1     -21.7916      2.00000
      2     -21.7735      2.00000
      3     -21.7720      2.00000
      4     -13.2001      2.00000
      5      -2.5309      2.00000
      6      -1.2865      2.00000
      7      -1.1522      2.00000
      8       6.5810      0.00000
      9       9.0443      0.00000
     10       9.6155      0.00000
     11      10.3419      0.00000
     12      13.2310      0.00000
     13      14.6891      0.00000
     14      14.9841      0.00000
     15      15.9224      0.00000
     16      17.5883      0.00000
     17      19.0027      0.00000
     18      20.2413      0.00000
     19      21.8003      0.00000
     20      22.3066      0.00000
     21      23.7522      0.00000
     22      26.0348      0.00000
     23      26.9701      0.00000
     24      27.9593      0.00000
     25      29.0514      0.00000
     26      29.7593      0.00000
     27      30.9231      0.00000
     28      32.0805      0.00000
     29      32.5437      0.00000
     30      33.1081      0.00000
     31      34.1381      0.00000
     32      34.6478      0.00000
     33      36.1420      0.00000
     34      36.8337      0.00000
     35      37.1457      0.00000
     36      38.2757      0.00000

 k-point    70 :      -0.4667    0.1333    0.0667
  band No.  band energies     occupation 
      1     -21.7935      2.00000
      2     -21.7736      2.00000
      3     -21.7723      2.00000
      4     -13.1749      2.00000
      5      -2.6401      2.00000
      6      -1.3071      2.00000
      7      -1.1778      2.00000
      8       6.6569      0.00000
      9       9.1441      0.00000
     10       9.6567      0.00000
     11      10.2584      0.00000
     12      14.0296      0.00000
     13      14.6910      0.00000
     14      15.2492      0.00000
     15      15.5151      0.00000
     16      16.8331      0.00000
     17      17.9741      0.00000
     18      21.3479      0.00000
     19      22.2192      0.00000
     20      23.4557      0.00000
     21      24.0974      0.00000
     22      25.0486      0.00000
     23      26.4351      0.00000
     24      27.9522      0.00000
     25      28.6126      0.00000
     26      30.3281      0.00000
     27      30.7900      0.00000
     28      31.5164      0.00000
     29      32.4452      0.00000
     30      32.7345      0.00000
     31      33.9369      0.00000
     32      34.3782      0.00000
     33      36.2325      0.00000
     34      36.3035      0.00000
     35      36.9542      0.00000
     36      37.9577      0.00000

 k-point    71 :       0.2667    0.2000    0.0667
  band No.  band energies     occupation 
      1     -21.7793      2.00000
      2     -21.7727      2.00000
      3     -21.7716      2.00000
      4     -13.3468      2.00000
      5      -1.7519      2.00000
      6      -1.1448      2.00000
      7      -1.0741      2.00000
      8       5.6289      0.00000
      9       8.6941      0.00000
     10      10.2185      0.00000
     11      11.0660      0.00000
     12      11.1358      0.00000
     13      12.8962      0.00000
     14      16.4371      0.00000
     15      16.6580      0.00000
     16      17.6430      0.00000
     17      18.4522      0.00000
     18      19.9028      0.00000
     19      21.1287      0.00000
     20      22.1741      0.00000
     21      24.8397      0.00000
     22      25.2555      0.00000
     23      26.1169      0.00000
     24      28.1619      0.00000
     25      29.5233      0.00000
     26      30.4739      0.00000
     27      31.8615      0.00000
     28      32.9935      0.00000
     29      33.7171      0.00000
     30      34.6650      0.00000
     31      36.1640      0.00000
     32      36.4523      0.00000
     33      36.9099      0.00000
     34      37.3160      0.00000
     35      38.2043      0.00000
     36      39.6672      0.00000

 k-point    72 :       0.3333    0.2000    0.0667
  band No.  band energies     occupation 
      1     -21.7827      2.00000
      2     -21.7737      2.00000
      3     -21.7719      2.00000
      4     -13.2957      2.00000
      5      -1.9961      2.00000
      6      -1.2408      2.00000
      7      -1.1191      2.00000
      8       6.1133      0.00000
      9       8.5099      0.00000
     10       9.7991      0.00000
     11      11.0698      0.00000
     12      11.5756      0.00000
     13      13.3569      0.00000
     14      16.2565      0.00000
     15      17.4061      0.00000
     16      18.4458      0.00000
     17      18.7062      0.00000
     18      19.5039      0.00000
     19      20.2459      0.00000
     20      21.8758      0.00000
     21      24.1247      0.00000
     22      25.6678      0.00000
     23      26.2096      0.00000
     24      28.0870      0.00000
     25      29.8385      0.00000
     26      30.3358      0.00000
     27      31.6293      0.00000
     28      32.4553      0.00000
     29      32.9740      0.00000
     30      34.2705      0.00000
     31      35.9708      0.00000
     32      36.5320      0.00000
     33      36.7103      0.00000
     34      36.9384      0.00000
     35      38.4965      0.00000
     36      39.0527      0.00000

 k-point    73 :       0.4000    0.2000    0.0667
  band No.  band energies     occupation 
      1     -21.7864      2.00000
      2     -21.7744      2.00000
      3     -21.7724      2.00000
      4     -13.2429      2.00000
      5      -2.2290      2.00000
      6      -1.3287      2.00000
      7      -1.1718      2.00000
      8       6.5625      0.00000
      9       8.5034      0.00000
     10       9.4496      0.00000
     11      10.9120      0.00000
     12      12.1818      0.00000
     13      14.0525      0.00000
     14      16.0017      0.00000
     15      17.0618      0.00000
     16      18.3284      0.00000
     17      18.8892      0.00000
     18      20.1880      0.00000
     19      20.3593      0.00000
     20      21.8754      0.00000
     21      23.4311      0.00000
     22      25.8397      0.00000
     23      26.7208      0.00000
     24      27.9056      0.00000
     25      29.0748      0.00000
     26      30.3644      0.00000
     27      31.3677      0.00000
     28      32.0371      0.00000
     29      32.5201      0.00000
     30      34.0382      0.00000
     31      34.6545      0.00000
     32      35.8504      0.00000
     33      36.8071      0.00000
     34      36.9356      0.00000
     35      37.8791      0.00000
     36      38.9885      0.00000

 k-point    74 :       0.4667    0.2000    0.0667
  band No.  band energies     occupation 
      1     -21.7894      2.00000
      2     -21.7749      2.00000
      3     -21.7729      2.00000
      4     -13.1976      2.00000
      5      -2.4139      2.00000
      6      -1.4048      2.00000
      7      -1.2147      2.00000
      8       6.8619      0.00000
      9       8.6690      0.00000
     10       9.2539      0.00000
     11      10.7350      0.00000
     12      12.8309      0.00000
     13      14.8515      0.00000
     14      15.8944      0.00000
     15      15.9231      0.00000
     16      17.5661      0.00000
     17      19.5812      0.00000
     18      19.9484      0.00000
     19      21.4748      0.00000
     20      22.5396      0.00000
     21      23.2583      0.00000
     22      26.0500      0.00000
     23      26.8281      0.00000
     24      27.1635      0.00000
     25      28.8298      0.00000
     26      30.0965      0.00000
     27      30.9839      0.00000
     28      31.3407      0.00000
     29      32.5513      0.00000
     30      33.0286      0.00000
     31      34.3165      0.00000
     32      35.3857      0.00000
     33      36.8048      0.00000
     34      36.9317      0.00000
     35      37.1444      0.00000
     36      38.4194      0.00000

 k-point    75 :      -0.4667    0.2000    0.0667
  band No.  band energies     occupation 
      1     -21.7913      2.00000
      2     -21.7753      2.00000
      3     -21.7731      2.00000
      4     -13.1683      2.00000
      5      -2.5259      2.00000
      6      -1.4639      2.00000
      7      -1.2346      2.00000
      8       7.0051      0.00000
      9       8.7590      0.00000
     10       9.3390      0.00000
     11      10.5981      0.00000
     12      13.3661      0.00000
     13      15.0573      0.00000
     14      15.4727      0.00000
     15      16.0112      0.00000
     16      16.9061      0.00000
     17      18.9230      0.00000
     18      20.7053      0.00000
     19      21.8644      0.00000
     20      23.2732      0.00000
     21      24.0327      0.00000
     22      25.9344      0.00000
     23      26.2699      0.00000
     24      26.9061      0.00000
     25      28.5671      0.00000
     26      29.6889      0.00000
     27      30.4576      0.00000
     28      31.2952      0.00000
     29      32.2437      0.00000
     30      32.7778      0.00000
     31      33.8782      0.00000
     32      35.4415      0.00000
     33      36.3880      0.00000
     34      36.8182      0.00000
     35      36.9587      0.00000
     36      38.0409      0.00000

 k-point    76 :      -0.4000    0.2000    0.0667
  band No.  band energies     occupation 
      1     -21.7918      2.00000
      2     -21.7757      2.00000
      3     -21.7730      2.00000
      4     -13.1604      2.00000
      5      -2.5519      2.00000
      6      -1.4972      2.00000
      7      -1.2271      2.00000
      8       7.0537      0.00000
      9       8.7775      0.00000
     10       9.4210      0.00000
     11      10.5348      0.00000
     12      13.6748      0.00000
     13      14.4188      0.00000
     14      15.5379      0.00000
     15      16.1529      0.00000
     16      17.3568      0.00000
     17      18.2715      0.00000
     18      20.9938      0.00000
     19      21.7125      0.00000
     20      23.9100      0.00000
     21      24.7166      0.00000
     22      24.8594      0.00000
     23      26.6055      0.00000
     24      27.2196      0.00000
     25      27.6502      0.00000
     26      29.8656      0.00000
     27      30.5197      0.00000
     28      31.5250      0.00000
     29      31.8159      0.00000
     30      32.7860      0.00000
     31      33.6963      0.00000
     32      35.1235      0.00000
     33      36.3999      0.00000
     34      36.8479      0.00000
     35      36.9638      0.00000
     36      38.0896      0.00000

 k-point    77 :      -0.3333    0.2000    0.0667
  band No.  band energies     occupation 
      1     -21.7908      2.00000
      2     -21.7758      2.00000
      3     -21.7725      2.00000
      4     -13.1756      2.00000
      5      -2.4901      2.00000
      6      -1.4960      2.00000
      7      -1.1950      2.00000
      8       7.0182      0.00000
      9       8.8444      0.00000
     10       9.2583      0.00000
     11      10.5632      0.00000
     12      13.2491      0.00000
     13      14.6211      0.00000
     14      15.4123      0.00000
     15      16.0771      0.00000
     16      17.8371      0.00000
     17      18.9197      0.00000
     18      19.9870      0.00000
     19      22.1736      0.00000
     20      23.0592      0.00000
     21      23.8136      0.00000
     22      25.4648      0.00000
     23      26.5241      0.00000
     24      27.6029      0.00000
     25      28.3398      0.00000
     26      29.9041      0.00000
     27      31.0517      0.00000
     28      31.1469      0.00000
     29      32.4696      0.00000
     30      32.7766      0.00000
     31      33.8791      0.00000
     32      34.5388      0.00000
     33      36.7775      0.00000
     34      36.9174      0.00000
     35      37.2089      0.00000
     36      38.2475      0.00000

 k-point    78 :      -0.2667    0.2000    0.0667
  band No.  band energies     occupation 
      1     -21.7886      2.00000
      2     -21.7756      2.00000
      3     -21.7719      2.00000
      4     -13.2109      2.00000
      5      -2.3512      2.00000
      6      -1.4541      2.00000
      7      -1.1457      2.00000
      8       6.8396      0.00000
      9       8.7610      0.00000
     10       9.2693      0.00000
     11      10.6749      0.00000
     12      12.4588      0.00000
     13      14.7482      0.00000
     14      15.7334      0.00000
     15      15.9314      0.00000
     16      18.5071      0.00000
     17      18.9859      0.00000
     18      20.0273      0.00000
     19      21.6864      0.00000
     20      22.2019      0.00000
     21      23.0584      0.00000
     22      25.2478      0.00000
     23      27.2151      0.00000
     24      28.1326      0.00000
     25      28.8248      0.00000
     26      29.9024      0.00000
     27      31.2466      0.00000
     28      31.9561      0.00000
     29      32.5922      0.00000
     30      33.4139      0.00000
     31      34.1391      0.00000
     32      34.6910      0.00000
     33      36.8539      0.00000
     34      36.9314      0.00000
     35      37.5650      0.00000
     36      38.6888      0.00000

 k-point    79 :      -0.2000    0.2000    0.0667
  band No.  band energies     occupation 
      1     -21.7855      2.00000
      2     -21.7749      2.00000
      3     -21.7713      2.00000
      4     -13.2596      2.00000
      5      -2.1573      2.00000
      6      -1.3699      2.00000
      7      -1.0897      2.00000
      8       6.4587      0.00000
      9       8.6546      0.00000
     10       9.5743      0.00000
     11      10.8558      0.00000
     12      11.7482      0.00000
     13      13.9853      0.00000
     14      16.1169      0.00000
     15      16.9658      0.00000
     16      17.4931      0.00000
     17      19.4316      0.00000
     18      20.4771      0.00000
     19      20.7698      0.00000
     20      21.7671      0.00000
     21      23.1620      0.00000
     22      25.0836      0.00000
     23      27.4689      0.00000
     24      27.8022      0.00000
     25      29.5605      0.00000
     26      30.5110      0.00000
     27      31.8122      0.00000
     28      32.1126      0.00000
     29      32.3834      0.00000
     30      34.1502      0.00000
     31      34.7750      0.00000
     32      36.0747      0.00000
     33      36.8655      0.00000
     34      36.9512      0.00000
     35      37.7700      0.00000
     36      38.8540      0.00000

 k-point    80 :      -0.1333    0.2000    0.0667
  band No.  band energies     occupation 
      1     -21.7823      2.00000
      2     -21.7737      2.00000
      3     -21.7709      2.00000
      4     -13.3129      2.00000
      5      -1.9395      2.00000
      6      -1.2492      2.00000
      7      -1.0387      2.00000
      8       5.9510      0.00000
      9       8.7401      0.00000
     10       9.9646      0.00000
     11      11.0618      0.00000
     12      11.2016      0.00000
     13      13.2540      0.00000
     14      16.3333      0.00000
     15      16.5153      0.00000
     16      18.3890      0.00000
     17      18.6079      0.00000
     18      19.5554      0.00000
     19      21.1704      0.00000
     20      22.3994      0.00000
     21      23.6047      0.00000
     22      25.0100      0.00000
     23      27.1870      0.00000
     24      27.6284      0.00000
     25      30.4699      0.00000
     26      30.9068      0.00000
     27      31.0157      0.00000
     28      32.1702      0.00000
     29      33.4132      0.00000
     30      35.0550      0.00000
     31      35.3817      0.00000
     32      36.7367      0.00000
     33      36.9014      0.00000
     34      37.2452      0.00000
     35      38.3374      0.00000
     36      38.4054      0.00000

 k-point    81 :       0.3333    0.2667    0.0667
  band No.  band energies     occupation 
      1     -21.7826      2.00000
      2     -21.7742      2.00000
      3     -21.7732      2.00000
      4     -13.2754      2.00000
      5      -2.0347      2.00000
      6      -1.2686      2.00000
      7      -1.2024      2.00000
      8       6.2989      0.00000
      9       8.1843      0.00000
     10       9.6216      0.00000
     11      11.5019      0.00000
     12      11.6530      0.00000
     13      13.4398      0.00000
     14      17.3239      0.00000
     15      17.3459      0.00000
     16      18.6056      0.00000
     17      18.8453      0.00000
     18      19.2357      0.00000
     19      20.0525      0.00000
     20      20.8690      0.00000
     21      24.6523      0.00000
     22      25.0515      0.00000
     23      26.3402      0.00000
     24      28.6400      0.00000
     25      29.6127      0.00000
     26      29.9765      0.00000
     27      31.5896      0.00000
     28      31.6170      0.00000
     29      32.3542      0.00000
     30      34.3562      0.00000
     31      35.5310      0.00000
     32      36.7361      0.00000
     33      36.9500      0.00000
     34      37.1549      0.00000
     35      38.6408      0.00000
     36      38.8557      0.00000

 k-point    82 :       0.4000    0.2667    0.0667
  band No.  band energies     occupation 
      1     -21.7851      2.00000
      2     -21.7752      2.00000
      3     -21.7737      2.00000
      4     -13.2304      2.00000
      5      -2.1978      2.00000
      6      -1.3766      2.00000
      7      -1.2520      2.00000
      8       6.7082      0.00000
      9       8.1101      0.00000
     10       9.3091      0.00000
     11      11.4440      0.00000
     12      12.1448      0.00000
     13      14.0762      0.00000
     14      16.8547      0.00000
     15      17.3501      0.00000
     16      18.1190      0.00000
     17      18.9432      0.00000
     18      19.6792      0.00000
     19      20.4428      0.00000
     20      21.4538      0.00000
     21      24.3103      0.00000
     22      24.6691      0.00000
     23      26.5825      0.00000
     24      28.1081      0.00000
     25      29.2309      0.00000
     26      30.2238      0.00000
     27      30.7056      0.00000
     28      31.5282      0.00000
     29      32.0655      0.00000
     30      34.6684      0.00000
     31      34.8331      0.00000
     32      35.5655      0.00000
     33      36.7636      0.00000
     34      36.9386      0.00000
     35      38.0448      0.00000
     36      39.2568      0.00000

 k-point    83 :       0.4667    0.2667    0.0667
  band No.  band energies     occupation 
      1     -21.7874      2.00000
      2     -21.7762      2.00000
      3     -21.7741      2.00000
      4     -13.1894      2.00000
      5      -2.3260      2.00000
      6      -1.4954      2.00000
      7      -1.2928      2.00000
      8       7.0515      0.00000
      9       8.2218      0.00000
     10       9.0880      0.00000
     11      11.2576      0.00000
     12      12.6814      0.00000
     13      14.8580      0.00000
     14      15.9590      0.00000
     15      16.9642      0.00000
     16      17.6549      0.00000
     17      19.2492      0.00000
     18      19.7568      0.00000
     19      21.4331      0.00000
     20      22.7802      0.00000
     21      23.4963      0.00000
     22      24.9430      0.00000
     23      26.3929      0.00000
     24      27.3855      0.00000
     25      28.8912      0.00000
     26      29.4302      0.00000
     27      30.8614      0.00000
     28      31.4518      0.00000
     29      32.3437      0.00000
     30      32.8298      0.00000
     31      34.4525      0.00000
     32      35.8749      0.00000
     33      36.6818      0.00000
     34      36.8734      0.00000
     35      36.9875      0.00000
     36      39.3868      0.00000

 k-point    84 :      -0.4667    0.2667    0.0667
  band No.  band energies     occupation 
      1     -21.7888      2.00000
      2     -21.7772      2.00000
      3     -21.7743      2.00000
      4     -13.1596      2.00000
      5      -2.4010      2.00000
      6      -1.6128      2.00000
      7      -1.3083      2.00000
      8       7.2789      0.00000
      9       8.3788      0.00000
     10       9.0791      0.00000
     11      11.0598      0.00000
     12      13.0012      0.00000
     13      15.2463      0.00000
     14      15.4805      0.00000
     15      16.8419      0.00000
     16      17.2038      0.00000
     17      19.0609      0.00000
     18      20.3726      0.00000
     19      21.8688      0.00000
     20      23.2740      0.00000
     21      24.0144      0.00000
     22      25.4046      0.00000
     23      26.0141      0.00000
     24      26.8445      0.00000
     25      28.5161      0.00000
     26      28.9693      0.00000
     27      30.2377      0.00000
     28      31.1069      0.00000
     29      32.0610      0.00000
     30      32.7210      0.00000
     31      34.1213      0.00000
     32      35.5990      0.00000
     33      36.3170      0.00000
     34      36.8534      0.00000
     35      37.1117      0.00000
     36      38.4718      0.00000

 k-point    85 :      -0.4000    0.2667    0.0667
  band No.  band energies     occupation 
      1     -21.7893      2.00000
      2     -21.7781      2.00000
      3     -21.7740      2.00000
      4     -13.1467      2.00000
      5      -2.4177      2.00000
      6      -1.7024      2.00000
      7      -1.2955      2.00000
      8       7.4370      0.00000
      9       8.4080      0.00000
     10       9.2114      0.00000
     11      10.9066      0.00000
     12      13.0763      0.00000
     13      14.4949      0.00000
     14      15.8182      0.00000
     15      17.1976      0.00000
     16      17.5192      0.00000
     17      18.4344      0.00000
     18      20.8727      0.00000
     19      21.2733      0.00000
     20      23.9314      0.00000
     21      24.3412      0.00000
     22      25.7675      0.00000
     23      26.3836      0.00000
     24      26.7748      0.00000
     25      27.8479      0.00000
     26      28.4333      0.00000
     27      29.9416      0.00000
     28      30.6191      0.00000
     29      32.4454      0.00000
     30      32.8461      0.00000
     31      33.7544      0.00000
     32      35.4550      0.00000
     33      35.9066      0.00000
     34      36.8723      0.00000
     35      37.2628      0.00000
     36      37.8361      0.00000

 k-point    86 :      -0.3333    0.2667    0.0667
  band No.  band energies     occupation 
      1     -21.7890      2.00000
      2     -21.7786      2.00000
      3     -21.7734      2.00000
      4     -13.1530      2.00000
      5      -2.3855      2.00000
      6      -1.7348      2.00000
      7      -1.2581      2.00000
      8       7.5107      0.00000
      9       8.4794      0.00000
     10       9.0916      0.00000
     11      10.8533      0.00000
     12      13.2479      0.00000
     13      13.7871      0.00000
     14      16.0777      0.00000
     15      17.2481      0.00000
     16      18.0125      0.00000
     17      18.5648      0.00000
     18      19.9050      0.00000
     19      21.6290      0.00000
     20      23.6363      0.00000
     21      24.6852      0.00000
     22      25.2101      0.00000
     23      26.3080      0.00000
     24      27.3123      0.00000
     25      27.8641      0.00000
     26      28.6527      0.00000
     27      30.5171      0.00000
     28      31.0340      0.00000
     29      31.8421      0.00000
     30      32.8704      0.00000
     31      33.9979      0.00000
     32      35.2084      0.00000
     33      35.7844      0.00000
     34      36.8960      0.00000
     35      37.1936      0.00000
     36      37.7511      0.00000

 k-point    87 :      -0.2667    0.2667    0.0667
  band No.  band energies     occupation 
      1     -21.7880      2.00000
      2     -21.7783      2.00000
      3     -21.7726      2.00000
      4     -13.1774      2.00000
      5      -2.3245      2.00000
      6      -1.6854      2.00000
      7      -1.2039      2.00000
      8       7.3847      0.00000
      9       8.6812      0.00000
     10       8.8238      0.00000
     11      10.8778      0.00000
     12      12.6772      0.00000
     13      14.3316      0.00000
     14      15.8248      0.00000
     15      17.0014      0.00000
     16      18.2310      0.00000
     17      18.9849      0.00000
     18      19.6358      0.00000
     19      21.9562      0.00000
     20      23.2202      0.00000
     21      23.5201      0.00000
     22      24.3608      0.00000
     23      26.9578      0.00000
     24      27.8351      0.00000
     25      28.5958      0.00000
     26      29.3425      0.00000
     27      30.7424      0.00000
     28      31.3842      0.00000
     29      32.2240      0.00000
     30      33.1425      0.00000
     31      34.3223      0.00000
     32      34.7675      0.00000
     33      35.8846      0.00000
     34      36.9116      0.00000
     35      37.0499      0.00000
     36      38.3247      0.00000

 k-point    88 :      -0.2000    0.2667    0.0667
  band No.  band energies     occupation 
      1     -21.7869      2.00000
      2     -21.7769      2.00000
      3     -21.7719      2.00000
      4     -13.2152      2.00000
      5      -2.2491      2.00000
      6      -1.5530      2.00000
      7      -1.1436      2.00000
      8       6.9884      0.00000
      9       8.6140      0.00000
     10       9.1164      0.00000
     11      10.9144      0.00000
     12      12.0626      0.00000
     13      14.7587      0.00000
     14      15.7219      0.00000
     15      17.0711      0.00000
     16      17.3101      0.00000
     17      19.3875      0.00000
     18      20.4310      0.00000
     19      21.8304      0.00000
     20      22.2401      0.00000
     21      22.6738      0.00000
     22      24.4130      0.00000
     23      27.4372      0.00000
     24      28.2273      0.00000
     25      28.8205      0.00000
     26      30.5019      0.00000
     27      30.5456      0.00000
     28      32.2508      0.00000
     29      32.2834      0.00000
     30      33.6234      0.00000
     31      34.5410      0.00000
     32      35.2118      0.00000
     33      36.2826      0.00000
     34      36.9228      0.00000
     35      37.2030      0.00000
     36      38.8940      0.00000

 k-point    89 :       0.4000    0.3333    0.0667
  band No.  band energies     occupation 
      1     -21.7851      2.00000
      2     -21.7757      2.00000
      3     -21.7749      2.00000
      4     -13.2104      2.00000
      5      -2.2452      2.00000
      6      -1.3814      2.00000
      7      -1.3269      2.00000
      8       6.7380      0.00000
      9       7.7788      0.00000
     10       9.3775      0.00000
     11      11.9852      0.00000
     12      12.3281      0.00000
     13      14.0229      0.00000
     14      16.9401      0.00000
     15      17.6213      0.00000
     16      18.5571      0.00000
     17      18.9076      0.00000
     18      19.2953      0.00000
     19      20.8572      0.00000
     20      21.0553      0.00000
     21      23.4499      0.00000
     22      25.2918      0.00000
     23      26.5508      0.00000
     24      28.0986      0.00000
     25      28.9865      0.00000
     26      29.9061      0.00000
     27      30.6865      0.00000
     28      30.6866      0.00000
     29      31.7953      0.00000
     30      33.4021      0.00000
     31      35.0563      0.00000
     32      36.3194      0.00000
     33      36.3511      0.00000
     34      36.9276      0.00000
     35      38.7070      0.00000
     36      40.0052      0.00000

 k-point    90 :       0.4667    0.3333    0.0667
  band No.  band energies     occupation 
      1     -21.7863      2.00000
      2     -21.7768      2.00000
      3     -21.7754      2.00000
      4     -13.1768      2.00000
      5      -2.3203      2.00000
      6      -1.5031      2.00000
      7      -1.3695      2.00000
      8       6.9895      0.00000
      9       7.8019      0.00000
     10       9.2802      0.00000
     11      11.8491      0.00000
     12      12.7657      0.00000
     13      14.7325      0.00000
     14      16.0173      0.00000
     15      17.1335      0.00000
     16      18.3731      0.00000
     17      18.8183      0.00000
     18      19.7207      0.00000
     19      21.6827      0.00000
     20      22.4140      0.00000
     21      23.7552      0.00000
     22      24.7033      0.00000
     23      25.9337      0.00000
     24      27.4701      0.00000
     25      28.0276      0.00000
     26      29.4352      0.00000
     27      30.5591      0.00000
     28      31.3854      0.00000
     29      32.0058      0.00000
     30      33.0702      0.00000
     31      34.0558      0.00000
     32      35.9016      0.00000
     33      36.3529      0.00000
     34      36.9208      0.00000
     35      37.5082      0.00000
     36      40.0159      0.00000

 k-point    91 :      -0.4667    0.3333    0.0667
  band No.  band energies     occupation 
      1     -21.7869      2.00000
      2     -21.7784      2.00000
      3     -21.7755      2.00000
      4     -13.1504      2.00000
      5      -2.3394      2.00000
      6      -1.6671      2.00000
      7      -1.3837      2.00000
      8       7.2173      0.00000
      9       7.9881      0.00000
     10       9.2291      0.00000
     11      11.5768      0.00000
     12      12.9836      0.00000
     13      15.3765      0.00000
     14      15.4438      0.00000
     15      16.6624      0.00000
     16      18.1965      0.00000
     17      18.7448      0.00000
     18      20.3360      0.00000
     19      22.2381      0.00000
     20      23.1428      0.00000
     21      24.2762      0.00000
     22      24.7604      0.00000
     23      25.4153      0.00000
     24      27.2092      0.00000
     25      27.3537      0.00000
     26      28.7391      0.00000
     27      30.0572      0.00000
     28      31.7206      0.00000
     29      32.1457      0.00000
     30      32.5561      0.00000
     31      33.3464      0.00000
     32      35.7015      0.00000
     33      36.3142      0.00000
     34      36.9108      0.00000
     35      37.3928      0.00000
     36      39.1050      0.00000

 k-point    92 :      -0.4000    0.3333    0.0667
  band No.  band energies     occupation 
      1     -21.7867      2.00000
      2     -21.7803      2.00000
      3     -21.7751      2.00000
      4     -13.1360      2.00000
      5      -2.2978      2.00000
      6      -1.8408      2.00000
      7      -1.3681      2.00000
      8       7.4433      0.00000
      9       8.1873      0.00000
     10       9.2298      0.00000
     11      11.2815      0.00000
     12      12.8628      0.00000
     13      14.7274      0.00000
     14      15.9308      0.00000
     15      17.1312      0.00000
     16      18.0146      0.00000
     17      18.6752      0.00000
     18      20.8200      0.00000
     19      21.4202      0.00000
     20      23.5341      0.00000
     21      24.3488      0.00000
     22      25.8047      0.00000
     23      26.2165      0.00000
     24      26.7534      0.00000
     25      27.1734      0.00000
     26      28.3451      0.00000
     27      29.5390      0.00000
     28      30.0283      0.00000
     29      32.2899      0.00000
     30      33.1721      0.00000
     31      33.7107      0.00000
     32      35.0513      0.00000
     33      35.8926      0.00000
     34      36.8920      0.00000
     35      37.3512      0.00000
     36      38.6023      0.00000

 k-point    93 :      -0.3333    0.3333    0.0667
  band No.  band energies     occupation 
      1     -21.7864      2.00000
      2     -21.7814      2.00000
      3     -21.7744      2.00000
      4     -13.1362      2.00000
      5      -2.2301      2.00000
      6      -1.9597      2.00000
      7      -1.3272      2.00000
      8       7.6931      0.00000
      9       8.2709      0.00000
     10       9.1193      0.00000
     11      11.0954      0.00000
     12      12.8959      0.00000
     13      13.8849      0.00000
     14      16.5425      0.00000
     15      17.5742      0.00000
     16      18.0926      0.00000
     17      18.7101      0.00000
     18      20.0308      0.00000
     19      21.2041      0.00000
     20      23.4187      0.00000
     21      25.2798      0.00000
     22      25.7668      0.00000
     23      26.4269      0.00000
     24      26.9788      0.00000
     25      27.4555      0.00000
     26      27.9006      0.00000
     27      29.1333      0.00000
     28      30.4134      0.00000
     29      32.4235      0.00000
     30      32.6786      0.00000
     31      34.1044      0.00000
     32      34.8972      0.00000
     33      35.7543      0.00000
     34      36.7970      0.00000
     35      36.9377      0.00000
     36      38.1166      0.00000

 k-point    94 :      -0.2667    0.3333    0.0667
  band No.  band energies     occupation 
      1     -21.7870      2.00000
      2     -21.7806      2.00000
      3     -21.7735      2.00000
      4     -13.1509      2.00000
      5      -2.2574      2.00000
      6      -1.8881      2.00000
      7      -1.2688      2.00000
      8       7.7748      0.00000
      9       8.3720      0.00000
     10       8.8689      0.00000
     11      11.0133      0.00000
     12      13.1601      0.00000
     13      13.4115      0.00000
     14      16.5352      0.00000
     15      17.4986      0.00000
     16      18.5961      0.00000
     17      18.9122      0.00000
     18      18.9753      0.00000
     19      21.5261      0.00000
     20      23.5323      0.00000
     21      24.5882      0.00000
     22      25.0940      0.00000
     23      26.3920      0.00000
     24      27.4643      0.00000
     25      27.9836      0.00000
     26      28.3974      0.00000
     27      29.8720      0.00000
     28      31.6960      0.00000
     29      31.8503      0.00000
     30      32.4647      0.00000
     31      34.3273      0.00000
     32      35.0468      0.00000
     33      35.4420      0.00000
     34      36.7105      0.00000
     35      36.9057      0.00000
     36      38.1075      0.00000

 k-point    95 :       0.4667    0.4000    0.0667
  band No.  band energies     occupation 
      1     -21.7865      2.00000
      2     -21.7768      2.00000
      3     -21.7764      2.00000
      4     -13.1620      2.00000
      5      -2.3753      2.00000
      6      -1.4661      2.00000
      7      -1.4257      2.00000
      8       6.8005      0.00000
      9       7.5002      0.00000
     10       9.6441      0.00000
     11      12.4369      0.00000
     12      13.0316      0.00000
     13      14.5377      0.00000
     14      16.0767      0.00000
     15      16.8379      0.00000
     16      17.4949      0.00000
     17      19.9161      0.00000
     18      20.3960      0.00000
     19      21.8723      0.00000
     20      22.3910      0.00000
     21      22.8889      0.00000
     22      25.4468      0.00000
     23      25.5277      0.00000
     24      27.0372      0.00000
     25      27.1081      0.00000
     26      29.6195      0.00000
     27      30.1309      0.00000
     28      31.3501      0.00000
     29      31.8636      0.00000
     30      32.1189      0.00000
     31      35.5435      0.00000
     32      35.5981      0.00000
     33      35.8973      0.00000
     34      36.9215      0.00000
     35      38.4464      0.00000
     36      39.8885      0.00000

 k-point    96 :      -0.4667    0.4000    0.0667
  band No.  band energies     occupation 
      1     -21.7865      2.00000
      2     -21.7782      2.00000
      3     -21.7766      2.00000
      4     -13.1422      2.00000
      5      -2.3750      2.00000
      6      -1.5990      2.00000
      7      -1.4471      2.00000
      8       6.9578      0.00000
      9       7.6078      0.00000
     10       9.6657      0.00000
     11      12.1013      0.00000
     12      13.2748      0.00000
     13      15.1257      0.00000
     14      15.6309      0.00000
     15      16.3854      0.00000
     16      17.3990      0.00000
     17      19.9733      0.00000
     18      20.7236      0.00000
     19      22.4123      0.00000
     20      22.9388      0.00000
     21      23.7415      0.00000
     22      24.8724      0.00000
     23      25.5263      0.00000
     24      26.2673      0.00000
     25      26.8641      0.00000
     26      28.8195      0.00000
     27      29.4005      0.00000
     28      31.3940      0.00000
     29      32.5808      0.00000
     30      33.0594      0.00000
     31      33.4374      0.00000
     32      35.4820      0.00000
     33      36.8078      0.00000
     34      36.9166      0.00000
     35      37.2103      0.00000
     36      38.8411      0.00000

 k-point    97 :      -0.4000    0.4000    0.0667
  band No.  band energies     occupation 
      1     -21.7857      2.00000
      2     -21.7806      2.00000
      3     -21.7762      2.00000
      4     -13.1301      2.00000
      5      -2.3091      2.00000
      6      -1.7921      2.00000
      7      -1.4312      2.00000
      8       7.1761      0.00000
      9       7.8673      0.00000
     10       9.5922      0.00000
     11      11.6448      0.00000
     12      13.0858      0.00000
     13      15.0878      0.00000
     14      15.8137      0.00000
     15      16.5707      0.00000
     16      17.4437      0.00000
     17      20.0012      0.00000
     18      20.8562      0.00000
     19      21.8036      0.00000
     20      23.2481      0.00000
     21      24.1148      0.00000
     22      25.4913      0.00000
     23      25.8110      0.00000
     24      26.4271      0.00000
     25      27.0918      0.00000
     26      27.9962      0.00000
     27      28.8170      0.00000
     28      31.2368      0.00000
     29      31.5406      0.00000
     30      33.2540      0.00000
     31      33.9216      0.00000
     32      35.4646      0.00000
     33      35.9637      0.00000
     34      36.9105      0.00000
     35      37.2126      0.00000
     36      38.8375      0.00000

 k-point    98 :      -0.3333    0.4000    0.0667
  band No.  band energies     occupation 
      1     -21.7840      2.00000
      2     -21.7834      2.00000
      3     -21.7754      2.00000
      4     -13.1280      2.00000
      5      -2.1859      2.00000
      6      -1.9954      2.00000
      7      -1.3886      2.00000
      8       7.4458      0.00000
      9       8.1465      0.00000
     10       9.3780      0.00000
     11      11.2897      0.00000
     12      12.8422      0.00000
     13      14.4035      0.00000
     14      16.5903      0.00000
     15      16.8959      0.00000
     16      17.7071      0.00000
     17      19.8322      0.00000
     18      20.4665      0.00000
     19      20.9822      0.00000
     20      23.3179      0.00000
     21      25.2307      0.00000
     22      25.3316      0.00000
     23      26.3790      0.00000
     24      26.9828      0.00000
     25      27.1561      0.00000
     26      27.8870      0.00000
     27      29.1094      0.00000
     28      29.5605      0.00000
     29      31.7776      0.00000
     30      33.3866      0.00000
     31      34.2074      0.00000
     32      35.1063      0.00000
     33      35.6180      0.00000
     34      36.8967      0.00000
     35      36.9063      0.00000
     36      38.5191      0.00000

 k-point    99 :      -0.4667    0.4667    0.0667
  band No.  band energies     occupation 
      1     -21.7870      2.00000
      2     -21.7774      2.00000
      3     -21.7772      2.00000
      4     -13.1365      2.00000
      5      -2.4346      2.00000
      6      -1.5112      2.00000
      7      -1.4806      2.00000
      8       6.7228      0.00000
      9       7.3588      0.00000
     10      10.0281      0.00000
     11      12.6789      0.00000
     12      13.5977      0.00000
     13      14.7938      0.00000
     14      15.8259      0.00000
     15      16.1318      0.00000
     16      16.5633      0.00000
     17      20.7563      0.00000
     18      21.7230      0.00000
     19      22.1992      0.00000
     20      23.1429      0.00000
     21      23.3561      0.00000
     22      24.4402      0.00000
     23      25.4655      0.00000
     24      25.6628      0.00000
     25      26.5470      0.00000
     26      28.3782      0.00000
     27      29.5195      0.00000
     28      31.5938      0.00000
     29      31.7339      0.00000
     30      33.1771      0.00000
     31      35.1647      0.00000
     32      35.2737      0.00000
     33      36.5689      0.00000
     34      36.9203      0.00000
     35      37.9925      0.00000
     36      38.3309      0.00000

 k-point   100 :      -0.4000    0.4667    0.0667
  band No.  band energies     occupation 
      1     -21.7864      2.00000
      2     -21.7789      2.00000
      3     -21.7770      2.00000
      4     -13.1303      2.00000
      5      -2.3883      2.00000
      6      -1.6360      2.00000
      7      -1.4739      2.00000
      8       6.9077      0.00000
      9       7.5421      0.00000
     10       9.9149      0.00000
     11      12.1236      0.00000
     12      13.4933      0.00000
     13      15.2794      0.00000
     14      15.5457      0.00000
     15      16.1969      0.00000
     16      16.8439      0.00000
     17      20.6141      0.00000
     18      21.4995      0.00000
     19      22.3086      0.00000
     20      23.1632      0.00000
     21      23.2327      0.00000
     22      25.3003      0.00000
     23      25.4441      0.00000
     24      25.8547      0.00000
     25      27.3062      0.00000
     26      27.4314      0.00000
     27      28.8074      0.00000
     28      31.3670      0.00000
     29      32.6322      0.00000
     30      33.1857      0.00000
     31      33.9162      0.00000
     32      35.2689      0.00000
     33      36.9150      0.00000
     34      37.0848      0.00000
     35      37.1140      0.00000
     36      37.8493      0.00000

 k-point   101 :       0.4000    0.2667    0.1333
  band No.  band energies     occupation 
      1     -21.7849      2.00000
      2     -21.7753      2.00000
      3     -21.7723      2.00000
      4     -13.2499      2.00000
      5      -2.1455      2.00000
      6      -1.3877      2.00000
      7      -1.1615      2.00000
      8       6.5928      0.00000
      9       8.3833      0.00000
     10       9.3942      0.00000
     11      11.2053      0.00000
     12      11.7861      0.00000
     13      14.0363      0.00000
     14      16.9217      0.00000
     15      17.0726      0.00000
     16      17.3027      0.00000
     17      19.2877      0.00000
     18      20.1597      0.00000
     19      20.7158      0.00000
     20      21.3851      0.00000
     21      23.7720      0.00000
     22      25.1823      0.00000
     23      26.5370      0.00000
     24      28.0208      0.00000
     25      29.2349      0.00000
     26      31.0880      0.00000
     27      31.1067      0.00000
     28      31.4948      0.00000
     29      32.7219      0.00000
     30      34.3764      0.00000
     31      35.0442      0.00000
     32      36.2892      0.00000
     33      36.5024      0.00000
     34      36.9395      0.00000
     35      37.6633      0.00000
     36      38.6593      0.00000

 k-point   102 :       0.4667    0.2667    0.1333
  band No.  band energies     occupation 
      1     -21.7870      2.00000
      2     -21.7766      2.00000
      3     -21.7729      2.00000
      4     -13.2054      2.00000
      5      -2.2775      2.00000
      6      -1.5167      2.00000
      7      -1.2178      2.00000
      8       7.0460      0.00000
      9       8.4206      0.00000
     10       9.0387      0.00000
     11      11.0835      0.00000
     12      12.3327      0.00000
     13      14.7923      0.00000
     14      15.8039      0.00000
     15      16.8920      0.00000
     16      18.0761      0.00000
     17      18.9040      0.00000
     18      19.9762      0.00000
     19      21.6207      0.00000
     20      22.3431      0.00000
     21      23.1853      0.00000
     22      25.0164      0.00000
     23      26.8161      0.00000
     24      27.4686      0.00000
     25      28.9960      0.00000
     26      29.7822      0.00000
     27      30.8893      0.00000
     28      32.2189      0.00000
     29      32.4523      0.00000
     30      33.8317      0.00000
     31      34.2187      0.00000
     32      35.1845      0.00000
     33      36.3921      0.00000
     34      36.8110      0.00000
     35      36.9371      0.00000
     36      39.0082      0.00000

 k-point   103 :      -0.4667    0.2667    0.1333
  band No.  band energies     occupation 
      1     -21.7887      2.00000
      2     -21.7773      2.00000
      3     -21.7735      2.00000
      4     -13.1702      2.00000
      5      -2.3766      2.00000
      6      -1.6094      2.00000
      7      -1.2695      2.00000
      8       7.3382      0.00000
      9       8.5345      0.00000
     10       8.9144      0.00000
     11      10.9258      0.00000
     12      12.9357      0.00000
     13      14.7181      0.00000
     14      15.6151      0.00000
     15      16.8570      0.00000
     16      17.8023      0.00000
     17      19.1144      0.00000
     18      19.7634      0.00000
     19      22.0738      0.00000
     20      23.0776      0.00000
     21      23.7476      0.00000
     22      25.2568      0.00000
     23      26.3240      0.00000
     24      27.0280      0.00000
     25      28.8105      0.00000
     26      28.8650      0.00000
     27      30.8218      0.00000
     28      31.5326      0.00000
     29      32.7304      0.00000
     30      32.8927      0.00000
     31      33.6238      0.00000
     32      34.9879      0.00000
     33      36.1518      0.00000
     34      36.8392      0.00000
     35      36.9508      0.00000
     36      38.3138      0.00000

 k-point   104 :      -0.4000    0.2667    0.1333
  band No.  band energies     occupation 
      1     -21.7896      2.00000
      2     -21.7776      2.00000
      3     -21.7740      2.00000
      4     -13.1508      2.00000
      5      -2.4300      2.00000
      6      -1.6570      2.00000
      7      -1.3001      2.00000
      8       7.4608      0.00000
      9       8.4491      0.00000
     10       9.1475      0.00000
     11      10.8069      0.00000
     12      13.2146      0.00000
     13      14.4972      0.00000
     14      15.6353      0.00000
     15      17.0517      0.00000
     16      17.6044      0.00000
     17      18.5279      0.00000
     18      20.5602      0.00000
     19      21.5956      0.00000
     20      23.8471      0.00000
     21      24.5256      0.00000
     22      25.2759      0.00000
     23      26.3220      0.00000
     24      26.9179      0.00000
     25      27.9913      0.00000
     26      28.4217      0.00000
     27      30.2919      0.00000
     28      31.4561      0.00000
     29      32.3790      0.00000
     30      32.8336      0.00000
     31      33.2835      0.00000
     32      35.1707      0.00000
     33      36.3350      0.00000
     34      36.8067      0.00000
     35      37.0046      0.00000
     36      37.3399      0.00000

 k-point   105 :       0.4667    0.3333    0.1333
  band No.  band energies     occupation 
      1     -21.7862      2.00000
      2     -21.7768      2.00000
      3     -21.7742      2.00000
      4     -13.1933      2.00000
      5      -2.2739      2.00000
      6      -1.5133      2.00000
      7      -1.3082      2.00000
      8       7.0966      0.00000
      9       8.0725      0.00000
     10       9.0443      0.00000
     11      11.4923      0.00000
     12      12.4768      0.00000
     13      14.7661      0.00000
     14      15.8958      0.00000
     15      17.5272      0.00000
     16      18.1854      0.00000
     17      19.0143      0.00000
     18      19.1737      0.00000
     19      21.8679      0.00000
     20      21.9512      0.00000
     21      24.1410      0.00000
     22      24.5369      0.00000
     23      26.4131      0.00000
     24      27.0822      0.00000
     25      28.8034      0.00000
     26      29.4287      0.00000
     27      31.4760      0.00000
     28      31.6698      0.00000
     29      31.7264      0.00000
     30      34.2728      0.00000
     31      34.4527      0.00000
     32      34.6710      0.00000
     33      36.5110      0.00000
     34      36.5894      0.00000
     35      36.9233      0.00000
     36      39.4766      0.00000

 k-point   106 :      -0.4667    0.3333    0.1333
  band No.  band energies     occupation 
      1     -21.7869      2.00000
      2     -21.7781      2.00000
      3     -21.7749      2.00000
      4     -13.1618      2.00000
      5      -2.3113      2.00000
      6      -1.6502      2.00000
      7      -1.3649      2.00000
      8       7.4340      0.00000
      9       8.1974      0.00000
     10       8.8523      0.00000
     11      11.3061      0.00000
     12      12.9606      0.00000
     13      14.8589      0.00000
     14      15.6189      0.00000
     15      17.1989      0.00000
     16      18.3575      0.00000
     17      18.7006      0.00000
     18      19.5867      0.00000
     19      22.3817      0.00000
     20      22.9459      0.00000
     21      24.1781      0.00000
     22      24.7945      0.00000
     23      25.9310      0.00000
     24      26.6518      0.00000
     25      27.6663      0.00000
     26      29.2430      0.00000
     27      31.1109      0.00000
     28      32.1188      0.00000
     29      32.1931      0.00000
     30      32.5578      0.00000
     31      34.1265      0.00000
     32      34.3308      0.00000
     33      35.4133      0.00000
     34      36.9093      0.00000
     35      37.3418      0.00000
     36      38.9178      0.00000

 k-point   107 :      -0.4000    0.3333    0.1333
  band No.  band energies     occupation 
      1     -21.7872      2.00000
      2     -21.7792      2.00000
      3     -21.7753      2.00000
      4     -13.1415      2.00000
      5      -2.3094      2.00000
      6      -1.7735      2.00000
      7      -1.3946      2.00000
      8       7.6732      0.00000
      9       8.2669      0.00000
     10       8.9144      0.00000
     11      11.0345      0.00000
     12      13.1563      0.00000
     13      14.6859      0.00000
     14      15.6356      0.00000
     15      17.2743      0.00000
     16      18.1483      0.00000
     17      18.5267      0.00000
     18      20.4322      0.00000
     19      21.8701      0.00000
     20      23.5913      0.00000
     21      24.2650      0.00000
     22      25.4542      0.00000
     23      25.8962      0.00000
     24      26.7454      0.00000
     25      27.1169      0.00000
     26      28.8475      0.00000
     27      30.3506      0.00000
     28      30.9799      0.00000
     29      32.4173      0.00000
     30      32.9004      0.00000
     31      33.4273      0.00000
     32      34.2166      0.00000
     33      35.4661      0.00000
     34      36.8949      0.00000
     35      37.6359      0.00000
     36      37.9445      0.00000

 k-point   108 :      -0.3333    0.3333    0.1333
  band No.  band energies     occupation 
      1     -21.7871      2.00000
      2     -21.7799      2.00000
      3     -21.7752      2.00000
      4     -13.1362      2.00000
      5      -2.2874      2.00000
      6      -1.8467      2.00000
      7      -1.3863      2.00000
      8       7.8828      0.00000
      9       8.1747      0.00000
     10       9.0070      0.00000
     11      10.8750      0.00000
     12      13.1577      0.00000
     13      14.3869      0.00000
     14      15.7851      0.00000
     15      17.6713      0.00000
     16      18.0236      0.00000
     17      18.4290      0.00000
     18      20.6833      0.00000
     19      21.3502      0.00000
     20      23.8591      0.00000
     21      24.4399      0.00000
     22      25.1633      0.00000
     23      26.5085      0.00000
     24      27.0822      0.00000
     25      27.2827      0.00000
     26      28.0513      0.00000
     27      30.2448      0.00000
     28      30.6087      0.00000
     29      32.4951      0.00000
     30      32.7755      0.00000
     31      33.2280      0.00000
     32      34.2436      0.00000
     33      36.0534      0.00000
     34      36.6099      0.00000
     35      36.9423      0.00000
     36      38.0158      0.00000

 k-point   109 :      -0.2667    0.3333    0.1333
  band No.  band energies     occupation 
      1     -21.7871      2.00000
      2     -21.7798      2.00000
      3     -21.7745      2.00000
      4     -13.1468      2.00000
      5      -2.2811      2.00000
      6      -1.8207      2.00000
      7      -1.3444      2.00000
      8       7.8762      0.00000
      9       8.2857      0.00000
     10       8.7533      0.00000
     11      10.9743      0.00000
     12      13.2316      0.00000
     13      13.9276      0.00000
     14      16.1796      0.00000
     15      17.3893      0.00000
     16      18.3802      0.00000
     17      18.6504      0.00000
     18      19.6306      0.00000
     19      21.8594      0.00000
     20      23.6615      0.00000
     21      24.5010      0.00000
     22      25.2531      0.00000
     23      25.7060      0.00000
     24      27.1981      0.00000
     25      27.3520      0.00000
     26      28.6735      0.00000
     27      30.7489      0.00000
     28      31.7137      0.00000
     29      31.8476      0.00000
     30      32.9473      0.00000
     31      33.2442      0.00000
     32      34.2699      0.00000
     33      35.9920      0.00000
     34      36.4780      0.00000
     35      36.9065      0.00000
     36      38.2492      0.00000

 k-point   110 :      -0.2000    0.3333    0.1333
  band No.  band energies     occupation 
      1     -21.7871      2.00000
      2     -21.7786      2.00000
      3     -21.7736      2.00000
      4     -13.1713      2.00000
      5      -2.2892      2.00000
      6      -1.6951      2.00000
      7      -1.2820      2.00000
      8       7.5465      0.00000
      9       8.4708      0.00000
     10       8.6386      0.00000
     11      11.1012      0.00000
     12      12.7461      0.00000
     13      14.5088      0.00000
     14      15.7898      0.00000
     15      17.4706      0.00000
     16      18.1558      0.00000
     17      18.9439      0.00000
     18      19.2837      0.00000
     19      22.2364      0.00000
     20      23.0880      0.00000
     21      23.8812      0.00000
     22      24.4026      0.00000
     23      26.4920      0.00000
     24      27.1242      0.00000
     25      28.3386      0.00000
     26      29.0119      0.00000
     27      31.2122      0.00000
     28      31.8084      0.00000
     29      32.5300      0.00000
     30      33.5929      0.00000
     31      33.6720      0.00000
     32      34.0877      0.00000
     33      35.9507      0.00000
     34      36.4310      0.00000
     35      36.9130      0.00000
     36      38.8575      0.00000

 k-point   111 :      -0.4667    0.4000    0.1333
  band No.  band energies     occupation 
      1     -21.7864      2.00000
      2     -21.7780      2.00000
      3     -21.7763      2.00000
      4     -13.1518      2.00000
      5      -2.3276      2.00000
      6      -1.6073      2.00000
      7      -1.4457      2.00000
      8       7.2143      0.00000
      9       7.8490      0.00000
     10       9.2323      0.00000
     11      11.6676      0.00000
     12      13.2032      0.00000
     13      14.9799      0.00000
     14      15.5678      0.00000
     15      16.8672      0.00000
     16      18.0422      0.00000
     17      19.3248      0.00000
     18      19.9446      0.00000
     19      22.4416      0.00000
     20      22.8088      0.00000
     21      24.2351      0.00000
     22      25.0259      0.00000
     23      25.2763      0.00000
     24      26.7778      0.00000
     25      26.8283      0.00000
     26      29.0910      0.00000
     27      30.7732      0.00000
     28      31.1593      0.00000
     29      32.6277      0.00000
     30      33.2536      0.00000
     31      33.9035      0.00000
     32      33.9045      0.00000
     33      36.0224      0.00000
     34      36.9153      0.00000
     35      37.2081      0.00000
     36      39.2908      0.00000

 k-point   112 :      -0.4000    0.4000    0.1333
  band No.  band energies     occupation 
      1     -21.7858      2.00000
      2     -21.7796      2.00000
      3     -21.7768      2.00000
      4     -13.1342      2.00000
      5      -2.2812      2.00000
      6      -1.7589      2.00000
      7      -1.4851      2.00000
      8       7.4409      0.00000
      9       8.0481      0.00000
     10       9.1864      0.00000
     11      11.2339      0.00000
     12      13.4886      0.00000
     13      14.8819      0.00000
     14      15.5979      0.00000
     15      16.6439      0.00000
     16      17.9689      0.00000
     17      19.5727      0.00000
     18      20.5555      0.00000
     19      22.3479      0.00000
     20      22.9768      0.00000
     21      24.0806      0.00000
     22      25.3145      0.00000
     23      25.7572      0.00000
     24      26.2657      0.00000
     25      26.9557      0.00000
     26      28.6851      0.00000
     27      30.1567      0.00000
     28      31.2019      0.00000
     29      31.6859      0.00000
     30      33.5200      0.00000
     31      33.6567      0.00000
     32      34.1219      0.00000
     33      34.7881      0.00000
     34      36.9081      0.00000
     35      37.6920      0.00000
     36      38.7513      0.00000

 k-point   113 :      -0.3333    0.4000    0.1333
  band No.  band energies     occupation 
      1     -21.7847      2.00000
      2     -21.7817      2.00000
      3     -21.7765      2.00000
      4     -13.1270      2.00000
      5      -2.1810      2.00000
      6      -1.9414      2.00000
      7      -1.4709      2.00000
      8       7.6774      0.00000
      9       8.2407      0.00000
     10       9.1226      0.00000
     11      10.8435      0.00000
     12      13.4256      0.00000
     13      14.6107      0.00000
     14      15.8005      0.00000
     15      16.8089      0.00000
     16      18.1039      0.00000
     17      19.6737      0.00000
     18      20.9186      0.00000
     19      21.3286      0.00000
     20      23.4246      0.00000
     21      24.1650      0.00000
     22      25.1711      0.00000
     23      25.5692      0.00000
     24      27.1748      0.00000
     25      27.8300      0.00000
     26      28.5879      0.00000
     27      29.6332      0.00000
     28      29.9907      0.00000
     29      31.4409      0.00000
     30      33.2729      0.00000
     31      33.7526      0.00000
     32      34.0255      0.00000
     33      35.2195      0.00000
     34      36.8565      0.00000
     35      36.9538      0.00000
     36      38.9709      0.00000

 k-point   114 :      -0.2667    0.4000    0.1333
  band No.  band energies     occupation 
      1     -21.7850      2.00000
      2     -21.7820      2.00000
      3     -21.7756      2.00000
      4     -13.1314      2.00000
      5      -2.1429      2.00000
      6      -2.0053      2.00000
      7      -1.4182      2.00000
      8       7.9628      0.00000
      9       8.2347      0.00000
     10       8.8902      0.00000
     11      10.8269      0.00000
     12      13.4490      0.00000
     13      13.8988      0.00000
     14      16.4090      0.00000
     15      16.9397      0.00000
     16      18.3412      0.00000
     17      19.6266      0.00000
     18      19.7151      0.00000
     19      21.5507      0.00000
     20      23.5373      0.00000
     21      24.9314      0.00000
     22      25.1521      0.00000
     23      25.4712      0.00000
     24      27.3492      0.00000
     25      27.3641      0.00000
     26      28.6070      0.00000
     27      29.7440      0.00000
     28      30.8728      0.00000
     29      31.7552      0.00000
     30      32.4277      0.00000
     31      33.7179      0.00000
     32      34.0142      0.00000
     33      35.9501      0.00000
     34      36.3344      0.00000
     35      36.9062      0.00000
     36      38.5702      0.00000

 k-point   115 :      -0.4000    0.4667    0.1333
  band No.  band energies     occupation 
      1     -21.7859      2.00000
      2     -21.7787      2.00000
      3     -21.7778      2.00000
      4     -13.1302      2.00000
      5      -2.3366      2.00000
      6      -1.6573      2.00000
      7      -1.5333      2.00000
      8       7.1374      0.00000
      9       7.7332      0.00000
     10       9.6498      0.00000
     11      11.5711      0.00000
     12      13.7987      0.00000
     13      15.0094      0.00000
     14      15.5761      0.00000
     15      16.1605      0.00000
     16      17.4273      0.00000
     17      20.3255      0.00000
     18      21.3044      0.00000
     19      22.5430      0.00000
     20      22.5779      0.00000
     21      23.3905      0.00000
     22      25.3458      0.00000
     23      25.6347      0.00000
     24      26.5599      0.00000
     25      26.7235      0.00000
     26      28.2630      0.00000
     27      28.7850      0.00000
     28      31.2077      0.00000
     29      33.1638      0.00000
     30      33.4672      0.00000
     31      33.4723      0.00000
     32      34.0273      0.00000
     33      35.7839      0.00000
     34      36.9131      0.00000
     35      37.2078      0.00000
     36      38.3662      0.00000

 k-point   116 :      -0.3333    0.4667    0.1333
  band No.  band energies     occupation 
      1     -21.7848      2.00000
      2     -21.7806      2.00000
      3     -21.7775      2.00000
      4     -13.1248      2.00000
      5      -2.2525      2.00000
      6      -1.8090      2.00000
      7      -1.5313      2.00000
      8       7.3869      0.00000
      9       8.0003      0.00000
     10       9.4676      0.00000
     11      11.0498      0.00000
     12      13.7765      0.00000
     13      15.0922      0.00000
     14      15.4403      0.00000
     15      16.2260      0.00000
     16      17.8148      0.00000
     17      20.4452      0.00000
     18      21.4373      0.00000
     19      21.5371      0.00000
     20      23.0206      0.00000
     21      23.5033      0.00000
     22      24.9868      0.00000
     23      25.6645      0.00000
     24      27.4111      0.00000
     25      27.6476      0.00000
     26      28.2223      0.00000
     27      28.4419      0.00000
     28      31.0623      0.00000
     29      31.3561      0.00000
     30      33.4930      0.00000
     31      34.0767      0.00000
     32      34.4535      0.00000
     33      34.6726      0.00000
     34      36.9085      0.00000
     35      36.9398      0.00000
     36      39.0486      0.00000

 k-point   117 :      -0.4000    0.4000    0.2000
  band No.  band energies     occupation 
      1     -21.7860      2.00000
      2     -21.7799      2.00000
      3     -21.7760      2.00000
      4     -13.1401      2.00000
      5      -2.2515      2.00000
      6      -1.8009      2.00000
      7      -1.4458      2.00000
      8       7.7647      0.00000
      9       8.3462      0.00000
     10       8.6504      0.00000
     11      11.0479      0.00000
     12      13.4928      0.00000
     13      14.2381      0.00000
     14      16.0378      0.00000
     15      16.9065      0.00000
     16      18.3842      0.00000
     17      19.2917      0.00000
     18      19.6745      0.00000
     19      22.3222      0.00000
     20      23.3113      0.00000
     21      24.5795      0.00000
     22      25.0576      0.00000
     23      25.4749      0.00000
     24      26.5308      0.00000
     25      26.9274      0.00000
     26      29.1482      0.00000
     27      31.2637      0.00000
     28      31.3481      0.00000
     29      32.3351      0.00000
     30      32.4895      0.00000
     31      33.1277      0.00000
     32      33.4843      0.00000
     33      35.1633      0.00000
     34      36.9046      0.00000
     35      37.8091      0.00000
     36      38.4049      0.00000

 k-point   118 :      -0.3333    0.4000    0.2000
  band No.  band energies     occupation 
      1     -21.7849      2.00000
      2     -21.7811      2.00000
      3     -21.7768      2.00000
      4     -13.1282      2.00000
      5      -2.1700      2.00000
      6      -1.9257      2.00000
      7      -1.4985      2.00000
      8       7.9107      0.00000
      9       8.3932      0.00000
     10       8.7700      0.00000
     11      10.6866      0.00000
     12      13.6804      0.00000
     13      14.4209      0.00000
     14      15.7345      0.00000
     15      16.8021      0.00000
     16      18.3134      0.00000
     17      19.5468      0.00000
     18      20.5906      0.00000
     19      21.7309      0.00000
     20      23.6052      0.00000
     21      24.1324      0.00000
     22      24.8713      0.00000
     23      25.2473      0.00000
     24      27.3556      0.00000
     25      27.5482      0.00000
     26      28.9209      0.00000
     27      30.4272      0.00000
     28      30.8363      0.00000
     29      31.5794      0.00000
     30      32.3351      0.00000
     31      32.5906      0.00000
     32      33.8750      0.00000
     33      35.8021      0.00000
     34      36.8458      0.00000
     35      36.9745      0.00000
     36      38.8321      0.00000

 k-point   119 :      -0.3333    0.4667    0.2000
  band No.  band energies     occupation 
      1     -21.7843      2.00000
      2     -21.7806      2.00000
      3     -21.7782      2.00000
      4     -13.1242      2.00000
      5      -2.1858      2.00000
      6      -1.8570      2.00000
      7      -1.5759      2.00000
      8       7.6500      0.00000
      9       8.2759      0.00000
     10       9.0972      0.00000
     11      10.6850      0.00000
     12      14.1334      0.00000
     13      14.6854      0.00000
     14      15.5002      0.00000
     15      16.1931      0.00000
     16      18.1886      0.00000
     17      20.3968      0.00000
     18      20.9180      0.00000
     19      21.9793      0.00000
     20      23.0071      0.00000
     21      23.5907      0.00000
     22      24.8382      0.00000
     23      25.0715      0.00000
     24      27.5076      0.00000
     25      27.8404      0.00000
     26      28.7472      0.00000
     27      29.9318      0.00000
     28      30.8054      0.00000
     29      31.4348      0.00000
     30      31.8878      0.00000
     31      33.1207      0.00000
     32      34.4803      0.00000
     33      35.0787      0.00000
     34      36.8942      0.00000
     35      37.0252      0.00000
     36      39.3413      0.00000

 k-point   120 :      -0.2667    0.4667    0.2000
  band No.  band energies     occupation 
      1     -21.7827      2.00000
      2     -21.7824      2.00000
      3     -21.7781      2.00000
      4     -13.1220      2.00000
      5      -2.0672      2.00000
      6      -2.0014      2.00000
      7      -1.5762      2.00000
      8       7.8114      0.00000
      9       8.5213      0.00000
     10       8.8892      0.00000
     11      10.4244      0.00000
     12      14.1944      0.00000
     13      14.5847      0.00000
     14      15.4938      0.00000
     15      16.2175      0.00000
     16      18.3619      0.00000
     17      20.6120      0.00000
     18      20.8575      0.00000
     19      21.5693      0.00000
     20      23.1698      0.00000
     21      24.0589      0.00000
     22      24.2174      0.00000
     23      24.9001      0.00000
     24      27.7094      0.00000
     25      28.9229      0.00000
     26      29.1432      0.00000
     27      29.8127      0.00000
     28      30.3678      0.00000
     29      30.8502      0.00000
     30      31.9928      0.00000
     31      32.0244      0.00000
     32      34.6201      0.00000
     33      35.9436      0.00000
     34      36.3587      0.00000
     35      36.9055      0.00000
     36      39.5830      0.00000


--------------------------------------------------------------------------------------------------------


 soft charge-density along one line, spin component           1
         0         1         2         3         4         5         6         7         8         9
 total charge-density along one line
 
 pseudopotential strength for first ion, spin component:           1
-25.742  -0.000  -0.000   2.753   0.000   0.000   0.000   0.000
 -0.000 -25.742  -0.000   0.000   2.753   0.000   0.000   0.000
 -0.000  -0.000 -25.742   0.000   0.000   2.753  -0.000  -0.000
  2.753   0.000   0.000   6.503   0.000   0.000  -0.000   0.000
  0.000   2.753   0.000   0.000   6.503   0.000  -0.000   0.000
  0.000   0.000   2.753   0.000   0.000   6.503   0.000  -0.000
  0.000   0.000  -0.000  -0.000  -0.000   0.000   1.431   7.017
  0.000   0.000  -0.000   0.000   0.000  -0.000   7.017  34.143
 total augmentation occupancy for first ion, spin component:           1
  2.001   0.000  -0.000  -0.003  -0.000   0.000   0.000   0.000
  0.000   2.001   0.000  -0.000  -0.003   0.000   0.000   0.000
 -0.000   0.000   2.001   0.000   0.000  -0.003   0.000   0.000
 -0.003  -0.000   0.000   0.015   0.000  -0.000   0.000   0.000
 -0.000  -0.003   0.000   0.000   0.015   0.000   0.000   0.000
  0.000   0.000  -0.003  -0.000   0.000   0.015   0.000   0.000
  0.000   0.000   0.000   0.000   0.000   0.000   0.363  -0.001
  0.000   0.000   0.000   0.000   0.000   0.000  -0.001   0.000


------------------------ aborting loop because EDIFF is reached ----------------------------------------


 MLWF driver (Wannier functions)
 ===============================
 Calling wannier_setup of wannier90 in library mode
 Wannier90 mode
 Computing MMN (overlap matrix elements)
 Writing MMN to wannier90.mmn
 Writing EIG to wannier90.eig
 
 LOCPROJ orbitals
 -------------------------------------------------------------------------------
 ---------------
  n  l  m   za        pos                       proj_x                    proj_z
 -------------------------------------------------------------------------------
 ---------------
  1  0  1   1.890     0.000   0.000   0.000     1.000   0.000   0.000     0.000   0.000   1.000
  1  1  1   1.890     0.000   0.000   0.000     1.000   0.000   0.000     0.000   0.000   1.000
  1  1  2   1.890     0.000   0.000   0.000     1.000   0.000   0.000     0.000   0.000   1.000
  1  1  3   1.890     0.000   0.000   0.000     1.000   0.000   0.000     0.000   0.000   1.000
  1  1  1   1.890    -0.500  -0.500  -0.500     1.000   0.000   0.000     0.000   0.000   1.000
  1  1  2   1.890    -0.500  -0.500  -0.500     1.000   0.000   0.000     0.000   0.000   1.000
  1  1  3   1.890    -0.500  -0.500  -0.500     1.000   0.000   0.000     0.000   0.000   1.000
 
 Computing AMN (projections onto localized orbitals)
 Writing AMN to wannier90.amn
  Writing WANPROJ file

 MMN -> overlap matrix elements
 AMM -> projections of Bloch states onto localized states
 UMN -> unitary matrix transforming from Bloch states to Wannier states

 Parameters of MLWF datastructure
 num_band =           36
 num_wann =            7

 Computiation of AMN
 proj = Wannier90

 Transformation from AMN to UMN
 trafo = One-shot SVD method

------------------------ end of MLWF driver reached ----------------------------------------------------



 total charge

# of ion       s       p       d       tot
------------------------------------------
    1        0.040   5.976   0.000   6.016
    2        1.588   3.580   0.000   5.167
--------------------------------------------------
tot          1.628   9.556   0.000  11.184
 
    CHARGE:  cpu time      0.0274: real time      0.0276
    FORLOC:  cpu time      0.0004: real time      0.0005
    FORNL :  cpu time      0.0128: real time      0.0129
    STRESS:  cpu time      0.6277: real time      0.6333
    FORCOR:  cpu time      0.0065: real time      0.0066
    FORHAR:  cpu time      0.0013: real time      0.0013
    MIXING:  cpu time      0.0004: real time      0.0004
    OFIELD:  cpu time      0.0000: real time      0.0000

  FORCE on cell =-STRESS in cart. coord.  units (eV):
  Direction    XX          YY          ZZ          XY          YZ          ZX
  --------------------------------------------------------------------------------------
  Alpha Z    22.36081    22.36081    22.36081
  Ewald    -234.37994  -234.37994  -234.37994     0.00000     0.00000    -0.00000
  Hartree    97.06019    97.06019    97.06019     0.00000     0.00000     0.00000
  E(xc)     -64.34097   -64.34097   -64.34097     0.00001     0.00001     0.00001
  Local     -68.71449   -68.71449   -68.71449    -0.00004    -0.00004    -0.00004
  n-local    59.79183    60.06826    58.80261     1.05168    -0.93937     0.59285
  augment    22.53520    22.53520    22.53520     0.00002     0.00002     0.00002
  Kinetic   166.82173   167.15834   163.80409     2.79920    -2.38033     1.54951
  Fock        0.00000     0.00000     0.00000     0.00000     0.00000     0.00000
  -------------------------------------------------------------------------------------
  Total       0.00309     0.00309     0.00309    -0.00000     0.00000     0.00000
  in kB       0.10733     0.10733     0.10733    -0.00000     0.00000     0.00000
  external pressure =        0.11 kB  Pullay stress =        0.00 kB


 VOLUME and BASIS-vectors are now :
 -----------------------------------------------------------------------------
  energy-cutoff  :      550.00
  volume of cell :       46.16
      direct lattice vectors                 reciprocal lattice vectors
     0.000000000  2.847183628  2.847183628    -0.175612137  0.175612137  0.175612137
     2.847183628  0.000000000  2.847183628     0.175612137 -0.175612137  0.175612137
     2.847183628  2.847183628  0.000000000     0.175612137  0.175612137 -0.175612137

  length of vectors
     4.026525701  4.026525701  4.026525701     0.304169143  0.304169143  0.304169143


 FORCES acting on ions
    electron-ion (+dipol)            ewald-force                    non-local-force                 convergence-correction
 -----------------------------------------------------------------------------------------------
   0.270E-14 0.112E-13 0.435E-14   -.194E-14 -.140E-14 0.389E-15   0.812E-27 0.812E-27 0.554E-27   0.165E-13 0.440E-14 0.165E-13
   0.221E-12 -.818E-12 -.681E-13   0.128E-14 0.244E-14 -.783E-15   -.360E-27 0.448E-27 0.590E-27   0.549E-14 0.896E-14 0.380E-14
 -----------------------------------------------------------------------------------------------
   0.224E-12 -.807E-12 -.638E-13   -.658E-15 0.104E-14 -.395E-15   0.452E-27 0.126E-26 0.114E-26   0.220E-13 0.134E-13 0.203E-13
 
 
 POSITION                                       TOTAL-FORCE (eV/Angst)
 -----------------------------------------------------------------------------------
      0.00000      0.00000      0.00000        -0.000000     -0.000000     -0.000000
      2.84718      2.84718      2.84718         0.000000      0.000000      0.000000
 -----------------------------------------------------------------------------------
    total drift:                                0.000000     -0.000000     -0.000000


--------------------------------------------------------------------------------------------------------



  FREE ENERGIE OF THE ION-ELECTRON SYSTEM (eV)
  ---------------------------------------------------
  free  energy   TOTEN  =        -6.77804279 eV

  energy  without entropy=       -6.77804279  energy(sigma->0) =       -6.77804279
 


--------------------------------------------------------------------------------------------------------


    POTLOK:  cpu time      0.0087: real time      0.0097


--------------------------------------------------------------------------------------------------------


 writing wavefunctions
     LOOP+:  cpu time    256.7054: real time    336.1313
    4ORBIT:  cpu time      0.0000: real time      0.0000



 total charge

# of ion       s       p       d       tot
------------------------------------------
    1        0.040   5.976   0.000   6.016
    2        1.588   3.580   0.000   5.167
--------------------------------------------------
tot          1.628   9.556   0.000  11.184
 

 total amount of memory used by VASP MPI-rank0    63029. kBytes
=======================================================================

   base      :      30000. kBytes
   nonl-proj :      21240. kBytes
   fftplans  :        962. kBytes
   grid      :       2734. kBytes
   one-center:          6. kBytes
   wavefun   :       8087. kBytes
 
  
  
 General timing and accounting informations for this job:
 ========================================================
  
                  Total CPU time used (sec):      260.006
                            User time (sec):      129.770
                          System time (sec):      130.236
                         Elapsed time (sec):      341.721
  
                   Maximum memory used (kb):     2016068.
                   Average memory used (kb):          N/A
  
                          Minor page faults:        95664
                          Major page faults:          203
                 Voluntary context switches:      1830355
