Generated by VASPKIT code               
   1.00000000000000     
    -0.0000000000000000    2.8471836281121172    2.8471836281121172
     2.8471836281121172    0.0000000000000000    2.8471836281121172
     2.8471836281121172    2.8471836281121172    0.0000000000000000
  Na_pv/6a2f546d  Cl/9f1b6e6ed42
               1               1
Direct
  0.0000000000000000  0.0000000000000000 -0.0000000000000000
  0.5000000000000000  0.5000000000000000  0.5000000000000000
 
  0.00000000E+00  0.00000000E+00  0.00000000E+00
  0.00000000E+00  0.00000000E+00  0.00000000E+00
