   2    2    1    1
  1.1401709e+01   2.5263585e-10   2.5263585e-10   2.5263585e-10   5.0000000e-16
            1.000000e-04
  CAR
 DOS and projected DOS file by LOBSTER. Energy is shifted such that the Fermi level lies at 0 eV. 
     20.03578615      -0.01433917   401      10.01072349       1.00000000
-10.02506   0.00000   3.15890
 -9.97494   0.26689   3.17228
 -9.92481   0.26382   3.18550
 -9.87469   0.26023   3.19855
 -9.82456   0.25473   3.21131
 -9.77444   0.24769   3.22373
 -9.72431   0.24213   3.23587
 -9.67419   0.25590   3.24869
 -9.62406   0.28959   3.26321
 -9.57393   0.30158   3.27833
 -9.52381   0.33718   3.29523
 -9.47368   0.36032   3.31329
 -9.42356   0.36365   3.33152
 -9.37343   0.37204   3.35017
 -9.32331   0.38846   3.36964
 -9.27318   0.40969   3.39017
 -9.22306   0.43227   3.41184
 -9.17293   0.44514   3.43415
 -9.12281   0.46263   3.45734
 -9.07268   0.48574   3.48169
 -9.02256   0.51579   3.50754
 -8.97243   0.55917   3.53557
 -8.92231   0.54062   3.56267
 -8.87218   0.53621   3.58955
 -8.82206   0.53656   3.61644
 -8.77193   0.53660   3.64334
 -8.72180   0.53645   3.67023
 -8.67168   0.53266   3.69693
 -8.62155   0.52107   3.72305
 -8.57143   0.51332   3.74878
 -8.52130   0.50856   3.77427
 -8.47118   0.50407   3.79954
 -8.42105   0.50256   3.82473
 -8.37093   0.50332   3.84996
 -8.32080   0.50569   3.87531
 -8.27068   0.51267   3.90100
 -8.22055   0.52188   3.92716
 -8.17043   0.52187   3.95332
 -8.12030   0.51966   3.97937
 -8.07018   0.51731   4.00530
 -8.02005   0.52043   4.03139
 -7.96992   0.52469   4.05769
 -7.91980   0.52837   4.08417
 -7.86967   0.53167   4.11082
 -7.81955   0.54047   4.13791
 -7.76942   0.53931   4.16495
 -7.71930   0.54119   4.19207
 -7.66917   0.55181   4.21973
 -7.61905   0.55057   4.24733
 -7.56892   0.56095   4.27545
 -7.51880   0.56084   4.30356
 -7.46867   0.56926   4.33210
 -7.41855   0.57898   4.36112
 -7.36842   0.57785   4.39008
 -7.31830   0.58108   4.41921
 -7.26817   0.58588   4.44858
 -7.21805   0.58930   4.47812
 -7.16792   0.60490   4.50844
 -7.11779   0.61934   4.53948
 -7.06767   0.62541   4.57083
 -7.01754   0.64106   4.60296
 -6.96742   0.64106   4.63510
 -6.91729   0.63978   4.66717
 -6.86717   0.65257   4.69988
 -6.81704   0.66977   4.73345
 -6.76692   0.68755   4.76791
 -6.71679   0.72217   4.80411
 -6.66667   0.74548   4.84148
 -6.61654   0.77512   4.88033
 -6.56642   0.81117   4.92099
 -6.51629   0.80252   4.96122
 -6.46617   0.79930   5.00128
 -6.41604   0.80361   5.04157
 -6.36591   0.79778   5.08155
 -6.31579   0.79239   5.12127
 -6.26566   0.79018   5.16088
 -6.21554   0.78786   5.20037
 -6.16541   0.78460   5.23970
 -6.11529   0.78100   5.27885
 -6.06516   0.77706   5.31780
 -6.01504   0.77449   5.35662
 -5.96491   0.77103   5.39527
 -5.91479   0.76727   5.43373
 -5.86466   0.76371   5.47201
 -5.81454   0.76035   5.51012
 -5.76441   0.75740   5.54809
 -5.71429   0.75568   5.58597
 -5.66416   0.75435   5.62378
 -5.61404   0.75341   5.66154
 -5.56391   0.75127   5.69920
 -5.51378   0.75087   5.73684
 -5.46366   0.74919   5.77439
 -5.41353   0.74541   5.81176
 -5.36341   0.73958   5.84883
 -5.31328   0.73407   5.88562
 -5.26316   0.72891   5.92216
 -5.21303   0.72489   5.95850
 -5.16291   0.72230   5.99470
 -5.11278   0.72008   6.03080
 -5.06266   0.71957   6.06686
 -5.01253   0.71934   6.10292
 -4.96241   0.71976   6.13900
 -4.91228   0.72002   6.17509
 -4.86216   0.71801   6.21108
 -4.81203   0.71426   6.24688
 -4.76190   0.71079   6.28251
 -4.71178   0.70796   6.31800
 -4.66165   0.70486   6.35333
 -4.61153   0.70102   6.38847
 -4.56140   0.69679   6.42340
 -4.51128   0.69187   6.45808
 -4.46115   0.68767   6.49255
 -4.41103   0.68489   6.52688
 -4.36090   0.68343   6.56113
 -4.31078   0.68254   6.59535
 -4.26065   0.68097   6.62948
 -4.21053   0.67965   6.66355
 -4.16040   0.67876   6.69757
 -4.11028   0.67684   6.73150
 -4.06015   0.67439   6.76530
 -4.01003   0.67251   6.79901
 -3.95990   0.67068   6.83263
 -3.90977   0.66792   6.86611
 -3.85965   0.66431   6.89941
 -3.80952   0.66097   6.93254
 -3.75940   0.65730   6.96549
 -3.70927   0.65478   6.99831
 -3.65915   0.65294   7.03104
 -3.60902   0.65147   7.06369
 -3.55890   0.65057   7.09630
 -3.50877   0.64650   7.12871
 -3.45865   0.64122   7.16085
 -3.40852   0.63604   7.19273
 -3.35840   0.63136   7.22438
 -3.30827   0.63561   7.25624
 -3.25815   0.64097   7.28837
 -3.20802   0.63348   7.32012
 -3.15789   0.62141   7.35127
 -3.10777   0.56739   7.37971
 -3.05764   0.52424   7.40599
 -3.00752   0.49564   7.43083
 -2.95739   0.47496   7.45464
 -2.90727   0.45697   7.47754
 -2.85714   0.43687   7.49944
 -2.80702   0.41908   7.52045
 -2.75689   0.40601   7.54080
 -2.70677   0.39334   7.56052
 -2.65664   0.38005   7.57957
 -2.60652   0.36698   7.59796
 -2.55639   0.35488   7.61575
 -2.50627   0.34432   7.63301
 -2.45614   0.33448   7.64978
 -2.40602   0.32460   7.66605
 -2.35589   0.31435   7.68180
 -2.30576   0.30412   7.69705
 -2.25564   0.29436   7.71180
 -2.20551   0.28562   7.72612
 -2.15539   0.27755   7.74003
 -2.10526   0.26956   7.75354
 -2.05514   0.26110   7.76663
 -2.00501   0.25267   7.77930
 -1.95489   0.24548   7.79160
 -1.90476   0.23729   7.80349
 -1.85464   0.22939   7.81499
 -1.80451   0.22208   7.82612
 -1.75439   0.21498   7.83690
 -1.70426   0.20781   7.84732
 -1.65414   0.20066   7.85738
 -1.60401   0.19395   7.86710
 -1.55388   0.18751   7.87650
 -1.50376   0.18100   7.88557
 -1.45363   0.17431   7.89431
 -1.40351   0.16784   7.90272
 -1.35338   0.16185   7.91083
 -1.30326   0.15630   7.91867
 -1.25313   0.15048   7.92621
 -1.20301   0.14347   7.93340
 -1.15288   0.13691   7.94026
 -1.10276   0.12977   7.94677
 -1.05263   0.12293   7.95293
 -1.00251   0.11656   7.95877
 -0.95238   0.11030   7.96430
 -0.90226   0.10404   7.96952
 -0.85213   0.10127   7.97459
 -0.80201   0.09417   7.97931
 -0.75188   0.08561   7.98360
 -0.70175   0.07792   7.98751
 -0.65163   0.07249   7.99114
 -0.60150   0.06676   7.99449
 -0.55138   0.05513   7.99725
 -0.50125   0.04408   7.99946
 -0.45113   0.03955   8.00144
 -0.40100   0.01823   8.00236
 -0.35088   0.00157   8.00244
 -0.30075   0.00000   8.00244
 -0.25063   0.00000   8.00244
 -0.20050   0.00000   8.00244
 -0.15038   0.00000   8.00244
 -0.10025   0.00000   8.00244
 -0.05013   0.00000   8.00244
  0.00000   0.00000   8.00244
  0.05013   0.00000   8.00244
  0.10025   0.00000   8.00244
  0.15038   0.00000   8.00244
  0.20050   0.00000   8.00244
  0.25063   0.00000   8.00244
  0.30075   0.00000   8.00244
  0.35088   0.00000   8.00244
  0.40100   0.00000   8.00244
  0.45113   0.00000   8.00244
  0.50125   0.00000   8.00244
  0.55138   0.00000   8.00244
  0.60150   0.00000   8.00244
  0.65163   0.00000   8.00244
  0.70175   0.00000   8.00244
  0.75188   0.00000   8.00244
  0.80201   0.00000   8.00244
  0.85213   0.00000   8.00244
  0.90226   0.00000   8.00244
  0.95238   0.00000   8.00244
  1.00251   0.00000   8.00244
  1.05263   0.00000   8.00244
  1.10276   0.00000   8.00244
  1.15288   0.00000   8.00244
  1.20301   0.00000   8.00244
  1.25313   0.00000   8.00244
  1.30326   0.00000   8.00244
  1.35338   0.00000   8.00244
  1.40351   0.00000   8.00244
  1.45363   0.00000   8.00244
  1.50376   0.00000   8.00244
  1.55388   0.00000   8.00244
  1.60401   0.00000   8.00244
  1.65414   0.00000   8.00244
  1.70426   0.00000   8.00244
  1.75439   0.00000   8.00244
  1.80451   0.00000   8.00244
  1.85464   0.00000   8.00244
  1.90476   0.00000   8.00244
  1.95489   0.00000   8.00244
  2.00501   0.00000   8.00244
  2.05514   0.00000   8.00244
  2.10526   0.00000   8.00244
  2.15539   0.00000   8.00244
  2.20551   0.00000   8.00244
  2.25564   0.00000   8.00244
  2.30576   0.00000   8.00244
  2.35589   0.00000   8.00244
  2.40602   0.00000   8.00244
  2.45614   0.00000   8.00244
  2.50627   0.00000   8.00244
  2.55639   0.00000   8.00244
  2.60652   0.00000   8.00244
  2.65664   0.00000   8.00244
  2.70677   0.00000   8.00244
  2.75689   0.00000   8.00244
  2.80702   0.00000   8.00244
  2.85714   0.00000   8.00244
  2.90727   0.00000   8.00244
  2.95739   0.00000   8.00244
  3.00752   0.00000   8.00244
  3.05764   0.00000   8.00244
  3.10777   0.00000   8.00244
  3.15789   0.00000   8.00244
  3.20802   0.00000   8.00244
  3.25815   0.00000   8.00244
  3.30827   0.00000   8.00244
  3.35840   0.00000   8.00244
  3.40852   0.00000   8.00244
  3.45865   0.00000   8.00244
  3.50877   0.00000   8.00244
  3.55890   0.00000   8.00244
  3.60902   0.00000   8.00244
  3.65915   0.00000   8.00244
  3.70927   0.00000   8.00244
  3.75940   0.00000   8.00244
  3.80952   0.00316   8.00260
  3.85965   0.02041   8.00362
  3.90977   0.04592   8.00592
  3.95990   0.06841   8.00935
  4.01003   0.08108   8.01341
  4.06015   0.09195   8.01802
  4.11028   0.10126   8.02310
  4.16040   0.11195   8.02871
  4.21053   0.12462   8.03496
  4.26065   0.13835   8.04189
  4.31078   0.15204   8.04951
  4.36090   0.16580   8.05782
  4.41103   0.18021   8.06686
  4.46115   0.19245   8.07650
  4.51128   0.20516   8.08679
  4.56140   0.21876   8.09775
  4.61153   0.23417   8.10949
  4.66165   0.25099   8.12207
  4.71178   0.26209   8.13521
  4.76190   0.27234   8.14886
  4.81203   0.28403   8.16310
  4.86216   0.29566   8.17792
  4.91228   0.30663   8.19329
  4.96241   0.31793   8.20922
  5.01253   0.32966   8.22575
  5.06266   0.34222   8.24290
  5.11278   0.35744   8.26082
  5.16291   0.37180   8.27946
  5.21303   0.38802   8.29891
  5.26316   0.41460   8.31969
  5.31328   0.43690   8.34159
  5.36341   0.43973   8.36363
  5.41353   0.44559   8.38596
  5.46366   0.45655   8.40885
  5.51378   0.46299   8.43206
  5.56391   0.46860   8.45554
  5.61404   0.47198   8.47920
  5.66416   0.47739   8.50313
  5.71429   0.48407   8.52740
  5.76441   0.49117   8.55202
  5.81454   0.49878   8.57702
  5.86466   0.50673   8.60242
  5.91479   0.51481   8.62822
  5.96491   0.52174   8.65438
  6.01504   0.52817   8.68085
  6.06516   0.53576   8.70771
  6.11529   0.54379   8.73496
  6.16541   0.55196   8.76263
  6.21554   0.56029   8.79071
  6.26566   0.56879   8.81923
  6.31579   0.57748   8.84817
  6.36591   0.58603   8.87755
  6.41604   0.59463   8.90735
  6.46617   0.60369   8.93761
  6.51629   0.61361   8.96837
  6.56642   0.62222   8.99956
  6.61654   0.63015   9.03115
  6.66667   0.63765   9.06311
  6.71679   0.64612   9.09550
  6.76692   0.65502   9.12833
  6.81704   0.66426   9.16162
  6.86717   0.67460   9.19544
  6.91729   0.68591   9.22982
  6.96742   0.69723   9.26477
  7.01754   0.70867   9.30029
  7.06767   0.72011   9.33639
  7.11779   0.73158   9.37306
  7.16792   0.74347   9.41032
  7.21805   0.75617   9.44823
  7.26817   0.77140   9.48689
  7.31830   0.78822   9.52640
  7.36842   0.80608   9.56681
  7.41855   0.82591   9.60821
  7.46867   0.84862   9.65075
  7.51880   0.87557   9.69463
  7.56892   0.90802   9.74015
  7.61905   0.95115   9.78783
  7.66917   1.00508   9.83821
  7.71930   1.07591   9.89214
  7.76942   1.16753   9.95066
  7.81955   1.19856  10.01074
  7.86967   1.18998  10.07038
  7.91980   1.22388  10.13173
  7.96992   1.17095  10.19043
  8.02005   1.11151  10.24614
  8.07018   1.00078  10.29631
  8.12030   0.73910  10.33335
  8.17043   0.72514  10.36970
  8.22055   0.80126  10.40986
  8.27068   0.96401  10.45819
  8.32080   1.06081  10.51136
  8.37093   1.05714  10.56435
  8.42105   1.01261  10.61511
  8.47118   0.90285  10.66036
  8.52130   0.90235  10.70559
  8.57143   0.90637  10.75102
  8.62155   0.91633  10.79696
  8.67168   0.94776  10.84446
  8.72180   0.96610  10.89289
  8.77193   0.94046  10.94003
  8.82206   0.90093  10.98519
  8.87218   0.88810  11.02970
  8.92231   0.86678  11.07315
  8.97243   0.83910  11.11521
  9.02256   0.84929  11.15778
  9.07268   0.86913  11.20135
  9.12281   0.85842  11.24438
  9.17293   0.85180  11.28707
  9.22306   0.83929  11.32914
  9.27318   0.83858  11.37118
  9.32331   0.85231  11.41390
  9.37343   0.86502  11.45726
  9.42356   0.87423  11.50108
  9.47368   0.87193  11.54479
  9.52381   0.87245  11.58852
  9.57393   0.86741  11.63200
  9.62406   0.87446  11.67583
  9.67419   0.85870  11.71887
  9.72431   0.82287  11.76012
  9.77444   0.80444  11.80044
  9.82456   0.78919  11.84000
  9.87469   0.77889  11.87904
  9.92481   0.77150  11.91772
  9.97494   0.76282  11.95595
 10.02506   0.75658  11.99388
     10.02506266     -10.02506266   401      10.01072349       1.00000000; Z=  6; 2s 2p_y 2p_z 2p_x 
-10.02506   0.00000   0.00000   0.00000   0.00000
 -9.97494   0.04140   0.03068   0.03068   0.03068
 -9.92481   0.04072   0.03040   0.03040   0.03040
 -9.87469   0.03996   0.03005   0.03005   0.03005
 -9.82456   0.03890   0.02949   0.02949   0.02949
 -9.77444   0.03757   0.02876   0.02876   0.02876
 -9.72431   0.03636   0.02824   0.02824   0.02824
 -9.67419   0.03591   0.03068   0.03068   0.03068
 -9.62406   0.03598   0.03627   0.03627   0.03627
 -9.57393   0.03583   0.03832   0.03832   0.03832
 -9.52381   0.03618   0.04414   0.04414   0.04414
 -9.47368   0.03631   0.04795   0.04795   0.04795
 -9.42356   0.03626   0.04852   0.04852   0.04852
 -9.37343   0.03602   0.05000   0.05000   0.05000
 -9.32331   0.03599   0.05275   0.05275   0.05275
 -9.27318   0.03602   0.05628   0.05628   0.05628
 -9.22306   0.03604   0.06003   0.06003   0.06003
 -9.17293   0.03567   0.06230   0.06230   0.06230
 -9.12281   0.03549   0.06528   0.06528   0.06528
 -9.07268   0.03566   0.06907   0.06907   0.06907
 -9.02256   0.03600   0.07397   0.07397   0.07397
 -8.97243   0.03680   0.08093   0.08093   0.08093
 -8.92231   0.03663   0.07789   0.07789   0.07789
 -8.87218   0.03674   0.07712   0.07712   0.07712
 -8.82206   0.03694   0.07711   0.07711   0.07711
 -8.77193   0.03707   0.07708   0.07708   0.07708
 -8.72180   0.03706   0.07705   0.07705   0.07705
 -8.67168   0.03690   0.07648   0.07648   0.07648
 -8.62155   0.03662   0.07464   0.07464   0.07464
 -8.57143   0.03641   0.07342   0.07342   0.07342
 -8.52130   0.03602   0.07275   0.07275   0.07275
 -8.47118   0.03535   0.07223   0.07223   0.07223
 -8.42105   0.03491   0.07212   0.07212   0.07212
 -8.37093   0.03470   0.07232   0.07232   0.07232
 -8.32080   0.03462   0.07274   0.07274   0.07274
 -8.27068   0.03467   0.07389   0.07389   0.07389
 -8.22055   0.03475   0.07540   0.07540   0.07540
 -8.17043   0.03469   0.07541   0.07541   0.07541
 -8.12030   0.03448   0.07512   0.07512   0.07512
 -8.07018   0.03419   0.07482   0.07482   0.07482
 -8.02005   0.03400   0.07541   0.07541   0.07541
 -7.96992   0.03385   0.07617   0.07617   0.07617
 -7.91980   0.03367   0.07684   0.07684   0.07684
 -7.86967   0.03337   0.07749   0.07749   0.07749
 -7.81955   0.03300   0.07908   0.07908   0.07908
 -7.76942   0.03246   0.07907   0.07907   0.07907
 -7.71930   0.03201   0.07953   0.07953   0.07953
 -7.66917   0.03177   0.08138   0.08138   0.08138
 -7.61905   0.03153   0.08125   0.08125   0.08125
 -7.56892   0.03147   0.08300   0.08300   0.08300
 -7.51880   0.03126   0.08305   0.08305   0.08305
 -7.46867   0.03110   0.08451   0.08451   0.08451
 -7.41855   0.03091   0.08619   0.08619   0.08619
 -7.36842   0.03065   0.08609   0.08609   0.08609
 -7.31830   0.03043   0.08670   0.08670   0.08670
 -7.26817   0.03016   0.08759   0.08759   0.08759
 -7.21805   0.02984   0.08827   0.08827   0.08827
 -7.16792   0.02963   0.09094   0.09094   0.09094
 -7.11779   0.02940   0.09342   0.09342   0.09342
 -7.06767   0.02911   0.09453   0.09453   0.09453
 -7.01754   0.02870   0.09728   0.09728   0.09728
 -6.96742   0.02813   0.09747   0.09747   0.09747
 -6.91729   0.02771   0.09740   0.09740   0.09740
 -6.86717   0.02745   0.09961   0.09961   0.09961
 -6.81704   0.02724   0.10255   0.10255   0.10255
 -6.76692   0.02702   0.10558   0.10558   0.10558
 -6.71679   0.02678   0.11144   0.11144   0.11144
 -6.66667   0.02647   0.11542   0.11542   0.11542
 -6.61654   0.02615   0.12047   0.12047   0.12047
 -6.56642   0.02581   0.12659   0.12659   0.12659
 -6.51629   0.02550   0.12525   0.12525   0.12525
 -6.46617   0.02520   0.12482   0.12482   0.12482
 -6.41604   0.02489   0.12564   0.12564   0.12564
 -6.36591   0.02460   0.12476   0.12476   0.12476
 -6.31579   0.02426   0.12398   0.12398   0.12398
 -6.26566   0.02392   0.12372   0.12372   0.12372
 -6.21554   0.02342   0.12350   0.12350   0.12350
 -6.16541   0.02289   0.12314   0.12314   0.12314
 -6.11529   0.02244   0.12269   0.12269   0.12269
 -6.06516   0.02209   0.12215   0.12215   0.12215
 -6.01504   0.02180   0.12181   0.12181   0.12181
 -5.96491   0.02153   0.12133   0.12133   0.12133
 -5.91479   0.02123   0.12080   0.12080   0.12080
 -5.86466   0.02092   0.12031   0.12031   0.12031
 -5.81454   0.02060   0.11986   0.11986   0.11986
 -5.76441   0.02032   0.11946   0.11946   0.11946
 -5.71429   0.02006   0.11926   0.11926   0.11926
 -5.66416   0.01981   0.11912   0.11912   0.11912
 -5.61404   0.01958   0.11904   0.11904   0.11904
 -5.56391   0.01929   0.11878   0.11878   0.11878
 -5.51378   0.01898   0.11882   0.11882   0.11882
 -5.46366   0.01866   0.11864   0.11864   0.11864
 -5.41353   0.01829   0.11814   0.11814   0.11814
 -5.36341   0.01777   0.11734   0.11734   0.11734
 -5.31328   0.01734   0.11657   0.11657   0.11657
 -5.26316   0.01697   0.11583   0.11583   0.11583
 -5.21303   0.01664   0.11527   0.11527   0.11527
 -5.16291   0.01636   0.11493   0.11493   0.11493
 -5.11278   0.01609   0.11465   0.11465   0.11465
 -5.06266   0.01583   0.11465   0.11465   0.11465
 -5.01253   0.01556   0.11470   0.11470   0.11470
 -4.96241   0.01531   0.11486   0.11486   0.11486
 -4.91228   0.01508   0.11498   0.11498   0.11498
 -4.86216   0.01483   0.11473   0.11473   0.11473
 -4.81203   0.01455   0.11419   0.11419   0.11419
 -4.76190   0.01424   0.11372   0.11372   0.11372
 -4.71178   0.01390   0.11336   0.11336   0.11336
 -4.66165   0.01357   0.11295   0.11295   0.11295
 -4.61153   0.01324   0.11242   0.11242   0.11242
 -4.56140   0.01291   0.11183   0.11183   0.11183
 -4.51128   0.01252   0.11114   0.11114   0.11114
 -4.46115   0.01214   0.11056   0.11056   0.11056
 -4.41103   0.01183   0.11020   0.11020   0.11020
 -4.36090   0.01157   0.11005   0.11005   0.11005
 -4.31078   0.01134   0.10998   0.10998   0.10998
 -4.26065   0.01112   0.10979   0.10979   0.10979
 -4.21053   0.01093   0.10963   0.10963   0.10963
 -4.16040   0.01074   0.10954   0.10954   0.10954
 -4.11028   0.01057   0.10929   0.10929   0.10929
 -4.06015   0.01038   0.10894   0.10894   0.10894
 -4.01003   0.01019   0.10869   0.10869   0.10869
 -3.95990   0.00999   0.10845   0.10845   0.10845
 -3.90977   0.00978   0.10806   0.10806   0.10806
 -3.85965   0.00957   0.10753   0.10753   0.10753
 -3.80952   0.00935   0.10704   0.10704   0.10704
 -3.75940   0.00908   0.10652   0.10652   0.10652
 -3.70927   0.00881   0.10619   0.10619   0.10619
 -3.65915   0.00853   0.10598   0.10598   0.10598
 -3.60902   0.00820   0.10584   0.10584   0.10584
 -3.55890   0.00791   0.10579   0.10579   0.10579
 -3.50877   0.00764   0.10520   0.10520   0.10520
 -3.45865   0.00741   0.10440   0.10440   0.10440
 -3.40852   0.00720   0.10361   0.10361   0.10361
 -3.35840   0.00700   0.10289   0.10289   0.10289
 -3.30827   0.00679   0.10380   0.10359   0.10362
 -3.25815   0.00657   0.10493   0.10439   0.10458
 -3.20802   0.00636   0.10361   0.10320   0.10356
 -3.15789   0.00617   0.10111   0.10160   0.10184
 -3.10777   0.00597   0.09208   0.09289   0.09275
 -3.05764   0.00579   0.08511   0.08573   0.08549
 -3.00752   0.00560   0.08050   0.08092   0.08079
 -2.95739   0.00540   0.07724   0.07746   0.07737
 -2.90727   0.00520   0.07439   0.07449   0.07440
 -2.85714   0.00499   0.07115   0.07116   0.07113
 -2.80702   0.00480   0.06827   0.06822   0.06825
 -2.75689   0.00458   0.06623   0.06607   0.06612
 -2.70677   0.00440   0.06422   0.06399   0.06406
 -2.65664   0.00424   0.06205   0.06184   0.06190
 -2.60652   0.00409   0.05987   0.05976   0.05976
 -2.55639   0.00393   0.05789   0.05784   0.05778
 -2.50627   0.00378   0.05619   0.05616   0.05603
 -2.45614   0.00366   0.05460   0.05458   0.05440
 -2.40602   0.00355   0.05297   0.05300   0.05278
 -2.35589   0.00343   0.05127   0.05136   0.05111
 -2.30576   0.00331   0.04958   0.04972   0.04945
 -2.25564   0.00318   0.04799   0.04814   0.04787
 -2.20551   0.00303   0.04659   0.04672   0.04647
 -2.15539   0.00292   0.04529   0.04539   0.04518
 -2.10526   0.00282   0.04400   0.04406   0.04390
 -2.05514   0.00270   0.04262   0.04267   0.04256
 -2.00501   0.00256   0.04127   0.04127   0.04123
 -1.95489   0.00244   0.04013   0.04007   0.04010
 -1.90476   0.00229   0.03884   0.03872   0.03880
 -1.85464   0.00215   0.03759   0.03741   0.03755
 -1.80451   0.00204   0.03642   0.03620   0.03638
 -1.75439   0.00195   0.03528   0.03503   0.03524
 -1.70426   0.00187   0.03410   0.03387   0.03406
 -1.65414   0.00179   0.03293   0.03272   0.03289
 -1.60401   0.00170   0.03184   0.03163   0.03181
 -1.55388   0.00159   0.03081   0.03057   0.03079
 -1.50376   0.00148   0.02976   0.02951   0.02975
 -1.45363   0.00139   0.02867   0.02842   0.02868
 -1.40351   0.00131   0.02760   0.02737   0.02764
 -1.35338   0.00124   0.02661   0.02642   0.02665
 -1.30326   0.00117   0.02568   0.02556   0.02573
 -1.25313   0.00108   0.02473   0.02465   0.02478
 -1.20301   0.00097   0.02359   0.02352   0.02365
 -1.15288   0.00087   0.02254   0.02246   0.02259
 -1.10276   0.00078   0.02137   0.02131   0.02143
 -1.05263   0.00072   0.02024   0.02021   0.02030
 -1.00251   0.00066   0.01920   0.01918   0.01924
 -0.95238   0.00061   0.01818   0.01817   0.01820
 -0.90226   0.00055   0.01715   0.01717   0.01716
 -0.85213   0.00047   0.01672   0.01676   0.01669
 -0.80201   0.00040   0.01558   0.01562   0.01548
 -0.75188   0.00034   0.01418   0.01424   0.01404
 -0.70175   0.00030   0.01291   0.01299   0.01275
 -0.65163   0.00026   0.01203   0.01218   0.01179
 -0.60150   0.00020   0.01106   0.01133   0.01079
 -0.55138   0.00013   0.00906   0.00939   0.00898
 -0.50125   0.00010   0.00716   0.00745   0.00732
 -0.45113   0.00008   0.00625   0.00657   0.00687
 -0.40100   0.00003   0.00285   0.00293   0.00331
 -0.35088   0.00000   0.00025   0.00024   0.00029
 -0.30075   0.00000   0.00000   0.00000   0.00000
 -0.25063   0.00000   0.00000   0.00000   0.00000
 -0.20050   0.00000   0.00000   0.00000   0.00000
 -0.15038   0.00000   0.00000   0.00000   0.00000
 -0.10025   0.00000   0.00000   0.00000   0.00000
 -0.05013   0.00000   0.00000   0.00000   0.00000
  0.00000   0.00000   0.00000   0.00000   0.00000
  0.05013   0.00000   0.00000   0.00000   0.00000
  0.10025   0.00000   0.00000   0.00000   0.00000
  0.15038   0.00000   0.00000   0.00000   0.00000
  0.20050   0.00000   0.00000   0.00000   0.00000
  0.25063   0.00000   0.00000   0.00000   0.00000
  0.30075   0.00000   0.00000   0.00000   0.00000
  0.35088   0.00000   0.00000   0.00000   0.00000
  0.40100   0.00000   0.00000   0.00000   0.00000
  0.45113   0.00000   0.00000   0.00000   0.00000
  0.50125   0.00000   0.00000   0.00000   0.00000
  0.55138   0.00000   0.00000   0.00000   0.00000
  0.60150   0.00000   0.00000   0.00000   0.00000
  0.65163   0.00000   0.00000   0.00000   0.00000
  0.70175   0.00000   0.00000   0.00000   0.00000
  0.75188   0.00000   0.00000   0.00000   0.00000
  0.80201   0.00000   0.00000   0.00000   0.00000
  0.85213   0.00000   0.00000   0.00000   0.00000
  0.90226   0.00000   0.00000   0.00000   0.00000
  0.95238   0.00000   0.00000   0.00000   0.00000
  1.00251   0.00000   0.00000   0.00000   0.00000
  1.05263   0.00000   0.00000   0.00000   0.00000
  1.10276   0.00000   0.00000   0.00000   0.00000
  1.15288   0.00000   0.00000   0.00000   0.00000
  1.20301   0.00000   0.00000   0.00000   0.00000
  1.25313   0.00000   0.00000   0.00000   0.00000
  1.30326   0.00000   0.00000   0.00000   0.00000
  1.35338   0.00000   0.00000   0.00000   0.00000
  1.40351   0.00000   0.00000   0.00000   0.00000
  1.45363   0.00000   0.00000   0.00000   0.00000
  1.50376   0.00000   0.00000   0.00000   0.00000
  1.55388   0.00000   0.00000   0.00000   0.00000
  1.60401   0.00000   0.00000   0.00000   0.00000
  1.65414   0.00000   0.00000   0.00000   0.00000
  1.70426   0.00000   0.00000   0.00000   0.00000
  1.75439   0.00000   0.00000   0.00000   0.00000
  1.80451   0.00000   0.00000   0.00000   0.00000
  1.85464   0.00000   0.00000   0.00000   0.00000
  1.90476   0.00000   0.00000   0.00000   0.00000
  1.95489   0.00000   0.00000   0.00000   0.00000
  2.00501   0.00000   0.00000   0.00000   0.00000
  2.05514   0.00000   0.00000   0.00000   0.00000
  2.10526   0.00000   0.00000   0.00000   0.00000
  2.15539   0.00000   0.00000   0.00000   0.00000
  2.20551   0.00000   0.00000   0.00000   0.00000
  2.25564   0.00000   0.00000   0.00000   0.00000
  2.30576   0.00000   0.00000   0.00000   0.00000
  2.35589   0.00000   0.00000   0.00000   0.00000
  2.40602   0.00000   0.00000   0.00000   0.00000
  2.45614   0.00000   0.00000   0.00000   0.00000
  2.50627   0.00000   0.00000   0.00000   0.00000
  2.55639   0.00000   0.00000   0.00000   0.00000
  2.60652   0.00000   0.00000   0.00000   0.00000
  2.65664   0.00000   0.00000   0.00000   0.00000
  2.70677   0.00000   0.00000   0.00000   0.00000
  2.75689   0.00000   0.00000   0.00000   0.00000
  2.80702   0.00000   0.00000   0.00000   0.00000
  2.85714   0.00000   0.00000   0.00000   0.00000
  2.90727   0.00000   0.00000   0.00000   0.00000
  2.95739   0.00000   0.00000   0.00000   0.00000
  3.00752   0.00000   0.00000   0.00000   0.00000
  3.05764   0.00000   0.00000   0.00000   0.00000
  3.10777   0.00000   0.00000   0.00000   0.00000
  3.15789   0.00000   0.00000   0.00000   0.00000
  3.20802   0.00000   0.00000   0.00000   0.00000
  3.25815   0.00000   0.00000   0.00000   0.00000
  3.30827   0.00000   0.00000   0.00000   0.00000
  3.35840   0.00000   0.00000   0.00000   0.00000
  3.40852   0.00000   0.00000   0.00000   0.00000
  3.45865   0.00000   0.00000   0.00000   0.00000
  3.50877   0.00000   0.00000   0.00000   0.00000
  3.55890   0.00000   0.00000   0.00000   0.00000
  3.60902   0.00000   0.00000   0.00000   0.00000
  3.65915   0.00000   0.00000   0.00000   0.00000
  3.70927   0.00000   0.00000   0.00000   0.00000
  3.75940   0.00000   0.00000   0.00000   0.00000
  3.80952   0.00051   0.00036   0.00036   0.00036
  3.85965   0.00330   0.00230   0.00230   0.00230
  3.90977   0.00739   0.00519   0.00519   0.00519
  3.95990   0.01093   0.00776   0.00776   0.00776
  4.01003   0.01285   0.00923   0.00923   0.00923
  4.06015   0.01449   0.01049   0.01049   0.01049
  4.11028   0.01583   0.01160   0.01160   0.01160
  4.16040   0.01741   0.01286   0.01286   0.01286
  4.21053   0.01933   0.01433   0.01433   0.01433
  4.26065   0.02144   0.01591   0.01591   0.01591
  4.31078   0.02355   0.01749   0.01749   0.01749
  4.36090   0.02573   0.01906   0.01906   0.01906
  4.41103   0.02805   0.02069   0.02069   0.02069
  4.46115   0.02980   0.02214   0.02214   0.02214
  4.51128   0.03163   0.02365   0.02365   0.02365
  4.56140   0.03362   0.02525   0.02525   0.02525
  4.61153   0.03591   0.02706   0.02706   0.02706
  4.66165   0.03848   0.02901   0.02901   0.02901
  4.71178   0.03964   0.03047   0.03047   0.03047
  4.76190   0.04054   0.03188   0.03188   0.03188
  4.81203   0.04173   0.03343   0.03343   0.03343
  4.86216   0.04269   0.03505   0.03505   0.03505
  4.91228   0.04350   0.03661   0.03661   0.03661
  4.96241   0.04437   0.03820   0.03820   0.03820
  5.01253   0.04526   0.03986   0.03986   0.03986
  5.06266   0.04618   0.04164   0.04164   0.04164
  5.11278   0.04710   0.04387   0.04387   0.04387
  5.16291   0.04800   0.04597   0.04597   0.04597
  5.21303   0.04888   0.04836   0.04838   0.04839
  5.26316   0.04976   0.05241   0.05253   0.05260
  5.31328   0.05064   0.05583   0.05603   0.05595
  5.36341   0.05153   0.05612   0.05622   0.05600
  5.41353   0.05237   0.05680   0.05679   0.05683
  5.46366   0.05294   0.05841   0.05838   0.05855
  5.51378   0.05297   0.05946   0.05941   0.05965
  5.56391   0.05313   0.06035   0.06029   0.06053
  5.61404   0.05340   0.06087   0.06074   0.06098
  5.66416   0.05371   0.06170   0.06153   0.06175
  5.71429   0.05399   0.06273   0.06258   0.06274
  5.76441   0.05424   0.06383   0.06370   0.06381
  5.81454   0.05449   0.06502   0.06490   0.06497
  5.86466   0.05484   0.06623   0.06613   0.06616
  5.91479   0.05529   0.06743   0.06734   0.06735
  5.96491   0.05565   0.06847   0.06838   0.06837
  6.01504   0.05603   0.06942   0.06934   0.06929
  6.06516   0.05642   0.07057   0.07050   0.07040
  6.11529   0.05680   0.07177   0.07172   0.07161
  6.16541   0.05718   0.07299   0.07296   0.07286
  6.21554   0.05755   0.07424   0.07423   0.07413
  6.26566   0.05794   0.07552   0.07552   0.07542
  6.31579   0.05836   0.07681   0.07683   0.07673
  6.36591   0.05870   0.07812   0.07815   0.07805
  6.41604   0.05898   0.07945   0.07949   0.07939
  6.46617   0.05926   0.08083   0.08092   0.08083
  6.51629   0.05967   0.08232   0.08244   0.08238
  6.56642   0.05983   0.08368   0.08382   0.08378
  6.61654   0.05989   0.08498   0.08512   0.08510
  6.66667   0.05984   0.08624   0.08637   0.08637
  6.71679   0.05993   0.08762   0.08774   0.08777
  6.76692   0.06007   0.08906   0.08917   0.08921
  6.81704   0.06021   0.09055   0.09066   0.09071
  6.86717   0.06038   0.09222   0.09232   0.09238
  6.91729   0.06054   0.09408   0.09417   0.09417
  6.96742   0.06067   0.09595   0.09604   0.09596
  7.01754   0.06079   0.09783   0.09791   0.09780
  7.06767   0.06092   0.09971   0.09978   0.09964
  7.11779   0.06105   0.10160   0.10164   0.10149
  7.16792   0.06120   0.10356   0.10357   0.10340
  7.21805   0.06136   0.10564   0.10563   0.10545
  7.26817   0.06150   0.10816   0.10811   0.10794
  7.31830   0.06167   0.11095   0.11080   0.11069
  7.36842   0.06191   0.11388   0.11365   0.11360
  7.41855   0.06231   0.11706   0.11679   0.11680
  7.46867   0.06282   0.12067   0.12039   0.12044
  7.51880   0.06339   0.12495   0.12467   0.12477
  7.56892   0.06396   0.13015   0.12986   0.13003
  7.61905   0.06477   0.13709   0.13673   0.13699
  7.66917   0.06594   0.14569   0.14530   0.14561
  7.71930   0.06761   0.15692   0.15655   0.15688
  7.76942   0.06977   0.17143   0.17110   0.17146
  7.81955   0.07046   0.17635   0.17602   0.17645
  7.86967   0.07022   0.17496   0.17467   0.17514
  7.91980   0.07072   0.18033   0.18032   0.18057
  7.96992   0.06909   0.17187   0.17233   0.17219
  8.02005   0.06771   0.16218   0.16314   0.16272
  8.07018   0.06618   0.14406   0.14520   0.14496
  8.12030   0.05928   0.10327   0.10366   0.10335
  8.17043   0.05897   0.10130   0.10134   0.10096
  8.22055   0.06436   0.11219   0.11222   0.11187
  8.27068   0.07758   0.13484   0.13486   0.13472
  8.32080   0.08720   0.14773   0.14776   0.14771
  8.37093   0.09297   0.14520   0.14520   0.14520
  8.42105   0.09769   0.13620   0.13620   0.13620
  8.47118   0.09810   0.11778   0.11778   0.11778
  8.52130   0.10512   0.11535   0.11535   0.11535
  8.57143   0.10775   0.11514   0.11514   0.11514
  8.62155   0.10221   0.11865   0.11865   0.11865
  8.67168   0.10420   0.12323   0.12323   0.12323
  8.72180   0.10706   0.12533   0.12533   0.12533
  8.77193   0.10608   0.12138   0.12138   0.12138
  8.82206   0.10296   0.11583   0.11583   0.11583
  8.87218   0.10170   0.11412   0.11412   0.11412
  8.92231   0.09976   0.11121   0.11121   0.11121
  8.97243   0.09691   0.10754   0.10754   0.10754
  9.02256   0.09674   0.10930   0.10930   0.10930
  9.07268   0.09705   0.11251   0.11251   0.11251
  9.12281   0.09387   0.11178   0.11178   0.11178
  9.17293   0.09292   0.11099   0.11099   0.11099
  9.22306   0.09168   0.10932   0.10932   0.10932
  9.27318   0.09118   0.10937   0.10937   0.10937
  9.32331   0.09147   0.11156   0.11156   0.11156
  9.37343   0.09152   0.11366   0.11366   0.11366
  9.42356   0.09149   0.11521   0.11521   0.11521
  9.47368   0.09102   0.11498   0.11498   0.11498
  9.52381   0.09065   0.11519   0.11519   0.11519
  9.57393   0.09077   0.11431   0.11431   0.11431
  9.62406   0.09221   0.11501   0.11501   0.11501
  9.67419   0.09043   0.11297   0.11297   0.11297
  9.72431   0.08585   0.10853   0.10853   0.10853
  9.77444   0.08309   0.10638   0.10638   0.10638
  9.82456   0.08049   0.10470   0.10470   0.10470
  9.87469   0.07906   0.10346   0.10346   0.10346
  9.92481   0.07864   0.10237   0.10237   0.10237
  9.97494   0.07807   0.10111   0.10111   0.10111
 10.02506   0.07777   0.10017   0.10017   0.10017
     10.02506266     -10.02506266   401      10.01072349       1.00000000; Z=  6; 2s 2p_y 2p_z 2p_x 
-10.02506   0.00000   0.00000   0.00000   0.00000
 -9.97494   0.04140   0.03068   0.03068   0.03068
 -9.92481   0.04072   0.03040   0.03040   0.03040
 -9.87469   0.03996   0.03005   0.03005   0.03005
 -9.82456   0.03890   0.02949   0.02949   0.02949
 -9.77444   0.03757   0.02876   0.02876   0.02876
 -9.72431   0.03636   0.02824   0.02824   0.02824
 -9.67419   0.03591   0.03068   0.03068   0.03068
 -9.62406   0.03598   0.03627   0.03627   0.03627
 -9.57393   0.03583   0.03832   0.03832   0.03832
 -9.52381   0.03618   0.04414   0.04414   0.04414
 -9.47368   0.03631   0.04795   0.04795   0.04795
 -9.42356   0.03626   0.04852   0.04852   0.04852
 -9.37343   0.03602   0.05000   0.05000   0.05000
 -9.32331   0.03599   0.05275   0.05275   0.05275
 -9.27318   0.03602   0.05628   0.05628   0.05628
 -9.22306   0.03604   0.06003   0.06003   0.06003
 -9.17293   0.03567   0.06230   0.06230   0.06230
 -9.12281   0.03549   0.06528   0.06528   0.06528
 -9.07268   0.03566   0.06907   0.06907   0.06907
 -9.02256   0.03600   0.07397   0.07397   0.07397
 -8.97243   0.03680   0.08093   0.08093   0.08093
 -8.92231   0.03663   0.07789   0.07789   0.07789
 -8.87218   0.03674   0.07712   0.07712   0.07712
 -8.82206   0.03694   0.07711   0.07711   0.07711
 -8.77193   0.03707   0.07708   0.07708   0.07708
 -8.72180   0.03706   0.07705   0.07705   0.07705
 -8.67168   0.03690   0.07648   0.07648   0.07648
 -8.62155   0.03662   0.07464   0.07464   0.07464
 -8.57143   0.03641   0.07342   0.07342   0.07342
 -8.52130   0.03602   0.07275   0.07275   0.07275
 -8.47118   0.03535   0.07223   0.07223   0.07223
 -8.42105   0.03491   0.07212   0.07212   0.07212
 -8.37093   0.03470   0.07232   0.07232   0.07232
 -8.32080   0.03462   0.07274   0.07274   0.07274
 -8.27068   0.03467   0.07389   0.07389   0.07389
 -8.22055   0.03475   0.07540   0.07540   0.07540
 -8.17043   0.03469   0.07541   0.07541   0.07541
 -8.12030   0.03448   0.07512   0.07512   0.07512
 -8.07018   0.03419   0.07482   0.07482   0.07482
 -8.02005   0.03400   0.07541   0.07541   0.07541
 -7.96992   0.03385   0.07617   0.07617   0.07617
 -7.91980   0.03367   0.07684   0.07684   0.07684
 -7.86967   0.03337   0.07749   0.07749   0.07749
 -7.81955   0.03300   0.07908   0.07908   0.07908
 -7.76942   0.03246   0.07907   0.07907   0.07907
 -7.71930   0.03201   0.07953   0.07953   0.07953
 -7.66917   0.03177   0.08138   0.08138   0.08138
 -7.61905   0.03153   0.08125   0.08125   0.08125
 -7.56892   0.03147   0.08300   0.08300   0.08300
 -7.51880   0.03126   0.08305   0.08305   0.08305
 -7.46867   0.03110   0.08451   0.08451   0.08451
 -7.41855   0.03091   0.08619   0.08619   0.08619
 -7.36842   0.03065   0.08609   0.08609   0.08609
 -7.31830   0.03043   0.08670   0.08670   0.08670
 -7.26817   0.03016   0.08759   0.08759   0.08759
 -7.21805   0.02984   0.08827   0.08827   0.08827
 -7.16792   0.02963   0.09094   0.09094   0.09094
 -7.11779   0.02940   0.09342   0.09342   0.09342
 -7.06767   0.02911   0.09453   0.09453   0.09453
 -7.01754   0.02870   0.09728   0.09728   0.09728
 -6.96742   0.02813   0.09747   0.09747   0.09747
 -6.91729   0.02771   0.09740   0.09740   0.09740
 -6.86717   0.02745   0.09961   0.09961   0.09961
 -6.81704   0.02724   0.10255   0.10255   0.10255
 -6.76692   0.02702   0.10558   0.10558   0.10558
 -6.71679   0.02678   0.11144   0.11144   0.11144
 -6.66667   0.02647   0.11542   0.11542   0.11542
 -6.61654   0.02615   0.12047   0.12047   0.12047
 -6.56642   0.02581   0.12659   0.12659   0.12659
 -6.51629   0.02550   0.12525   0.12525   0.12525
 -6.46617   0.02520   0.12482   0.12482   0.12482
 -6.41604   0.02489   0.12564   0.12564   0.12564
 -6.36591   0.02460   0.12476   0.12476   0.12476
 -6.31579   0.02426   0.12398   0.12398   0.12398
 -6.26566   0.02392   0.12372   0.12372   0.12372
 -6.21554   0.02342   0.12350   0.12350   0.12350
 -6.16541   0.02289   0.12314   0.12314   0.12314
 -6.11529   0.02244   0.12269   0.12269   0.12269
 -6.06516   0.02209   0.12215   0.12215   0.12215
 -6.01504   0.02180   0.12181   0.12181   0.12181
 -5.96491   0.02153   0.12133   0.12133   0.12133
 -5.91479   0.02123   0.12080   0.12080   0.12080
 -5.86466   0.02092   0.12031   0.12031   0.12031
 -5.81454   0.02060   0.11986   0.11986   0.11986
 -5.76441   0.02032   0.11946   0.11946   0.11946
 -5.71429   0.02006   0.11926   0.11926   0.11926
 -5.66416   0.01981   0.11912   0.11912   0.11912
 -5.61404   0.01958   0.11904   0.11904   0.11904
 -5.56391   0.01929   0.11878   0.11878   0.11878
 -5.51378   0.01898   0.11882   0.11882   0.11882
 -5.46366   0.01866   0.11864   0.11864   0.11864
 -5.41353   0.01829   0.11814   0.11814   0.11814
 -5.36341   0.01777   0.11734   0.11734   0.11734
 -5.31328   0.01734   0.11657   0.11657   0.11657
 -5.26316   0.01697   0.11583   0.11583   0.11583
 -5.21303   0.01664   0.11527   0.11527   0.11527
 -5.16291   0.01636   0.11493   0.11493   0.11493
 -5.11278   0.01609   0.11465   0.11465   0.11465
 -5.06266   0.01583   0.11465   0.11465   0.11465
 -5.01253   0.01556   0.11470   0.11470   0.11470
 -4.96241   0.01531   0.11486   0.11486   0.11486
 -4.91228   0.01508   0.11498   0.11498   0.11498
 -4.86216   0.01483   0.11473   0.11473   0.11473
 -4.81203   0.01455   0.11419   0.11419   0.11419
 -4.76190   0.01424   0.11372   0.11372   0.11372
 -4.71178   0.01390   0.11336   0.11336   0.11336
 -4.66165   0.01357   0.11295   0.11295   0.11295
 -4.61153   0.01324   0.11242   0.11242   0.11242
 -4.56140   0.01291   0.11183   0.11183   0.11183
 -4.51128   0.01252   0.11114   0.11114   0.11114
 -4.46115   0.01214   0.11056   0.11056   0.11056
 -4.41103   0.01183   0.11020   0.11020   0.11020
 -4.36090   0.01157   0.11005   0.11005   0.11005
 -4.31078   0.01134   0.10998   0.10998   0.10998
 -4.26065   0.01112   0.10979   0.10979   0.10979
 -4.21053   0.01093   0.10963   0.10963   0.10963
 -4.16040   0.01074   0.10954   0.10954   0.10954
 -4.11028   0.01057   0.10929   0.10929   0.10929
 -4.06015   0.01038   0.10894   0.10894   0.10894
 -4.01003   0.01019   0.10869   0.10869   0.10869
 -3.95990   0.00999   0.10845   0.10845   0.10845
 -3.90977   0.00978   0.10806   0.10806   0.10806
 -3.85965   0.00957   0.10753   0.10753   0.10753
 -3.80952   0.00935   0.10704   0.10704   0.10704
 -3.75940   0.00908   0.10652   0.10652   0.10652
 -3.70927   0.00881   0.10619   0.10619   0.10619
 -3.65915   0.00853   0.10598   0.10598   0.10598
 -3.60902   0.00820   0.10584   0.10584   0.10584
 -3.55890   0.00791   0.10579   0.10579   0.10579
 -3.50877   0.00764   0.10520   0.10520   0.10520
 -3.45865   0.00741   0.10440   0.10440   0.10440
 -3.40852   0.00720   0.10361   0.10361   0.10361
 -3.35840   0.00700   0.10289   0.10289   0.10289
 -3.30827   0.00679   0.10380   0.10359   0.10362
 -3.25815   0.00657   0.10493   0.10439   0.10458
 -3.20802   0.00636   0.10361   0.10320   0.10356
 -3.15789   0.00617   0.10111   0.10160   0.10184
 -3.10777   0.00597   0.09208   0.09289   0.09275
 -3.05764   0.00579   0.08511   0.08573   0.08549
 -3.00752   0.00560   0.08050   0.08092   0.08079
 -2.95739   0.00540   0.07724   0.07746   0.07737
 -2.90727   0.00520   0.07439   0.07449   0.07440
 -2.85714   0.00499   0.07115   0.07116   0.07113
 -2.80702   0.00480   0.06827   0.06822   0.06825
 -2.75689   0.00458   0.06623   0.06607   0.06612
 -2.70677   0.00440   0.06422   0.06399   0.06406
 -2.65664   0.00424   0.06205   0.06184   0.06190
 -2.60652   0.00409   0.05987   0.05976   0.05976
 -2.55639   0.00393   0.05789   0.05784   0.05778
 -2.50627   0.00378   0.05619   0.05616   0.05603
 -2.45614   0.00366   0.05460   0.05458   0.05440
 -2.40602   0.00355   0.05297   0.05300   0.05278
 -2.35589   0.00343   0.05127   0.05136   0.05111
 -2.30576   0.00331   0.04958   0.04972   0.04945
 -2.25564   0.00318   0.04799   0.04814   0.04787
 -2.20551   0.00303   0.04659   0.04672   0.04647
 -2.15539   0.00292   0.04529   0.04539   0.04518
 -2.10526   0.00282   0.04400   0.04406   0.04390
 -2.05514   0.00270   0.04262   0.04267   0.04256
 -2.00501   0.00256   0.04127   0.04127   0.04123
 -1.95489   0.00244   0.04013   0.04007   0.04010
 -1.90476   0.00229   0.03884   0.03872   0.03880
 -1.85464   0.00215   0.03759   0.03741   0.03755
 -1.80451   0.00204   0.03642   0.03620   0.03638
 -1.75439   0.00195   0.03528   0.03503   0.03524
 -1.70426   0.00187   0.03410   0.03387   0.03406
 -1.65414   0.00179   0.03293   0.03272   0.03289
 -1.60401   0.00170   0.03184   0.03163   0.03181
 -1.55388   0.00159   0.03081   0.03057   0.03079
 -1.50376   0.00148   0.02976   0.02951   0.02975
 -1.45363   0.00139   0.02867   0.02842   0.02868
 -1.40351   0.00131   0.02760   0.02737   0.02764
 -1.35338   0.00124   0.02661   0.02642   0.02665
 -1.30326   0.00117   0.02568   0.02556   0.02573
 -1.25313   0.00108   0.02473   0.02465   0.02478
 -1.20301   0.00097   0.02359   0.02352   0.02365
 -1.15288   0.00087   0.02254   0.02246   0.02259
 -1.10276   0.00078   0.02137   0.02131   0.02143
 -1.05263   0.00072   0.02024   0.02021   0.02030
 -1.00251   0.00066   0.01920   0.01918   0.01924
 -0.95238   0.00061   0.01818   0.01817   0.01820
 -0.90226   0.00055   0.01715   0.01717   0.01716
 -0.85213   0.00047   0.01672   0.01676   0.01669
 -0.80201   0.00040   0.01558   0.01562   0.01548
 -0.75188   0.00034   0.01418   0.01424   0.01404
 -0.70175   0.00030   0.01291   0.01299   0.01275
 -0.65163   0.00026   0.01203   0.01218   0.01179
 -0.60150   0.00020   0.01106   0.01133   0.01079
 -0.55138   0.00013   0.00906   0.00939   0.00898
 -0.50125   0.00010   0.00716   0.00745   0.00732
 -0.45113   0.00008   0.00625   0.00657   0.00687
 -0.40100   0.00003   0.00285   0.00293   0.00331
 -0.35088   0.00000   0.00025   0.00024   0.00029
 -0.30075   0.00000   0.00000   0.00000   0.00000
 -0.25063   0.00000   0.00000   0.00000   0.00000
 -0.20050   0.00000   0.00000   0.00000   0.00000
 -0.15038   0.00000   0.00000   0.00000   0.00000
 -0.10025   0.00000   0.00000   0.00000   0.00000
 -0.05013   0.00000   0.00000   0.00000   0.00000
  0.00000   0.00000   0.00000   0.00000   0.00000
  0.05013   0.00000   0.00000   0.00000   0.00000
  0.10025   0.00000   0.00000   0.00000   0.00000
  0.15038   0.00000   0.00000   0.00000   0.00000
  0.20050   0.00000   0.00000   0.00000   0.00000
  0.25063   0.00000   0.00000   0.00000   0.00000
  0.30075   0.00000   0.00000   0.00000   0.00000
  0.35088   0.00000   0.00000   0.00000   0.00000
  0.40100   0.00000   0.00000   0.00000   0.00000
  0.45113   0.00000   0.00000   0.00000   0.00000
  0.50125   0.00000   0.00000   0.00000   0.00000
  0.55138   0.00000   0.00000   0.00000   0.00000
  0.60150   0.00000   0.00000   0.00000   0.00000
  0.65163   0.00000   0.00000   0.00000   0.00000
  0.70175   0.00000   0.00000   0.00000   0.00000
  0.75188   0.00000   0.00000   0.00000   0.00000
  0.80201   0.00000   0.00000   0.00000   0.00000
  0.85213   0.00000   0.00000   0.00000   0.00000
  0.90226   0.00000   0.00000   0.00000   0.00000
  0.95238   0.00000   0.00000   0.00000   0.00000
  1.00251   0.00000   0.00000   0.00000   0.00000
  1.05263   0.00000   0.00000   0.00000   0.00000
  1.10276   0.00000   0.00000   0.00000   0.00000
  1.15288   0.00000   0.00000   0.00000   0.00000
  1.20301   0.00000   0.00000   0.00000   0.00000
  1.25313   0.00000   0.00000   0.00000   0.00000
  1.30326   0.00000   0.00000   0.00000   0.00000
  1.35338   0.00000   0.00000   0.00000   0.00000
  1.40351   0.00000   0.00000   0.00000   0.00000
  1.45363   0.00000   0.00000   0.00000   0.00000
  1.50376   0.00000   0.00000   0.00000   0.00000
  1.55388   0.00000   0.00000   0.00000   0.00000
  1.60401   0.00000   0.00000   0.00000   0.00000
  1.65414   0.00000   0.00000   0.00000   0.00000
  1.70426   0.00000   0.00000   0.00000   0.00000
  1.75439   0.00000   0.00000   0.00000   0.00000
  1.80451   0.00000   0.00000   0.00000   0.00000
  1.85464   0.00000   0.00000   0.00000   0.00000
  1.90476   0.00000   0.00000   0.00000   0.00000
  1.95489   0.00000   0.00000   0.00000   0.00000
  2.00501   0.00000   0.00000   0.00000   0.00000
  2.05514   0.00000   0.00000   0.00000   0.00000
  2.10526   0.00000   0.00000   0.00000   0.00000
  2.15539   0.00000   0.00000   0.00000   0.00000
  2.20551   0.00000   0.00000   0.00000   0.00000
  2.25564   0.00000   0.00000   0.00000   0.00000
  2.30576   0.00000   0.00000   0.00000   0.00000
  2.35589   0.00000   0.00000   0.00000   0.00000
  2.40602   0.00000   0.00000   0.00000   0.00000
  2.45614   0.00000   0.00000   0.00000   0.00000
  2.50627   0.00000   0.00000   0.00000   0.00000
  2.55639   0.00000   0.00000   0.00000   0.00000
  2.60652   0.00000   0.00000   0.00000   0.00000
  2.65664   0.00000   0.00000   0.00000   0.00000
  2.70677   0.00000   0.00000   0.00000   0.00000
  2.75689   0.00000   0.00000   0.00000   0.00000
  2.80702   0.00000   0.00000   0.00000   0.00000
  2.85714   0.00000   0.00000   0.00000   0.00000
  2.90727   0.00000   0.00000   0.00000   0.00000
  2.95739   0.00000   0.00000   0.00000   0.00000
  3.00752   0.00000   0.00000   0.00000   0.00000
  3.05764   0.00000   0.00000   0.00000   0.00000
  3.10777   0.00000   0.00000   0.00000   0.00000
  3.15789   0.00000   0.00000   0.00000   0.00000
  3.20802   0.00000   0.00000   0.00000   0.00000
  3.25815   0.00000   0.00000   0.00000   0.00000
  3.30827   0.00000   0.00000   0.00000   0.00000
  3.35840   0.00000   0.00000   0.00000   0.00000
  3.40852   0.00000   0.00000   0.00000   0.00000
  3.45865   0.00000   0.00000   0.00000   0.00000
  3.50877   0.00000   0.00000   0.00000   0.00000
  3.55890   0.00000   0.00000   0.00000   0.00000
  3.60902   0.00000   0.00000   0.00000   0.00000
  3.65915   0.00000   0.00000   0.00000   0.00000
  3.70927   0.00000   0.00000   0.00000   0.00000
  3.75940   0.00000   0.00000   0.00000   0.00000
  3.80952   0.00051   0.00036   0.00036   0.00036
  3.85965   0.00330   0.00230   0.00230   0.00230
  3.90977   0.00739   0.00519   0.00519   0.00519
  3.95990   0.01093   0.00776   0.00776   0.00776
  4.01003   0.01285   0.00923   0.00923   0.00923
  4.06015   0.01449   0.01049   0.01049   0.01049
  4.11028   0.01583   0.01160   0.01160   0.01160
  4.16040   0.01741   0.01286   0.01286   0.01286
  4.21053   0.01933   0.01433   0.01433   0.01433
  4.26065   0.02144   0.01591   0.01591   0.01591
  4.31078   0.02355   0.01749   0.01749   0.01749
  4.36090   0.02573   0.01906   0.01906   0.01906
  4.41103   0.02805   0.02069   0.02069   0.02069
  4.46115   0.02980   0.02214   0.02214   0.02214
  4.51128   0.03163   0.02365   0.02365   0.02365
  4.56140   0.03362   0.02525   0.02525   0.02525
  4.61153   0.03591   0.02706   0.02706   0.02706
  4.66165   0.03848   0.02901   0.02901   0.02901
  4.71178   0.03964   0.03047   0.03047   0.03047
  4.76190   0.04054   0.03188   0.03188   0.03188
  4.81203   0.04173   0.03343   0.03343   0.03343
  4.86216   0.04269   0.03505   0.03505   0.03505
  4.91228   0.04350   0.03661   0.03661   0.03661
  4.96241   0.04437   0.03820   0.03820   0.03820
  5.01253   0.04526   0.03986   0.03986   0.03986
  5.06266   0.04618   0.04164   0.04164   0.04164
  5.11278   0.04710   0.04387   0.04387   0.04387
  5.16291   0.04800   0.04597   0.04597   0.04597
  5.21303   0.04888   0.04836   0.04838   0.04839
  5.26316   0.04976   0.05241   0.05253   0.05260
  5.31328   0.05064   0.05583   0.05603   0.05595
  5.36341   0.05153   0.05612   0.05622   0.05600
  5.41353   0.05237   0.05680   0.05679   0.05683
  5.46366   0.05294   0.05841   0.05838   0.05855
  5.51378   0.05297   0.05946   0.05941   0.05965
  5.56391   0.05313   0.06035   0.06029   0.06053
  5.61404   0.05340   0.06087   0.06074   0.06098
  5.66416   0.05371   0.06170   0.06153   0.06175
  5.71429   0.05399   0.06273   0.06258   0.06274
  5.76441   0.05424   0.06383   0.06370   0.06381
  5.81454   0.05449   0.06502   0.06490   0.06497
  5.86466   0.05484   0.06623   0.06613   0.06616
  5.91479   0.05529   0.06743   0.06734   0.06735
  5.96491   0.05565   0.06847   0.06838   0.06837
  6.01504   0.05603   0.06942   0.06934   0.06929
  6.06516   0.05642   0.07057   0.07050   0.07040
  6.11529   0.05680   0.07177   0.07172   0.07161
  6.16541   0.05718   0.07299   0.07296   0.07286
  6.21554   0.05755   0.07424   0.07423   0.07413
  6.26566   0.05794   0.07552   0.07552   0.07542
  6.31579   0.05836   0.07681   0.07683   0.07673
  6.36591   0.05870   0.07812   0.07815   0.07805
  6.41604   0.05898   0.07945   0.07949   0.07939
  6.46617   0.05926   0.08083   0.08092   0.08083
  6.51629   0.05967   0.08232   0.08244   0.08238
  6.56642   0.05983   0.08368   0.08382   0.08378
  6.61654   0.05989   0.08498   0.08512   0.08510
  6.66667   0.05984   0.08624   0.08637   0.08637
  6.71679   0.05993   0.08762   0.08774   0.08777
  6.76692   0.06007   0.08906   0.08917   0.08921
  6.81704   0.06021   0.09055   0.09066   0.09071
  6.86717   0.06038   0.09222   0.09232   0.09238
  6.91729   0.06054   0.09408   0.09417   0.09417
  6.96742   0.06067   0.09595   0.09604   0.09596
  7.01754   0.06079   0.09783   0.09791   0.09780
  7.06767   0.06092   0.09971   0.09978   0.09964
  7.11779   0.06105   0.10160   0.10164   0.10149
  7.16792   0.06120   0.10356   0.10357   0.10340
  7.21805   0.06136   0.10564   0.10563   0.10545
  7.26817   0.06150   0.10816   0.10811   0.10794
  7.31830   0.06167   0.11095   0.11080   0.11069
  7.36842   0.06191   0.11388   0.11365   0.11360
  7.41855   0.06231   0.11706   0.11679   0.11680
  7.46867   0.06282   0.12067   0.12039   0.12044
  7.51880   0.06339   0.12495   0.12467   0.12477
  7.56892   0.06396   0.13015   0.12986   0.13003
  7.61905   0.06477   0.13709   0.13673   0.13699
  7.66917   0.06594   0.14569   0.14530   0.14561
  7.71930   0.06761   0.15692   0.15655   0.15688
  7.76942   0.06977   0.17143   0.17110   0.17146
  7.81955   0.07046   0.17635   0.17602   0.17645
  7.86967   0.07022   0.17496   0.17467   0.17514
  7.91980   0.07072   0.18033   0.18032   0.18057
  7.96992   0.06909   0.17187   0.17233   0.17219
  8.02005   0.06771   0.16218   0.16314   0.16272
  8.07018   0.06618   0.14406   0.14520   0.14496
  8.12030   0.05928   0.10327   0.10366   0.10335
  8.17043   0.05897   0.10130   0.10134   0.10096
  8.22055   0.06436   0.11219   0.11222   0.11187
  8.27068   0.07758   0.13484   0.13486   0.13472
  8.32080   0.08720   0.14773   0.14776   0.14771
  8.37093   0.09297   0.14520   0.14520   0.14520
  8.42105   0.09769   0.13620   0.13620   0.13620
  8.47118   0.09810   0.11778   0.11778   0.11778
  8.52130   0.10512   0.11535   0.11535   0.11535
  8.57143   0.10775   0.11514   0.11514   0.11514
  8.62155   0.10221   0.11865   0.11865   0.11865
  8.67168   0.10420   0.12323   0.12323   0.12323
  8.72180   0.10706   0.12533   0.12533   0.12533
  8.77193   0.10608   0.12138   0.12138   0.12138
  8.82206   0.10296   0.11583   0.11583   0.11583
  8.87218   0.10170   0.11412   0.11412   0.11412
  8.92231   0.09976   0.11121   0.11121   0.11121
  8.97243   0.09691   0.10754   0.10754   0.10754
  9.02256   0.09674   0.10930   0.10930   0.10930
  9.07268   0.09705   0.11251   0.11251   0.11251
  9.12281   0.09387   0.11178   0.11178   0.11178
  9.17293   0.09292   0.11099   0.11099   0.11099
  9.22306   0.09168   0.10932   0.10932   0.10932
  9.27318   0.09118   0.10937   0.10937   0.10937
  9.32331   0.09147   0.11156   0.11156   0.11156
  9.37343   0.09152   0.11366   0.11366   0.11366
  9.42356   0.09149   0.11521   0.11521   0.11521
  9.47368   0.09102   0.11498   0.11498   0.11498
  9.52381   0.09065   0.11519   0.11519   0.11519
  9.57393   0.09077   0.11431   0.11431   0.11431
  9.62406   0.09221   0.11501   0.11501   0.11501
  9.67419   0.09043   0.11297   0.11297   0.11297
  9.72431   0.08585   0.10853   0.10853   0.10853
  9.77444   0.08309   0.10638   0.10638   0.10638
  9.82456   0.08049   0.10470   0.10470   0.10470
  9.87469   0.07906   0.10346   0.10346   0.10346
  9.92481   0.07864   0.10237   0.10237   0.10237
  9.97494   0.07807   0.10111   0.10111   0.10111
 10.02506   0.07777   0.10017   0.10017   0.10017
