Ge8 Te8
1.0
   4.1889868000000003    2.4185126000000001    7.3580515999999996
  -4.1889868000000003    2.4185126000000001    7.3580515999999996
   0.0000000000000000   -4.8370253999999999    7.3580515999999996
Ge Te Ge Te Ge Te Ge Te Ge Te Ge Te Ge Te Ge Te
1 1 1 1 1 1 1 1 1 1 1 1 1 1 1 1
direct
  -0.0027702189023937   -0.0027702189023937   -0.0027666091313878 Ge
  -0.2367950317704052   -0.2367950317704051   -0.2367974594279060 Te
  -0.0027702189023937   -0.0027702189023937    0.4972333908686122 Ge
  -0.2367950317704052   -0.2367950317704051    0.2632025405720940 Te
  -0.0027702189023937    0.4972297810976062   -0.0027666091313878 Ge
  -0.2367950317704052    0.2632049682295948   -0.2367974594279060 Te
  -0.0027702189023937    0.4972297810976062    0.4972333908686122 Ge
  -0.2367950317704052    0.2632049682295948    0.2632025405720940 Te
   0.4972297810976062   -0.0027702189023937   -0.0027666091313878 Ge
   0.2632049682295948   -0.2367950317704051   -0.2367974594279060 Te
   0.4972297810976062   -0.0027702189023937    0.4972333908686122 Ge
   0.2632049682295948   -0.2367950317704051    0.2632025405720940 Te
   0.4972297810976062    0.4972297810976062   -0.0027666091313878 Ge
   0.2632049682295948    0.2632049682295948   -0.2367974594279060 Te
   0.4972297810976062    0.4972297810976062    0.4972333908686122 Ge
   0.2632049682295948    0.2632049682295948    0.2632025405720940 Te
