    2    2    1    1
  0.2795448E+02  0.4402776E-09  0.4402776E-09  0.4402776E-09  0.5000000E-15
  1.000000000000000E-004
  CAR 
 unknown system                          
     20    344     36
 
  0.1276756E-14  0.1276756E-14  0.1276756E-14  0.2962963E-03
      1        -19.136221   1.000000
      2        -19.136221   1.000000
      3        -19.127595   1.000000
      4        -19.127595   1.000000
      5        -19.124158   1.000000
      6         -7.315015   1.000000
      7          0.670191   1.000000
      8          3.756955   1.000000
      9          4.078257   1.000000
     10          4.078257   1.000000
     11          8.332358   0.000000
     12          8.895377   0.000000
     13          8.895377   0.000000
     14         11.602974   0.000000
     15         11.602974   0.000000
     16         11.639937   0.000000
     17         13.392106   0.000000
     18         13.392106   0.000000
     19         13.637579   0.000000
     20         13.926979   0.000000
     21         25.797858   0.000000
     22         25.797858   0.000000
     23         25.851305   0.000000
     24         26.069628   0.000000
     25         26.069628   0.000000
     26         26.664146   0.000000
     27         27.748671   0.000000
     28         28.289370   0.000000
     29         28.289370   0.000000
     30         29.621776   0.000000
     31         29.621776   0.000000
     32         32.680443   0.000000
     33         32.680443   0.000000
     34         32.891783   0.000000
     35         33.581911   0.000000
     36         33.581911   0.000000
 
  0.6666667E-01  0.8386786E-14  0.1277889E-14  0.1777778E-02
      1        -19.136292   1.000000
      2        -19.136135   1.000000
      3        -19.127616   1.000000
      4        -19.127615   1.000000
      5        -19.124071   1.000000
      6         -7.270024   1.000000
      7          0.481743   1.000000
      8          3.750642   1.000000
      9          4.063376   1.000000
     10          4.165271   1.000000
     11          8.279757   0.000000
     12          8.768764   0.000000
     13          8.773636   0.000000
     14         11.346828   0.000000
     15         11.540363   0.000000
     16         11.610090   0.000000
     17         13.720757   0.000000
     18         13.776566   0.000000
     19         14.064263   0.000000
     20         14.261984   0.000000
     21         24.350179   0.000000
     22         25.656364   0.000000
     23         25.754051   0.000000
     24         25.965016   0.000000
     25         26.215271   0.000000
     26         27.193586   0.000000
     27         27.424871   0.000000
     28         28.105733   0.000000
     29         28.168763   0.000000
     30         30.081428   0.000000
     31         30.380525   0.000000
     32         32.254132   0.000000
     33         32.283010   0.000000
     34         33.182358   0.000000
     35         33.672014   0.000000
     36         34.200598   0.000000
 
  0.1333333E+00  0.8392763E-14  0.8399702E-14  0.1777778E-02
      1        -19.136490   1.000000
      2        -19.135891   1.000000
      3        -19.127672   1.000000
      4        -19.127668   1.000000
      5        -19.123821   1.000000
      6         -7.136258   1.000000
      7         -0.010598   1.000000
      8          3.733977   1.000000
      9          4.023929   1.000000
     10          4.372963   1.000000
     11          8.037452   0.000000
     12          8.445123   0.000000
     13          8.468909   0.000000
     14         11.079593   0.000000
     15         11.473771   0.000000
     16         11.771758   0.000000
     17         14.522986   0.000000
     18         14.583263   0.000000
     19         14.921431   0.000000
     20         15.270821   0.000000
     21         22.724407   0.000000
     22         24.538446   0.000000
     23         24.738188   0.000000
     24         26.031022   0.000000
     25         26.238894   0.000000
     26         26.924263   0.000000
     27         27.684815   0.000000
     28         28.171450   0.000000
     29         28.761758   0.000000
     30         30.246317   0.000000
     31         30.358177   0.000000
     32         32.101597   0.000000
     33         32.957081   0.000000
     34         33.018183   0.000000
     35         33.905688   0.000000
     36         34.657266   0.000000
 
  0.2000000E+00  0.1305682E-14  0.1277926E-14  0.1777778E-02
      1        -19.136794   1.000000
      2        -19.135556   1.000000
      3        -19.127749   1.000000
      4        -19.127722   1.000000
      5        -19.123447   1.000000
      6         -6.918150   1.000000
      7         -0.674199   1.000000
      8          3.721412   1.000000
      9          3.972609   1.000000
     10          4.611887   1.000000
     11          7.604283   0.000000
     12          8.010464   0.000000
     13          8.040915   0.000000
     14         11.175937   0.000000
     15         11.659006   0.000000
     16         12.186565   0.000000
     17         15.582110   0.000000
     18         15.649505   0.000000
     19         15.920010   0.000000
     20         16.647956   0.000000
     21         21.161462   0.000000
     22         22.990097   0.000000
     23         23.354320   0.000000
     24         26.213816   0.000000
     25         26.403283   0.000000
     26         27.086942   0.000000
     27         27.825472   0.000000
     28         27.949814   0.000000
     29         29.219345   0.000000
     30         29.561267   0.000000
     31         29.671052   0.000000
     32         32.171905   0.000000
     33         32.712714   0.000000
     34         33.310576   0.000000
     35         33.716116   0.000000
     36         33.984464   0.000000
 
  0.2666667E+00  0.1287732E-14  0.1287732E-14  0.1777778E-02
      1        -19.137159   1.000000
      2        -19.135213   1.000000
      3        -19.127835   1.000000
      4        -19.127743   1.000000
      5        -19.123008   1.000000
      6         -6.625310   1.000000
      7         -1.402875   1.000000
      8          3.728261   1.000000
      9          3.923220   1.000000
     10          4.836798   1.000000
     11          7.122146   0.000000
     12          7.529270   0.000000
     13          7.572070   0.000000
     14         11.560121   0.000000
     15         12.185821   0.000000
     16         12.829097   0.000000
     17         16.696210   0.000000
     18         16.797322   0.000000
     19         17.036919   0.000000
     20         18.205842   0.000000
     21         19.774072   0.000000
     22         21.416298   0.000000
     23         22.076066   0.000000
     24         26.389647   0.000000
     25         26.544225   0.000000
     26         27.104681   0.000000
     27         27.438351   0.000000
     28         27.879597   0.000000
     29         28.493793   0.000000
     30         29.447829   0.000000
     31         29.632189   0.000000
     32         31.005825   0.000000
     33         31.737167   0.000000
     34         32.545356   0.000000
     35         32.784457   0.000000
     36         33.477163   0.000000
 
  0.3333333E+00  0.8405039E-14  0.1271856E-14  0.1777778E-02
      1        -19.137521   1.000000
      2        -19.134930   1.000000
      3        -19.127914   1.000000
      4        -19.127717   1.000000
      5        -19.122581   1.000000
      6         -6.278100   1.000000
      7         -2.116460   1.000000
      8          3.759275   1.000000
      9          3.885329   1.000000
     10          5.042478   1.000000
     11          6.684862   0.000000
     12          7.028952   0.000000
     13          7.197022   0.000000
     14         12.149485   0.000000
     15         12.998572   0.000000
     16         13.657316   0.000000
     17         16.898228   0.000000
     18         18.102254   0.000000
     19         18.292049   0.000000
     20         18.796735   0.000000
     21         19.897438   0.000000
     22         19.919822   0.000000
     23         21.495662   0.000000
     24         25.561670   0.000000
     25         26.087159   0.000000
     26         26.954077   0.000000
     27         27.342620   0.000000
     28         27.850013   0.000000
     29         28.459470   0.000000
     30         29.062279   0.000000
     31         29.712013   0.000000
     32         29.858349   0.000000
     33         30.722119   0.000000
     34         31.456914   0.000000
     35         31.873062   0.000000
     36         32.574741   0.000000
 
  0.4000000E+00  0.8431832E-14  0.8376321E-14  0.1777778E-02
      1        -19.137813   1.000000
      2        -19.134741   1.000000
      3        -19.127968   1.000000
      4        -19.127662   1.000000
      5        -19.122245   1.000000
      6         -5.922960   1.000000
      7         -2.732620   1.000000
      8          3.804216   1.000000
      9          3.862127   1.000000
     10          5.232053   1.000000
     11          6.354424   0.000000
     12          6.604381   0.000000
     13          6.925830   0.000000
     14         12.919880   0.000000
     15         14.002561   0.000000
     16         14.637074   0.000000
     17         16.078286   0.000000
     18         17.604414   0.000000
     19         18.352808   0.000000
     20         19.645588   0.000000
     21         19.923093   0.000000
     22         21.552550   0.000000
     23         22.276517   0.000000
     24         24.128245   0.000000
     25         24.777016   0.000000
     26         26.591813   0.000000
     27         27.283647   0.000000
     28         27.732204   0.000000
     29         28.324241   0.000000
     30         28.576130   0.000000
     31         29.101774   0.000000
     32         30.055307   0.000000
     33         30.195875   0.000000
     34         30.597648   0.000000
     35         31.460904   0.000000
     36         31.697392   0.000000
 
  0.4666667E+00  0.1290354E-14  0.1290354E-14  0.1777778E-02
      1        -19.137975   1.000000
      2        -19.134654   1.000000
      3        -19.127997   1.000000
      4        -19.127619   1.000000
      5        -19.122060   1.000000
      6         -5.666806   1.000000
      7         -3.123959   1.000000
      8          3.838750   1.000000
      9          3.851902   1.000000
     10          5.374357   1.000000
     11          6.188905   0.000000
     12          6.318310   0.000000
     13          6.783706   0.000000
     14         13.820650   0.000000
     15         14.894435   0.000000
     16         15.262768   0.000000
     17         15.717250   0.000000
     18         16.399929   0.000000
     19         17.090967   0.000000
     20         21.054568   0.000000
     21         21.415459   0.000000
     22         22.641742   0.000000
     23         22.723777   0.000000
     24         23.472004   0.000000
     25         24.096769   0.000000
     26         25.092525   0.000000
     27         26.073578   0.000000
     28         27.552542   0.000000
     29         28.487775   0.000000
     30         28.734087   0.000000
     31         29.305909   0.000000
     32         29.879167   0.000000
     33         29.911720   0.000000
     34         30.552494   0.000000
     35         31.043524   0.000000
     36         31.174163   0.000000
 
  0.6666667E-01  0.6666667E-01  0.8399702E-14  0.1777778E-02
      1        -19.136348   1.000000
      2        -19.136109   1.000000
      3        -19.127667   1.000000
      4        -19.127532   1.000000
      5        -19.124061   1.000000
      6         -7.257965   1.000000
      7          0.424975   1.000000
      8          3.701932   1.000000
      9          3.971202   1.000000
     10          4.347198   1.000000
     11          8.131651   0.000000
     12          8.629047   0.000000
     13          8.973540   0.000000
     14         11.303865   0.000000
     15         11.548864   0.000000
     16         11.800050   0.000000
     17         13.472324   0.000000
     18         13.760620   0.000000
     19         14.110379   0.000000
     20         14.634149   0.000000
     21         24.336727   0.000000
     22         24.489985   0.000000
     23         25.965905   0.000000
     24         26.214198   0.000000
     25         26.417446   0.000000
     26         26.806174   0.000000
     27         27.869407   0.000000
     28         28.333077   0.000000
     29         28.481803   0.000000
     30         29.701631   0.000000
     31         30.671901   0.000000
     32         31.684825   0.000000
     33         32.603215   0.000000
     34         33.169671   0.000000
     35         33.564050   0.000000
     36         34.045031   0.000000
 
  0.1333333E+00  0.6666667E-01  0.1277926E-14  0.3555556E-02
      1        -19.136499   1.000000
      2        -19.135957   1.000000
      3        -19.127749   1.000000
      4        -19.127492   1.000000
      5        -19.123881   1.000000
      6         -7.156867   1.000000
      7          0.066619   1.000000
      8          3.578368   1.000000
      9          3.898375   1.000000
     10          4.651184   1.000000
     11          7.693723   0.000000
     12          8.547239   0.000000
     13          8.909900   0.000000
     14         10.995893   0.000000
     15         11.624907   0.000000
     16         11.994892   0.000000
     17         13.845125   0.000000
     18         14.182685   0.000000
     19         14.884861   0.000000
     20         15.535050   0.000000
     21         22.781622   0.000000
     22         24.245866   0.000000
     23         25.376757   0.000000
     24         25.804562   0.000000
     25         26.184615   0.000000
     26         26.823701   0.000000
     27         27.604939   0.000000
     28         28.486278   0.000000
     29         29.328527   0.000000
     30         29.618149   0.000000
     31         31.151259   0.000000
     32         31.824649   0.000000
     33         32.474848   0.000000
     34         33.148302   0.000000
     35         33.406717   0.000000
     36         34.255681   0.000000
 
  0.2000000E+00  0.6666667E-01  0.1287732E-14  0.3555556E-02
      1        -19.136723   1.000000
      2        -19.135721   1.000000
      3        -19.127838   1.000000
      4        -19.127498   1.000000
      5        -19.123557   1.000000
      6         -6.969898   1.000000
      7         -0.499398   1.000000
      8          3.464604   1.000000
      9          3.844759   1.000000
     10          4.928274   1.000000
     11          7.206197   0.000000
     12          8.343522   0.000000
     13          8.629619   0.000000
     14         10.809544   0.000000
     15         11.909835   0.000000
     16         12.277973   0.000000
     17         14.688391   0.000000
     18         15.026082   0.000000
     19         16.130606   0.000000
     20         16.588943   0.000000
     21         21.197933   0.000000
     22         23.068957   0.000000
     23         24.733485   0.000000
     24         25.282817   0.000000
     25         26.273461   0.000000
     26         26.925661   0.000000
     27         27.395219   0.000000
     28         28.567374   0.000000
     29         28.679506   0.000000
     30         30.146012   0.000000
     31         30.666748   0.000000
     32         31.969234   0.000000
     33         32.578156   0.000000
     34         33.112647   0.000000
     35         33.724918   0.000000
     36         33.879023   0.000000
 
  0.2666667E+00  0.6666667E-01  0.1271856E-14  0.3555556E-02
      1        -19.137017   1.000000
      2        -19.135438   1.000000
      3        -19.127906   1.000000
      4        -19.127540   1.000000
      5        -19.123141   1.000000
      6         -6.704575   1.000000
      7         -1.173466   1.000000
      8          3.402801   1.000000
      9          3.784519   1.000000
     10          5.109498   1.000000
     11          6.807654   0.000000
     12          7.954043   0.000000
     13          8.227842   0.000000
     14         11.041903   0.000000
     15         12.298475   0.000000
     16         12.860336   0.000000
     17         15.771448   0.000000
     18         16.089944   0.000000
     19         17.566257   0.000000
     20         17.687991   0.000000
     21         19.806000   0.000000
     22         21.626669   0.000000
     23         23.382880   0.000000
     24         25.529755   0.000000
     25         26.419025   0.000000
     26         26.647380   0.000000
     27         27.379147   0.000000
     28         28.182410   0.000000
     29         28.725731   0.000000
     30         29.215697   0.000000
     31         30.780631   0.000000
     32         30.849508   0.000000
     33         32.034728   0.000000
     34         32.432559   0.000000
     35         33.152780   0.000000
     36         33.681666   0.000000
 
  0.3333333E+00  0.6666667E-01  0.8376321E-14  0.3555556E-02
      1        -19.137344   1.000000
      2        -19.135167   1.000000
      3        -19.127932   1.000000
      4        -19.127591   1.000000
      5        -19.122708   1.000000
      6         -6.376435   1.000000
      7         -1.871619   1.000000
      8          3.403362   1.000000
      9          3.717883   1.000000
     10          5.160611   1.000000
     11          6.572595   0.000000
     12          7.491234   0.000000
     13          7.803686   0.000000
     14         11.638938   0.000000
     15         12.845940   0.000000
     16         13.680765   0.000000
     17         16.595562   0.000000
     18         17.242702   0.000000
     19         18.116392   0.000000
     20         19.013761   0.000000
     21         19.386024   0.000000
     22         20.567803   0.000000
     23         22.161523   0.000000
     24         25.238562   0.000000
     25         26.054011   0.000000
     26         26.704931   0.000000
     27         27.333844   0.000000
     28         28.195364   0.000000
     29         28.313779   0.000000
     30         28.822882   0.000000
     31         29.534968   0.000000
     32         30.474400   0.000000
     33         30.904407   0.000000
     34         31.851636   0.000000
     35         32.267871   0.000000
     36         32.860490   0.000000
 
  0.4000000E+00  0.6666667E-01  0.1290354E-14  0.3555556E-02
      1        -19.137642   1.000000
      2        -19.134947   1.000000
      3        -19.127932   1.000000
      4        -19.127624   1.000000
      5        -19.122337   1.000000
      6         -6.019727   1.000000
      7         -2.514162   1.000000
      8          3.456972   1.000000
      9          3.653235   1.000000
     10          5.119190   1.000000
     11          6.488633   0.000000
     12          7.045845   0.000000
     13          7.467715   0.000000
     14         12.479025   0.000000
     15         13.583041   0.000000
     16         14.658999   0.000000
     17         16.026688   0.000000
     18         17.636355   0.000000
     19         18.591793   0.000000
     20         19.234371   0.000000
     21         20.206521   0.000000
     22         21.113028   0.000000
     23         22.070621   0.000000
     24         23.900819   0.000000
     25         25.703364   0.000000
     26         26.615761   0.000000
     27         27.162529   0.000000
     28         27.642738   0.000000
     29         28.406535   0.000000
     30         28.509377   0.000000
     31         28.960232   0.000000
     32         29.254669   0.000000
     33         30.275113   0.000000
     34         31.112606   0.000000
     35         31.806583   0.000000
     36         32.260539   0.000000
 
  0.4666667E+00  0.6666667E-01  0.1299046E-14  0.3555556E-02
      1        -19.137854   1.000000
      2        -19.134798   1.000000
      3        -19.127946   1.000000
      4        -19.127626   1.000000
      5        -19.122094   1.000000
      6         -5.714103   1.000000
      7         -2.993518   1.000000
      8          3.488449   1.000000
      9          3.654468   1.000000
     10          5.075476   1.000000
     11          6.452391   0.000000
     12          6.675481   0.000000
     13          7.312882   0.000000
     14         13.466664   0.000000
     15         14.478523   0.000000
     16         14.958385   0.000000
     17         15.762894   0.000000
     18         16.488305   0.000000
     19         18.364360   0.000000
     20         20.127063   0.000000
     21         21.129890   0.000000
     22         22.239419   0.000000
     23         22.890532   0.000000
     24         23.431350   0.000000
     25         24.419069   0.000000
     26         25.769033   0.000000
     27         26.793757   0.000000
     28         26.991750   0.000000
     29         27.888370   0.000000
     30         28.414578   0.000000
     31         28.784356   0.000000
     32         29.332799   0.000000
     33         30.188082   0.000000
     34         30.577870   0.000000
     35         31.259148   0.000000
     36         31.623358   0.000000
 
 -0.4666667E+00  0.6666667E-01  0.8346834E-14  0.3555556E-02
      1        -19.137932   1.000000
      2        -19.134716   1.000000
      3        -19.127973   1.000000
      4        -19.127622   1.000000
      5        -19.122021   1.000000
      6         -5.608594   1.000000
      7         -3.145770   1.000000
      8          3.429129   1.000000
      9          3.775253   1.000000
     10          5.076011   1.000000
     11          6.397459   0.000000
     12          6.432532   0.000000
     13          7.381009   0.000000
     14         13.739259   0.000000
     15         14.665137   0.000000
     16         15.276572   0.000000
     17         15.588368   0.000000
     18         16.808019   0.000000
     19         17.324876   0.000000
     20         20.746620   0.000000
     21         21.619943   0.000000
     22         22.485658   0.000000
     23         22.810734   0.000000
     24         23.998219   0.000000
     25         24.518167   0.000000
     26         25.047145   0.000000
     27         25.511402   0.000000
     28         26.786183   0.000000
     29         28.039028   0.000000
     30         28.564733   0.000000
     31         28.909206   0.000000
     32         29.650584   0.000000
     33         29.931266   0.000000
     34         30.694832   0.000000
     35         30.934726   0.000000
     36         31.359626   0.000000
 
 -0.4000000E+00  0.6666667E-01  0.1270290E-14  0.3555556E-02
      1        -19.137860   1.000000
      2        -19.134713   1.000000
      3        -19.128000   1.000000
      4        -19.127641   1.000000
      5        -19.122130   1.000000
      6         -5.783807   1.000000
      7         -2.886170   1.000000
      8          3.367945   1.000000
      9          3.908641   1.000000
     10          5.093629   1.000000
     11          6.310112   0.000000
     12          6.449824   0.000000
     13          7.610795   0.000000
     14         12.832042   0.000000
     15         14.081335   0.000000
     16         15.810294   0.000000
     17         15.890898   0.000000
     18         16.825247   0.000000
     19         18.174691   0.000000
     20         19.466552   0.000000
     21         21.059762   0.000000
     22         22.226312   0.000000
     23         22.876101   0.000000
     24         23.488918   0.000000
     25         24.333640   0.000000
     26         25.995872   0.000000
     27         26.579980   0.000000
     28         27.268658   0.000000
     29         28.103440   0.000000
     30         28.364111   0.000000
     31         29.284655   0.000000
     32         29.614938   0.000000
     33         30.132052   0.000000
     34         30.869459   0.000000
     35         31.220180   0.000000
     36         31.551999   0.000000
 
 -0.3333333E+00  0.6666667E-01  0.1265105E-14  0.3555556E-02
      1        -19.137651   1.000000
      2        -19.134796   1.000000
      3        -19.128012   1.000000
      4        -19.127671   1.000000
      5        -19.122400   1.000000
      6         -6.115111   1.000000
      7         -2.345372   1.000000
      8          3.340377   1.000000
      9          4.002379   1.000000
     10          5.064918   1.000000
     11          6.401552   0.000000
     12          6.638354   0.000000
     13          7.931566   0.000000
     14         12.043929   0.000000
     15         13.097327   0.000000
     16         14.787563   0.000000
     17         16.629662   0.000000
     18         17.827388   0.000000
     19         18.280526   0.000000
     20         19.481262   0.000000
     21         19.787213   0.000000
     22         20.611822   0.000000
     23         21.808523   0.000000
     24         24.776195   0.000000
     25         25.451966   0.000000
     26         26.107397   0.000000
     27         27.371064   0.000000
     28         27.942499   0.000000
     29         28.220665   0.000000
     30         28.902316   0.000000
     31         29.319555   0.000000
     32         30.011504   0.000000
     33         30.715521   0.000000
     34         31.289361   0.000000
     35         31.743727   0.000000
     36         32.054168   0.000000
 
 -0.2666667E+00  0.6666667E-01  0.8370684E-14  0.3555556E-02
      1        -19.137346   1.000000
      2        -19.134990   1.000000
      3        -19.127995   1.000000
      4        -19.127685   1.000000
      5        -19.122785   1.000000
      6         -6.469363   1.000000
      7         -1.673900   1.000000
      8          3.359549   1.000000
      9          4.043137   1.000000
     10          4.960054   1.000000
     11          6.689460   0.000000
     12          6.988229   0.000000
     13          8.290116   0.000000
     14         11.434803   0.000000
     15         12.312152   0.000000
     16         13.790704   0.000000
     17         16.085200   0.000000
     18         17.499220   0.000000
     19         18.116585   0.000000
     20         18.944727   0.000000
     21         19.697587   0.000000
     22         20.471715   0.000000
     23         22.029841   0.000000
     24         25.189818   0.000000
     25         26.175869   0.000000
     26         26.929496   0.000000
     27         27.385371   0.000000
     28         27.759314   0.000000
     29         28.518203   0.000000
     30         29.391144   0.000000
     31         30.150059   0.000000
     32         30.724718   0.000000
     33         31.424841   0.000000
     34         32.085332   0.000000
     35         32.433098   0.000000
     36         32.704532   0.000000
 
 -0.2000000E+00  0.6666667E-01  0.8389502E-14  0.3555556E-02
      1        -19.137007   1.000000
      2        -19.135278   1.000000
      3        -19.127940   1.000000
      4        -19.127669   1.000000
      5        -19.123213   1.000000
      6         -6.782919   1.000000
      7         -0.967445   1.000000
      8          3.427882   1.000000
      9          4.042513   1.000000
     10          4.793310   1.000000
     11          7.120344   0.000000
     12          7.453455   0.000000
     13          8.620248   0.000000
     14         11.025404   0.000000
     15         11.802917   0.000000
     16         12.934003   0.000000
     17         15.019597   0.000000
     18         16.585517   0.000000
     19         16.884482   0.000000
     20         17.433398   0.000000
     21         21.169200   0.000000
     22         21.587705   0.000000
     23         23.245441   0.000000
     24         25.038598   0.000000
     25         26.476259   0.000000
     26         27.002807   0.000000
     27         27.642921   0.000000
     28         28.098277   0.000000
     29         29.095568   0.000000
     30         29.344391   0.000000
     31         30.554066   0.000000
     32         31.684955   0.000000
     33         32.352997   0.000000
     34         32.819364   0.000000
     35         33.191798   0.000000
     36         33.682065   0.000000
 
 -0.1333333E+00  0.6666667E-01  0.1271753E-14  0.3555556E-02
      1        -19.136690   1.000000
      2        -19.135613   1.000000
      3        -19.127846   1.000000
      4        -19.127635   1.000000
      5        -19.123611   1.000000
      6         -7.028261   1.000000
      7         -0.306799   1.000000
      8          3.539374   1.000000
      9          4.017770   1.000000
     10          4.585445   1.000000
     11          7.618934   0.000000
     12          7.957599   0.000000
     13          8.830507   0.000000
     14         10.877696   0.000000
     15         11.567218   0.000000
     16         12.277611   0.000000
     17         14.117991   0.000000
     18         15.453251   0.000000
     19         15.758357   0.000000
     20         16.063264   0.000000
     21         22.710566   0.000000
     22         23.077172   0.000000
     23         24.213392   0.000000
     24         25.402019   0.000000
     25         26.297536   0.000000
     26         26.792515   0.000000
     27         27.516095   0.000000
     28         28.615659   0.000000
     29         29.311746   0.000000
     30         29.710521   0.000000
     31         30.471768   0.000000
     32         32.403650   0.000000
     33         32.799524   0.000000
     34         33.283118   0.000000
     35         33.715741   0.000000
     36         34.225139   0.000000
 
 -0.6666667E-01  0.6666667E-01  0.1270524E-14  0.1777778E-02
      1        -19.136440   1.000000
      2        -19.135921   1.000000
      3        -19.127728   1.000000
      4        -19.127608   1.000000
      5        -19.123914   1.000000
      6         -7.192672   1.000000
      7          0.213030   1.000000
      8          3.673462   1.000000
      9          3.999514   1.000000
     10          4.358778   1.000000
     11          8.070594   0.000000
     12          8.406886   0.000000
     13          8.872280   0.000000
     14         11.055992   0.000000
     15         11.450541   0.000000
     16         11.875929   0.000000
     17         13.652148   0.000000
     18         14.515769   0.000000
     19         14.701378   0.000000
     20         14.951129   0.000000
     21         24.135039   0.000000
     22         24.490398   0.000000
     23         24.650774   0.000000
     24         26.127052   0.000000
     25         26.516246   0.000000
     26         26.651726   0.000000
     27         27.401467   0.000000
     28         28.174991   0.000000
     29         28.770734   0.000000
     30         30.022777   0.000000
     31         30.933692   0.000000
     32         32.041609   0.000000
     33         32.488057   0.000000
     34         33.373004   0.000000
     35         33.905174   0.000000
     36         34.276263   0.000000
 
  0.1333333E+00  0.1333333E+00  0.1272741E-14  0.1777778E-02
      1        -19.136718   1.000000
      2        -19.135789   1.000000
      3        -19.127864   1.000000
      4        -19.127343   1.000000
      5        -19.123776   1.000000
      6         -7.089481   1.000000
      7         -0.097387   1.000000
      8          3.385900   1.000000
      9          3.694236   1.000000
     10          5.008092   1.000000
     11          7.194326   0.000000
     12          8.617669   0.000000
     13          9.185962   0.000000
     14         10.870701   0.000000
     15         11.924826   0.000000
     16         12.345536   0.000000
     17         13.730259   0.000000
     18         14.016218   0.000000
     19         15.137700   0.000000
     20         16.493228   0.000000
     21         22.799564   0.000000
     22         22.973509   0.000000
     23         24.950716   0.000000
     24         25.447168   0.000000
     25         25.986543   0.000000
     26         26.508333   0.000000
     27         28.243374   0.000000
     28         28.491898   0.000000
     29         29.685976   0.000000
     30         29.950354   0.000000
     31         31.398467   0.000000
     32         31.838144   0.000000
     33         32.412984   0.000000
     34         32.479334   0.000000
     35         33.410518   0.000000
     36         33.818062   0.000000
 
  0.2000000E+00  0.1333333E+00  0.1284620E-14  0.3555556E-02
      1        -19.136954   1.000000
      2        -19.135583   1.000000
      3        -19.127991   1.000000
      4        -19.127254   1.000000
      5        -19.123516   1.000000
      6         -6.936376   1.000000
      7         -0.480705   1.000000
      8          3.197617   1.000000
      9          3.557736   1.000000
     10          5.117012   1.000000
     11          6.938249   0.000000
     12          8.611962   0.000000
     13          9.160179   0.000000
     14         10.611939   0.000000
     15         12.300994   0.000000
     16         12.747391   0.000000
     17         14.094729   0.000000
     18         14.523484   0.000000
     19         16.016619   0.000000
     20         17.548097   0.000000
     21         21.321666   0.000000
     22         22.718378   0.000000
     23         23.924133   0.000000
     24         25.320616   0.000000
     25         25.889744   0.000000
     26         26.445827   0.000000
     27         27.371115   0.000000
     28         28.220950   0.000000
     29         29.964919   0.000000
     30         30.772509   0.000000
     31         31.241201   0.000000
     32         31.639990   0.000000
     33         32.030310   0.000000
     34         32.321519   0.000000
     35         33.385432   0.000000
     36         33.661479   0.000000
 
  0.2666667E+00  0.1333333E+00  0.8378548E-14  0.3555556E-02
      1        -19.137176   1.000000
      2        -19.135398   1.000000
      3        -19.128091   1.000000
      4        -19.127232   1.000000
      5        -19.123149   1.000000
      6         -6.703570   1.000000
      7         -1.021479   1.000000
      8          3.063009   1.000000
      9          3.444040   1.000000
     10          4.927641   1.000000
     11          7.003677   0.000000
     12          8.512715   0.000000
     13          8.900585   0.000000
     14         10.436293   0.000000
     15         12.808999   0.000000
     16         13.261853   0.000000
     17         14.914201   0.000000
     18         15.422481   0.000000
     19         17.319042   0.000000
     20         18.471472   0.000000
     21         19.985974   0.000000
     22         21.597161   0.000000
     23         23.853282   0.000000
     24         24.983771   0.000000
     25         25.455241   0.000000
     26         26.220872   0.000000
     27         26.676551   0.000000
     28         28.115886   0.000000
     29         29.497879   0.000000
     30         30.180417   0.000000
     31         30.505048   0.000000
     32         31.257100   0.000000
     33         31.963986   0.000000
     34         32.595834   0.000000
     35         32.890627   0.000000
     36         34.231965   0.000000
 
  0.3333333E+00  0.1333333E+00  0.1290354E-14  0.3555556E-02
      1        -19.137377   1.000000
      2        -19.135243   1.000000
      3        -19.128129   1.000000
      4        -19.127265   1.000000
      5        -19.122740   1.000000
      6         -6.403538   1.000000
      7         -1.641301   1.000000
      8          2.996939   1.000000
      9          3.324575   1.000000
     10          4.653269   1.000000
     11          7.202172   0.000000
     12          8.197374   0.000000
     13          8.560987   0.000000
     14         10.678899   0.000000
     15         13.346956   0.000000
     16         14.037449   0.000000
     17         15.928727   0.000000
     18         16.427948   0.000000
     19         18.126632   0.000000
     20         18.869107   0.000000
     21         19.549135   0.000000
     22         20.955421   0.000000
     23         23.525859   0.000000
     24         24.385181   0.000000
     25         24.786391   0.000000
     26         26.095829   0.000000
     27         26.772416   0.000000
     28         28.185396   0.000000
     29         28.381299   0.000000
     30         29.062364   0.000000
     31         29.899124   0.000000
     32         30.773226   0.000000
     33         31.342416   0.000000
     34         31.934049   0.000000
     35         33.079590   0.000000
     36         33.400865   0.000000
 
  0.4000000E+00  0.1333333E+00  0.1299046E-14  0.3555556E-02
      1        -19.137559   1.000000
      2        -19.135124   1.000000
      3        -19.128100   1.000000
      4        -19.127343   1.000000
      5        -19.122370   1.000000
      6         -6.062376   1.000000
      7         -2.258461   1.000000
      8          2.955310   1.000000
      9          3.234527   1.000000
     10          4.463178   1.000000
     11          7.355070   0.000000
     12          7.763416   0.000000
     13          8.266578   0.000000
     14         11.321707   0.000000
     15         13.996622   0.000000
     16         15.002298   0.000000
     17         15.982633   0.000000
     18         17.392414   0.000000
     19         17.682645   0.000000
     20         19.045797   0.000000
     21         20.628935   0.000000
     22         21.552740   0.000000
     23         22.561350   0.000000
     24         23.513474   0.000000
     25         24.936487   0.000000
     26         26.351239   0.000000
     27         26.750295   0.000000
     28         27.186884   0.000000
     29         27.862711   0.000000
     30         28.428908   0.000000
     31         29.113991   0.000000
     32         29.771782   0.000000
     33         30.481913   0.000000
     34         31.671570   0.000000
     35         32.005288   0.000000
     36         32.939063   0.000000
 
  0.4666667E+00  0.1333333E+00  0.1335340E-14  0.3555556E-02
      1        -19.137699   1.000000
      2        -19.135026   1.000000
      3        -19.128026   1.000000
      4        -19.127451   1.000000
      5        -19.122101   1.000000
      6         -5.738156   1.000000
      7         -2.776135   1.000000
      8          2.837725   1.000000
      9          3.286872   1.000000
     10          4.409749   1.000000
     11          7.271585   0.000000
     12          7.368353   0.000000
     13          8.200535   0.000000
     14         12.223274   0.000000
     15         14.755739   0.000000
     16         15.008476   0.000000
     17         16.090656   0.000000
     18         16.452899   0.000000
     19         18.906564   0.000000
     20         19.566793   0.000000
     21         21.059748   0.000000
     22         21.773405   0.000000
     23         22.555369   0.000000
     24         23.795900   0.000000
     25         25.234999   0.000000
     26         25.662437   0.000000
     27         26.298271   0.000000
     28         26.755473   0.000000
     29         27.294051   0.000000
     30         27.836616   0.000000
     31         28.257017   0.000000
     32         29.177029   0.000000
     33         29.888005   0.000000
     34         30.983593   0.000000
     35         31.645091   0.000000
     36         32.194515   0.000000
 
 -0.4666667E+00  0.1333333E+00  0.1257526E-14  0.3555556E-02
      1        -19.137773   1.000000
      2        -19.134945   1.000000
      3        -19.127950   1.000000
      4        -19.127569   1.000000
      5        -19.121979   1.000000
      6         -5.550172   1.000000
      7         -3.052277   1.000000
      8          2.692072   1.000000
      9          3.461437   1.000000
     10          4.481840   1.000000
     11          6.938503   0.000000
     12          7.109411   0.000000
     13          8.368955   0.000000
     14         13.237171   0.000000
     15         13.943861   0.000000
     16         15.200835   0.000000
     17         15.799017   0.000000
     18         17.229009   0.000000
     19         18.744877   0.000000
     20         20.193332   0.000000
     21         20.649579   0.000000
     22         22.015067   0.000000
     23         23.920112   0.000000
     24         24.328682   0.000000
     25         24.703335   0.000000
     26         25.171739   0.000000
     27         25.729848   0.000000
     28         26.062194   0.000000
     29         26.998796   0.000000
     30         27.446048   0.000000
     31         28.291493   0.000000
     32         29.166459   0.000000
     33         29.793447   0.000000
     34         30.257190   0.000000
     35         31.240343   0.000000
     36         32.183391   0.000000
 
 -0.4000000E+00  0.1333333E+00  0.1263991E-14  0.3555556E-02
      1        -19.137755   1.000000
      2        -19.134879   1.000000
      3        -19.127929   1.000000
      4        -19.127656   1.000000
      5        -19.122016   1.000000
      6         -5.622439   1.000000
      7         -2.954050   1.000000
      8          2.592954   1.000000
      9          3.697268   1.000000
     10          4.646245   1.000000
     11          6.661851   0.000000
     12          6.877544   0.000000
     13          8.625865   0.000000
     14         12.847093   0.000000
     15         14.079388   0.000000
     16         14.592951   0.000000
     17         16.765122   0.000000
     18         17.487577   0.000000
     19         18.195142   0.000000
     20         19.381363   0.000000
     21         21.920335   0.000000
     22         22.444178   0.000000
     23         23.092476   0.000000
     24         23.504670   0.000000
     25         24.172644   0.000000
     26         25.018803   0.000000
     27         26.195124   0.000000
     28         26.784515   0.000000
     29         27.242305   0.000000
     30         28.202258   0.000000
     31         28.308161   0.000000
     32         29.261585   0.000000
     33         29.709321   0.000000
     34         30.243742   0.000000
     35         31.151649   0.000000
     36         32.210949   0.000000
 
 -0.3333333E+00  0.1333333E+00  0.8383448E-14  0.3555556E-02
      1        -19.137644   1.000000
      2        -19.134860   1.000000
      3        -19.127987   1.000000
      4        -19.127677   1.000000
      5        -19.122208   1.000000
      6         -5.901512   1.000000
      7         -2.538861   1.000000
      8          2.574732   1.000000
      9          3.943193   1.000000
     10          4.851804   1.000000
     11          6.495650   0.000000
     12          6.736226   0.000000
     13          8.898617   0.000000
     14         12.043987   0.000000
     15         13.172942   0.000000
     16         15.680812   0.000000
     17         16.277959   0.000000
     18         17.061447   0.000000
     19         18.402777   0.000000
     20         20.073531   0.000000
     21         20.891582   0.000000
     22         21.479978   0.000000
     23         22.430186   0.000000
     24         23.620815   0.000000
     25         24.358835   0.000000
     26         25.267445   0.000000
     27         26.791783   0.000000
     28         27.772857   0.000000
     29         27.815230   0.000000
     30         28.288989   0.000000
     31         29.220385   0.000000
     32         29.690032   0.000000
     33         30.065524   0.000000
     34         30.916786   0.000000
     35         31.438756   0.000000
     36         32.061948   0.000000
 
 -0.2666667E+00  0.1333333E+00  0.8390615E-14  0.3555556E-02
      1        -19.137451   1.000000
      2        -19.134914   1.000000
      3        -19.128049   1.000000
      4        -19.127669   1.000000
      5        -19.122520   1.000000
      6         -6.245539   1.000000
      7         -1.965621   1.000000
      8          2.656163   1.000000
      9          4.133368   1.000000
     10          5.006084   1.000000
     11          6.481651   0.000000
     12          6.767648   0.000000
     13          9.127874   0.000000
     14         11.387338   0.000000
     15         12.513239   0.000000
     16         15.126553   0.000000
     17         15.530516   0.000000
     18         17.306240   0.000000
     19         19.193311   0.000000
     20         19.562863   0.000000
     21         19.957304   0.000000
     22         20.668412   0.000000
     23         22.155813   0.000000
     24         23.854672   0.000000
     25         25.197224   0.000000
     26         25.962992   0.000000
     27         27.051057   0.000000
     28         27.659864   0.000000
     29         28.264751   0.000000
     30         29.269973   0.000000
     31         29.973522   0.000000
     32         30.541061   0.000000
     33         31.203616   0.000000
     34         31.562650   0.000000
     35         31.974883   0.000000
     36         32.298562   0.000000
 
 -0.2000000E+00  0.1333333E+00  0.1268005E-14  0.3555556E-02
      1        -19.137205   1.000000
      2        -19.135068   1.000000
      3        -19.128054   1.000000
      4        -19.127652   1.000000
      5        -19.122900   1.000000
      6         -6.569917   1.000000
      7         -1.349838   1.000000
      8          2.848431   1.000000
      9          4.206468   1.000000
     10          5.001604   1.000000
     11          6.688176   0.000000
     12          7.017070   0.000000
     13          9.233492   0.000000
     14         10.921865   0.000000
     15         12.136259   0.000000
     16         14.069553   0.000000
     17         14.609844   0.000000
     18         17.426723   0.000000
     19         18.093180   0.000000
     20         18.366618   0.000000
     21         20.226660   0.000000
     22         21.415474   0.000000
     23         22.836293   0.000000
     24         24.098273   0.000000
     25         25.703711   0.000000
     26         26.380644   0.000000
     27         27.357584   0.000000
     28         27.773083   0.000000
     29         28.700593   0.000000
     30         30.383319   0.000000
     31         30.759311   0.000000
     32         31.222257   0.000000
     33         31.544526   0.000000
     34         32.013096   0.000000
     35         32.499451   0.000000
     36         33.673728   0.000000
 
 -0.1333333E+00  0.1333333E+00  0.1274683E-14  0.1777778E-02
      1        -19.136941   1.000000
      2        -19.135313   1.000000
      3        -19.127982   1.000000
      4        -19.127634   1.000000
      5        -19.123286   1.000000
      6         -6.836677   1.000000
      7         -0.773591   1.000000
      8          3.152706   1.000000
      9          4.151168   1.000000
     10          4.837173   1.000000
     11          7.101038   0.000000
     12          7.444318   0.000000
     13          9.134580   0.000000
     14         10.743896   0.000000
     15         11.876128   0.000000
     16         13.103148   0.000000
     17         14.052411   0.000000
     18         16.453161   0.000000
     19         16.967168   0.000000
     20         17.080227   0.000000
     21         21.473986   0.000000
     22         22.638905   0.000000
     23         23.065353   0.000000
     24         25.112602   0.000000
     25         25.704203   0.000000
     26         26.479070   0.000000
     27         27.595008   0.000000
     28         28.225726   0.000000
     29         29.548121   0.000000
     30         30.166308   0.000000
     31         30.543621   0.000000
     32         31.951863   0.000000
     33         32.374323   0.000000
     34         32.791092   0.000000
     35         33.244224   0.000000
     36         33.990569   0.000000
 
  0.2000000E+00  0.2000000E+00  0.8378548E-14  0.1777778E-02
      1        -19.137302   1.000000
      2        -19.135322   1.000000
      3        -19.128159   1.000000
      4        -19.127058   1.000000
      5        -19.123328   1.000000
      6         -6.818970   1.000000
      7         -0.647147   1.000000
      8          2.945519   1.000000
      9          3.338375   1.000000
     10          4.797675   1.000000
     11          7.209897   0.000000
     12          8.588257   0.000000
     13          9.493183   0.000000
     14         10.646372   0.000000
     15         12.779197   0.000000
     16         13.086908   0.000000
     17         14.245519   0.000000
     18         14.385927   0.000000
     19         16.420565   0.000000
     20         18.571086   0.000000
     21         21.391279   0.000000
     22         21.601264   0.000000
     23         23.400815   0.000000
     24         23.965458   0.000000
     25         26.003217   0.000000
     26         26.553358   0.000000
     27         26.914604   0.000000
     28         28.449632   0.000000
     29         30.154958   0.000000
     30         30.533593   0.000000
     31         31.313758   0.000000
     32         31.397137   0.000000
     33         32.149220   0.000000
     34         32.189393   0.000000
     35         32.999227   0.000000
     36         33.439449   0.000000
 
  0.2666667E+00  0.2000000E+00  0.1290354E-14  0.3555556E-02
      1        -19.137593   1.000000
      2        -19.135104   1.000000
      3        -19.128299   1.000000
      4        -19.126936   1.000000
      5        -19.123021   1.000000
      6         -6.622709   1.000000
      7         -0.992581   1.000000
      8          2.736561   1.000000
      9          3.170865   1.000000
     10          4.322575   1.000000
     11          7.682160   0.000000
     12          8.585333   0.000000
     13          9.492618   0.000000
     14         10.472838   0.000000
     15         13.337916   0.000000
     16         13.655775   0.000000
     17         14.545276   0.000000
     18         15.044904   0.000000
     19         17.363502   0.000000
     20         19.262038   0.000000
     21         20.348010   0.000000
     22         21.331258   0.000000
     23         22.598954   0.000000
     24         23.865976   0.000000
     25         25.343737   0.000000
     26         26.119957   0.000000
     27         26.816244   0.000000
     28         28.321025   0.000000
     29         28.991023   0.000000
     30         29.760869   0.000000
     31         31.075669   0.000000
     32         31.565309   0.000000
     33         32.265782   0.000000
     34         32.536203   0.000000
     35         32.763948   0.000000
     36         33.705771   0.000000
 
  0.3333333E+00  0.2000000E+00  0.1299046E-14  0.3555556E-02
      1        -19.137776   1.000000
      2        -19.134990   1.000000
      3        -19.128374   1.000000
      4        -19.126903   1.000000
      5        -19.122659   1.000000
      6         -6.358226   1.000000
      7         -1.469105   1.000000
      8          2.575756   1.000000
      9          3.003796   1.000000
     10          3.957560   1.000000
     11          8.128737   0.000000
     12          8.644639   0.000000
     13          9.252001   0.000000
     14         10.247226   0.000000
     15         14.000336   0.000000
     16         14.426372   0.000000
     17         15.256553   0.000000
     18         15.928806   0.000000
     19         18.280081   0.000000
     20         18.743385   0.000000
     21         19.846442   0.000000
     22         21.338793   0.000000
     23         22.802370   0.000000
     24         23.835915   0.000000
     25         24.458782   0.000000
     26         25.391695   0.000000
     27         26.771324   0.000000
     28         27.547508   0.000000
     29         28.453139   0.000000
     30         28.955719   0.000000
     31         30.000486   0.000000
     32         31.275312   0.000000
     33         31.600311   0.000000
     34         32.643866   0.000000
     35         33.359461   0.000000
     36         33.958565   0.000000
 
  0.4000000E+00  0.2000000E+00  0.1309811E-14  0.3555556E-02
      1        -19.137841   1.000000
      2        -19.134985   1.000000
      3        -19.128362   1.000000
      4        -19.126960   1.000000
      5        -19.122317   1.000000
      6         -6.046443   1.000000
      7         -2.003084   1.000000
      8          2.395492   1.000000
      9          2.888910   1.000000
     10          3.787292   1.000000
     11          8.384715   0.000000
     12          8.527441   0.000000
     13          9.033135   0.000000
     14         10.401512   0.000000
     15         14.647729   0.000000
     16         15.370521   0.000000
     17         15.893473   0.000000
     18         16.743139   0.000000
     19         17.419631   0.000000
     20         18.865773   0.000000
     21         20.335543   0.000000
     22         22.046149   0.000000
     23         23.007425   0.000000
     24         23.363212   0.000000
     25         24.099840   0.000000
     26         24.914718   0.000000
     27         26.184719   0.000000
     28         27.080763   0.000000
     29         28.037420   0.000000
     30         28.440698   0.000000
     31         29.004939   0.000000
     32         30.414040   0.000000
     33         30.708792   0.000000
     34         32.317544   0.000000
     35         32.763417   0.000000
     36         33.224462   0.000000
 
  0.4666667E+00  0.2000000E+00  0.8362106E-14  0.3555556E-02
      1        -19.137808   1.000000
      2        -19.135045   1.000000
      3        -19.128265   1.000000
      4        -19.127095   1.000000
      5        -19.122055   1.000000
      6         -5.730387   1.000000
      7         -2.504833   1.000000
      8          2.161331   1.000000
      9          2.924541   1.000000
     10          3.780010   1.000000
     11          8.079458   0.000000
     12          8.319985   0.000000
     13          9.147820   0.000000
     14         11.037184   0.000000
     15         15.084496   0.000000
     16         15.408072   0.000000
     17         16.405200   0.000000
     18         16.581681   0.000000
     19         17.963315   0.000000
     20         19.275527   0.000000
     21         21.151229   0.000000
     22         21.922361   0.000000
     23         22.678516   0.000000
     24         23.636265   0.000000
     25         24.526185   0.000000
     26         25.119005   0.000000
     27         25.443882   0.000000
     28         26.732231   0.000000
     29         27.184751   0.000000
     30         27.911338   0.000000
     31         28.641048   0.000000
     32         29.120260   0.000000
     33         29.787692   0.000000
     34         31.542618   0.000000
     35         32.156494   0.000000
     36         32.542751   0.000000
 
 -0.4666667E+00  0.2000000E+00  0.1267332E-14  0.3555556E-02
      1        -19.137723   1.000000
      2        -19.135109   1.000000
      3        -19.128118   1.000000
      4        -19.127289   1.000000
      5        -19.121915   1.000000
      6         -5.496872   1.000000
      7         -2.856334   1.000000
      8          1.958019   1.000000
      9          3.087781   1.000000
     10          3.891351   1.000000
     11          7.662369   0.000000
     12          7.962736   0.000000
     13          9.420049   0.000000
     14         11.962995   0.000000
     15         14.073894   0.000000
     16         15.291390   0.000000
     17         16.308007   0.000000
     18         17.550793   0.000000
     19         19.241533   0.000000
     20         19.952802   0.000000
     21         20.029612   0.000000
     22         21.791319   0.000000
     23         23.732786   0.000000
     24         23.892071   0.000000
     25         24.800929   0.000000
     26         25.190454   0.000000
     27         25.483960   0.000000
     28         26.173116   0.000000
     29         26.629133   0.000000
     30         27.068411   0.000000
     31         27.994413   0.000000
     32         28.493847   0.000000
     33         29.620915   0.000000
     34         30.742502   0.000000
     35         31.623843   0.000000
     36         32.198888   0.000000
 
 -0.4000000E+00  0.2000000E+00  0.8384562E-14  0.3555556E-02
      1        -19.137627   1.000000
      2        -19.135119   1.000000
      3        -19.127967   1.000000
      4        -19.127514   1.000000
      5        -19.121907   1.000000
      6         -5.467011   1.000000
      7         -2.922176   1.000000
      8          1.849044   1.000000
      9          3.340705   1.000000
     10          4.098929   1.000000
     11          7.273680   0.000000
     12          7.585151   0.000000
     13          9.673312   0.000000
     14         12.839833   0.000000
     15         13.346646   0.000000
     16         14.265506   0.000000
     17         17.064487   0.000000
     18         18.043312   0.000000
     19         19.005507   0.000000
     20         19.660111   0.000000
     21         20.946568   0.000000
     22         22.427844   0.000000
     23         23.233979   0.000000
     24         23.839144   0.000000
     25         24.410613   0.000000
     26         24.937076   0.000000
     27         25.303082   0.000000
     28         26.040588   0.000000
     29         26.818122   0.000000
     30         27.619923   0.000000
     31         28.015179   0.000000
     32         28.435800   0.000000
     33         29.913282   0.000000
     34         30.066391   0.000000
     35         31.194951   0.000000
     36         32.411393   0.000000
 
 -0.3333333E+00  0.2000000E+00  0.8389502E-14  0.3555556E-02
      1        -19.137543   1.000000
      2        -19.135066   1.000000
      3        -19.127878   1.000000
      4        -19.127704   1.000000
      5        -19.122031   1.000000
      6         -5.662934   1.000000
      7         -2.682073   1.000000
      8          1.867603   1.000000
      9          3.649533   1.000000
     10          4.384038   1.000000
     11          6.936063   0.000000
     12          7.233980   0.000000
     13          9.848294   0.000000
     14         12.194616   0.000000
     15         13.450436   0.000000
     16         14.356195   0.000000
     17         16.569472   0.000000
     18         17.871487   0.000000
     19         18.746747   0.000000
     20         20.571014   0.000000
     21         21.960234   0.000000
     22         22.110337   0.000000
     23         22.557696   0.000000
     24         22.908546   0.000000
     25         23.738255   0.000000
     26         24.473247   0.000000
     27         25.604072   0.000000
     28         26.709942   0.000000
     29         27.784818   0.000000
     30         28.271781   0.000000
     31         28.432981   0.000000
     32         29.299736   0.000000
     33         29.753842   0.000000
     34         30.415897   0.000000
     35         31.240739   0.000000
     36         32.840646   0.000000
 
 -0.2666667E+00  0.2000000E+00  0.1258432E-14  0.3555556E-02
      1        -19.137460   1.000000
      2        -19.134995   1.000000
      3        -19.127973   1.000000
      4        -19.127706   1.000000
      5        -19.122260   1.000000
      6         -5.971602   1.000000
      7         -2.264744   1.000000
      8          2.035793   1.000000
      9          3.961303   1.000000
     10          4.708289   1.000000
     11          6.668190   0.000000
     12          6.957365   0.000000
     13          9.875954   0.000000
     14         11.515082   0.000000
     15         12.928801   0.000000
     16         15.015158   0.000000
     17         16.245193   0.000000
     18         16.611422   0.000000
     19         19.817278   0.000000
     20         20.696679   0.000000
     21         20.982054   0.000000
     22         21.323310   0.000000
     23         21.856467   0.000000
     24         23.084002   0.000000
     25         24.052900   0.000000
     26         24.902387   0.000000
     27         26.044841   0.000000
     28         27.904411   0.000000
     29         28.043637   0.000000
     30         28.512097   0.000000
     31         28.941683   0.000000
     32         29.915991   0.000000
     33         30.848101   0.000000
     34         31.233312   0.000000
     35         31.802031   0.000000
     36         33.060608   0.000000
 
 -0.2000000E+00  0.2000000E+00  0.1271131E-14  0.1777778E-02
      1        -19.137355   1.000000
      2        -19.134979   1.000000
      3        -19.128062   1.000000
      4        -19.127668   1.000000
      5        -19.122565   1.000000
      6         -6.291267   1.000000
      7         -1.795700   1.000000
      8          2.365813   1.000000
      9          4.182041   1.000000
     10          4.971082   1.000000
     11          6.538352   0.000000
     12          6.848797   0.000000
     13          9.677911   0.000000
     14         11.065759   0.000000
     15         12.550662   0.000000
     16         14.621487   0.000000
     17         15.327963   0.000000
     18         17.225805   0.000000
     19         19.230131   0.000000
     20         19.575814   0.000000
     21         20.209190   0.000000
     22         21.397389   0.000000
     23         21.948330   0.000000
     24         23.691806   0.000000
     25         24.777334   0.000000
     26         25.401742   0.000000
     27         27.098691   0.000000
     28         27.706864   0.000000
     29         28.281930   0.000000
     30         29.435579   0.000000
     31         30.046537   0.000000
     32         30.753392   0.000000
     33         31.212167   0.000000
     34         31.931059   0.000000
     35         32.443223   0.000000
     36         32.950240   0.000000
 
  0.2666667E+00  0.2666667E+00  0.1299046E-14  0.1777778E-02
      1        -19.138026   1.000000
      2        -19.134795   1.000000
      3        -19.128490   1.000000
      4        -19.126707   1.000000
      5        -19.122780   1.000000
      6         -6.466387   1.000000
      7         -1.121251   1.000000
      8          2.442704   1.000000
      9          2.983782   1.000000
     10          3.720032   1.000000
     11          8.383262   0.000000
     12          8.441899   0.000000
     13          9.860732   0.000000
     14         10.711986   0.000000
     15         13.790700   0.000000
     16         13.880097   0.000000
     17         14.945462   0.000000
     18         15.158448   0.000000
     19         17.867588   0.000000
     20         19.783954   0.000000
     21         20.164760   0.000000
     22         20.971935   0.000000
     23         21.944388   0.000000
     24         22.946991   0.000000
     25         24.368774   0.000000
     26         26.363078   0.000000
     27         27.200732   0.000000
     28         28.075963   0.000000
     29         28.198842   0.000000
     30         29.012738   0.000000
     31         31.275796   0.000000
     32         31.581920   0.000000
     33         32.105898   0.000000
     34         32.562561   0.000000
     35         32.738132   0.000000
     36         33.685686   0.000000
 
  0.3333333E+00  0.2666667E+00  0.1335340E-14  0.3555556E-02
      1        -19.138320   1.000000
      2        -19.134605   1.000000
      3        -19.128616   1.000000
      4        -19.126582   1.000000
      5        -19.122477   1.000000
      6         -6.244129   1.000000
      7         -1.404641   1.000000
      8          2.175880   1.000000
      9          2.802103   1.000000
     10          3.321764   1.000000
     11          8.427311   0.000000
     12          9.048545   0.000000
     13          9.873776   0.000000
     14         10.614363   0.000000
     15         14.382407   0.000000
     16         14.562748   0.000000
     17         15.290909   0.000000
     18         15.904753   0.000000
     19         18.555269   0.000000
     20         18.947156   0.000000
     21         20.054196   0.000000
     22         20.661115   0.000000
     23         21.959307   0.000000
     24         23.224893   0.000000
     25         23.496068   0.000000
     26         26.293903   0.000000
     27         26.611904   0.000000
     28         27.257028   0.000000
     29         27.555286   0.000000
     30         28.826499   0.000000
     31         30.543201   0.000000
     32         30.973797   0.000000
     33         32.002490   0.000000
     34         32.876627   0.000000
     35         33.184739   0.000000
     36         33.472895   0.000000
 
  0.4000000E+00  0.2666667E+00  0.8415390E-14  0.3555556E-02
      1        -19.138413   1.000000
      2        -19.134584   1.000000
      3        -19.128642   1.000000
      4        -19.126573   1.000000
      5        -19.122176   1.000000
      6         -5.974016   1.000000
      7         -1.796968   1.000000
      8          1.878214   1.000000
      9          2.637790   1.000000
     10          3.205279   1.000000
     11          8.636536   0.000000
     12          9.463029   0.000000
     13          9.713814   0.000000
     14         10.357632   0.000000
     15         15.294438   0.000000
     16         15.425367   0.000000
     17         15.760540   0.000000
     18         16.621772   0.000000
     19         17.507894   0.000000
     20         18.892184   0.000000
     21         20.230309   0.000000
     22         21.137794   0.000000
     23         22.008779   0.000000
     24         22.835023   0.000000
     25         24.246521   0.000000
     26         25.213331   0.000000
     27         25.750286   0.000000
     28         26.783239   0.000000
     29         27.254230   0.000000
     30         28.797195   0.000000
     31         29.665695   0.000000
     32         30.151061   0.000000
     33         31.337516   0.000000
     34         32.163345   0.000000
     35         33.279908   0.000000
     36         33.793075   0.000000
 
  0.4666667E+00  0.2666667E+00  0.1327196E-14  0.3555556E-02
      1        -19.138307   1.000000
      2        -19.134718   1.000000
      3        -19.128563   1.000000
      4        -19.126682   1.000000
      5        -19.121944   1.000000
      6         -5.689300   1.000000
      7         -2.223887   1.000000
      8          1.566287   1.000000
      9          2.622495   1.000000
     10          3.244050   1.000000
     11          8.737380   0.000000
     12          9.218869   0.000000
     13          9.954852   0.000000
     14         10.415916   0.000000
     15         15.348234   0.000000
     16         16.080871   0.000000
     17         16.491079   0.000000
     18         16.885390   0.000000
     19         17.327143   0.000000
     20         18.814216   0.000000
     21         20.621084   0.000000
     22         21.578673   0.000000
     23         22.384224   0.000000
     24         23.262969   0.000000
     25         24.013853   0.000000
     26         24.317272   0.000000
     27         25.637683   0.000000
     28         26.202159   0.000000
     29         27.334677   0.000000
     30         28.433763   0.000000
     31         28.904307   0.000000
     32         29.607996   0.000000
     33         30.447462   0.000000
     34         30.715067   0.000000
     35         32.714004   0.000000
     36         33.052681   0.000000
 
 -0.4666667E+00  0.2666667E+00  0.8398439E-14  0.3555556E-02
      1        -19.138049   1.000000
      2        -19.134940   1.000000
      3        -19.128394   1.000000
      4        -19.126892   1.000000
      5        -19.121814   1.000000
      6         -5.450681   1.000000
      7         -2.590753   1.000000
      8          1.331827   1.000000
      9          2.746777   1.000000
     10          3.378416   1.000000
     11          8.434698   0.000000
     12          8.818767   0.000000
     13         10.386179   0.000000
     14         10.897202   0.000000
     15         14.392310   0.000000
     16         15.533660   0.000000
     17         17.012089   0.000000
     18         17.692048   0.000000
     19         18.478260   0.000000
     20         19.430541   0.000000
     21         19.967070   0.000000
     22         22.349415   0.000000
     23         22.835551   0.000000
     24         23.196761   0.000000
     25         23.706843   0.000000
     26         24.373108   0.000000
     27         25.479958   0.000000
     28         26.494862   0.000000
     29         27.018992   0.000000
     30         27.789730   0.000000
     31         28.252190   0.000000
     32         28.922557   0.000000
     33         29.592510   0.000000
     34         30.319015   0.000000
     35         31.654480   0.000000
     36         32.388135   0.000000
 
 -0.4000000E+00  0.2666667E+00  0.8367015E-14  0.3555556E-02
      1        -19.137741   1.000000
      2        -19.135154   1.000000
      3        -19.128183   1.000000
      4        -19.127175   1.000000
      5        -19.121796   1.000000
      6         -5.348820   1.000000
      7         -2.788562   1.000000
      8          1.235046   1.000000
      9          2.976460   1.000000
     10          3.600824   1.000000
     11          7.995097   0.000000
     12          8.340226   0.000000
     13         10.657609   0.000000
     14         11.781546   0.000000
     15         13.434796   0.000000
     16         14.623803   0.000000
     17         17.281513   0.000000
     18         18.219339   0.000000
     19         19.633099   0.000000
     20         19.790120   0.000000
     21         20.503313   0.000000
     22         21.705993   0.000000
     23         22.523573   0.000000
     24         23.585280   0.000000
     25         24.065862   0.000000
     26         25.108620   0.000000
     27         25.308723   0.000000
     28         25.953092   0.000000
     29         26.411944   0.000000
     30         27.402832   0.000000
     31         28.194117   0.000000
     32         28.701782   0.000000
     33         29.600684   0.000000
     34         30.347171   0.000000
     35         31.059113   0.000000
     36         31.596228   0.000000
 
 -0.3333333E+00  0.2666667E+00  0.1274387E-14  0.3555556E-02
      1        -19.137514   1.000000
      2        -19.135240   1.000000
      3        -19.127980   1.000000
      4        -19.127481   1.000000
      5        -19.121878   1.000000
      6         -5.442827   1.000000
      7         -2.755392   1.000000
      8          1.310266   1.000000
      9          3.284428   1.000000
     10          3.909755   1.000000
     11          7.530175   0.000000
     12          7.841255   0.000000
     13         10.681476   0.000000
     14         12.460715   0.000000
     15         13.036380   0.000000
     16         13.950556   0.000000
     17         16.464397   0.000000
     18         19.207162   0.000000
     19         19.311160   0.000000
     20         20.755832   0.000000
     21         21.222034   0.000000
     22         21.360294   0.000000
     23         22.784701   0.000000
     24         23.472230   0.000000
     25         23.919967   0.000000
     26         24.130354   0.000000
     27         25.112839   0.000000
     28         25.950579   0.000000
     29         26.583753   0.000000
     30         28.069709   0.000000
     31         28.455816   0.000000
     32         29.086841   0.000000
     33         29.887232   0.000000
     34         30.258526   0.000000
     35         31.170941   0.000000
     36         31.463856   0.000000
 
 -0.2666667E+00  0.2666667E+00  0.1277299E-14  0.1777778E-02
      1        -19.137443   1.000000
      2        -19.135153   1.000000
      3        -19.127847   1.000000
      4        -19.127734   1.000000
      5        -19.122038   1.000000
      6         -5.682199   1.000000
      7         -2.547802   1.000000
      8          1.577198   1.000000
      9          3.635258   1.000000
     10          4.293711   1.000000
     11          7.066923   0.000000
     12          7.362890   0.000000
     13         10.425627   0.000000
     14         11.875200   0.000000
     15         13.432668   0.000000
     16         14.177153   0.000000
     17         15.887319   0.000000
     18         18.019774   0.000000
     19         20.302494   0.000000
     20         20.452328   0.000000
     21         21.831646   0.000000
     22         22.189767   0.000000
     23         22.270668   0.000000
     24         22.731468   0.000000
     25         22.954565   0.000000
     26         24.588599   0.000000
     27         25.082037   0.000000
     28         26.810622   0.000000
     29         27.405657   0.000000
     30         28.278109   0.000000
     31         28.806851   0.000000
     32         29.628312   0.000000
     33         30.011659   0.000000
     34         30.861528   0.000000
     35         31.515966   0.000000
     36         32.161615   0.000000
 
  0.3333333E+00  0.3333333E+00  0.8362106E-14  0.1777778E-02
      1        -19.138767   1.000000
      2        -19.134299   1.000000
      3        -19.128800   1.000000
      4        -19.126353   1.000000
      5        -19.122231   1.000000
      6         -6.070454   1.000000
      7         -1.481134   1.000000
      8          1.807637   1.000000
      9          2.683654   1.000000
     10          2.848127   1.000000
     11          8.199020   0.000000
     12          9.860586   0.000000
     13         10.247570   0.000000
     14         10.965556   0.000000
     15         14.395390   0.000000
     16         14.931710   0.000000
     17         15.856028   0.000000
     18         16.406587   0.000000
     19         18.839858   0.000000
     20         19.212512   0.000000
     21         19.617476   0.000000
     22         20.477005   0.000000
     23         20.634409   0.000000
     24         22.331654   0.000000
     25         24.225012   0.000000
     26         25.746979   0.000000
     27         26.163621   0.000000
     28         26.770404   0.000000
     29         27.545136   0.000000
     30         29.126299   0.000000
     31         29.567476   0.000000
     32         31.503027   0.000000
     33         32.319557   0.000000
     34         32.517556   0.000000
     35         32.716474   0.000000
     36         32.838611   0.000000
 
  0.4000000E+00  0.3333333E+00  0.1327196E-14  0.3555556E-02
      1        -19.138994   1.000000
      2        -19.134177   1.000000
      3        -19.128884   1.000000
      4        -19.126254   1.000000
      5        -19.121983   1.000000
      6         -5.853755   1.000000
      7         -1.690995   1.000000
      8          1.443175   1.000000
      9          2.486975   1.000000
     10          2.745794   1.000000
     11          8.242405   0.000000
     12         10.232240   0.000000
     13         10.529701   0.000000
     14         10.909658   0.000000
     15         14.980320   0.000000
     16         15.507186   0.000000
     17         16.379901   0.000000
     18         17.061843   0.000000
     19         17.882022   0.000000
     20         19.090571   0.000000
     21         19.706778   0.000000
     22         20.560973   0.000000
     23         20.913746   0.000000
     24         21.531681   0.000000
     25         24.404690   0.000000
     26         25.205659   0.000000
     27         25.535097   0.000000
     28         26.705546   0.000000
     29         27.469393   0.000000
     30         28.728157   0.000000
     31         29.153119   0.000000
     32         30.775206   0.000000
     33         31.915328   0.000000
     34         32.288580   0.000000
     35         33.219826   0.000000
     36         33.294934   0.000000
 
  0.4666667E+00  0.3333333E+00  0.1308132E-14  0.3555556E-02
      1        -19.138948   1.000000
      2        -19.134259   1.000000
      3        -19.128848   1.000000
      4        -19.126302   1.000000
      5        -19.121792   1.000000
      6         -5.621483   1.000000
      7         -1.987682   1.000000
      8          1.104416   1.000000
      9          2.404382   1.000000
     10          2.813029   1.000000
     11          8.553433   0.000000
     12          9.957186   0.000000
     13         10.486944   0.000000
     14         11.112110   0.000000
     15         15.677938   0.000000
     16         15.994327   0.000000
     17         16.636764   0.000000
     18         17.156327   0.000000
     19         17.745659   0.000000
     20         18.626183   0.000000
     21         19.909752   0.000000
     22         20.776319   0.000000
     23         21.429027   0.000000
     24         22.247197   0.000000
     25         23.141214   0.000000
     26         24.646100   0.000000
     27         25.879707   0.000000
     28         26.597911   0.000000
     29         27.471805   0.000000
     30         28.247533   0.000000
     31         29.140031   0.000000
     32         29.669979   0.000000
     33         31.186935   0.000000
     34         31.319137   0.000000
     35         32.890418   0.000000
     36         33.705103   0.000000
 
 -0.4666667E+00  0.3333333E+00  0.8361746E-14  0.3555556E-02
      1        -19.138654   1.000000
      2        -19.134515   1.000000
      3        -19.128696   1.000000
      4        -19.126487   1.000000
      5        -19.121689   1.000000
      6         -5.415944   1.000000
      7         -2.305325   1.000000
      8          0.869395   1.000000
      9          2.475289   1.000000
     10          2.959516   1.000000
     11          8.880959   0.000000
     12          9.574664   0.000000
     13         10.219284   0.000000
     14         11.435426   0.000000
     15         14.851191   0.000000
     16         15.936674   0.000000
     17         17.143319   0.000000
     18         17.860645   0.000000
     19         18.220123   0.000000
     20         18.908859   0.000000
     21         19.801408   0.000000
     22         21.352861   0.000000
     23         21.831398   0.000000
     24         22.232896   0.000000
     25         23.794825   0.000000
     26         24.201758   0.000000
     27         24.804300   0.000000
     28         27.271437   0.000000
     29         27.473237   0.000000
     30         28.219402   0.000000
     31         28.548875   0.000000
     32         29.271493   0.000000
     33         29.680266   0.000000
     34         30.416628   0.000000
     35         32.545738   0.000000
     36         32.928020   0.000000
 
 -0.4000000E+00  0.3333333E+00  0.1278413E-14  0.3555556E-02
      1        -19.138201   1.000000
      2        -19.134864   1.000000
      3        -19.128465   1.000000
      4        -19.126781   1.000000
      5        -19.121685   1.000000
      6         -5.293316   1.000000
      7         -2.571950   1.000000
      8          0.805051   1.000000
      9          2.663198   1.000000
     10          3.187811   1.000000
     11          8.674628   0.000000
     12          9.071852   0.000000
     13         10.691764   0.000000
     14         11.520835   0.000000
     15         13.895790   0.000000
     16         15.155692   0.000000
     17         17.379386   0.000000
     18         18.618316   0.000000
     19         18.920288   0.000000
     20         19.592114   0.000000
     21         20.443025   0.000000
     22         20.980044   0.000000
     23         22.067572   0.000000
     24         22.961157   0.000000
     25         23.468895   0.000000
     26         23.993168   0.000000
     27         25.795638   0.000000
     28         26.556782   0.000000
     29         27.159420   0.000000
     30         27.871324   0.000000
     31         28.309965   0.000000
     32         28.646533   0.000000
     33         29.269518   0.000000
     34         30.320515   0.000000
     35         31.513648   0.000000
     36         32.067785   0.000000
 
 -0.3333333E+00  0.3333333E+00  0.1278120E-14  0.1777778E-02
      1        -19.137749   1.000000
      2        -19.135164   1.000000
      3        -19.128205   1.000000
      4        -19.127133   1.000000
      5        -19.121756   1.000000
      6         -5.302208   1.000000
      7         -2.727467   1.000000
      8          0.949249   1.000000
      9          2.941570   1.000000
     10          3.504695   1.000000
     11          8.146347   0.000000
     12          8.464634   0.000000
     13         11.264128   0.000000
     14         11.710825   0.000000
     15         13.102875   0.000000
     16         14.521482   0.000000
     17         16.761601   0.000000
     18         19.697977   0.000000
     19         19.791120   0.000000
     20         20.031403   0.000000
     21         20.233158   0.000000
     22         21.599370   0.000000
     23         21.936630   0.000000
     24         22.901549   0.000000
     25         24.103891   0.000000
     26         24.678086   0.000000
     27         25.274574   0.000000
     28         25.567709   0.000000
     29         27.250364   0.000000
     30         27.716391   0.000000
     31         28.045855   0.000000
     32         28.482320   0.000000
     33         29.827979   0.000000
     34         30.386314   0.000000
     35         30.879906   0.000000
     36         31.548583   0.000000
 
  0.4000000E+00  0.4000000E+00  0.1308132E-14  0.1777778E-02
      1        -19.139380   1.000000
      2        -19.133921   1.000000
      3        -19.129036   1.000000
      4        -19.126059   1.000000
      5        -19.121785   1.000000
      6         -5.701596   1.000000
      7         -1.712278   1.000000
      8          1.085446   1.000000
      9          2.404874   1.000000
     10          2.469484   1.000000
     11          8.016822   0.000000
     12         10.589680   0.000000
     13         11.216475   0.000000
     14         11.345440   0.000000
     15         14.925510   0.000000
     16         15.750667   0.000000
     17         17.067070   0.000000
     18         17.572016   0.000000
     19         18.104960   0.000000
     20         18.860277   0.000000
     21         19.515894   0.000000
     22         19.575543   0.000000
     23         20.607270   0.000000
     24         21.315317   0.000000
     25         23.625475   0.000000
     26         24.052624   0.000000
     27         26.466177   0.000000
     28         26.912992   0.000000
     29         27.464583   0.000000
     30         28.074665   0.000000
     31         29.349278   0.000000
     32         31.431259   0.000000
     33         32.004472   0.000000
     34         32.354101   0.000000
     35         32.424293   0.000000
     36         32.690348   0.000000
 
  0.4666667E+00  0.4000000E+00  0.1267841E-14  0.3555556E-02
      1        -19.139474   1.000000
      2        -19.133887   1.000000
      3        -19.129063   1.000000
      4        -19.126022   1.000000
      5        -19.121638   1.000000
      6         -5.541114   1.000000
      7         -1.846467   1.000000
      8          0.793853   1.000000
      9          2.279413   1.000000
     10          2.501678   1.000000
     11          8.107724   0.000000
     12         10.545383   0.000000
     13         11.131731   0.000000
     14         11.867136   0.000000
     15         15.440504   0.000000
     16         16.073648   0.000000
     17         17.027610   0.000000
     18         17.518365   0.000000
     19         18.306477   0.000000
     20         18.760679   0.000000
     21         19.243353   0.000000
     22         19.882315   0.000000
     23         20.400000   0.000000
     24         22.276131   0.000000
     25         22.533022   0.000000
     26         23.307455   0.000000
     27         26.304809   0.000000
     28         27.201602   0.000000
     29         27.558624   0.000000
     30         27.965993   0.000000
     31         29.348897   0.000000
     32         30.657323   0.000000
     33         31.614154   0.000000
     34         31.980710   0.000000
     35         32.611120   0.000000
     36         33.086123   0.000000
 
 -0.4666667E+00  0.4000000E+00  0.1270639E-14  0.3555556E-02
      1        -19.139252   1.000000
      2        -19.134077   1.000000
      3        -19.128958   1.000000
      4        -19.126148   1.000000
      5        -19.121575   1.000000
      6         -5.401666   1.000000
      7         -2.057869   1.000000
      8          0.606277   1.000000
      9          2.291683   1.000000
     10          2.640605   1.000000
     11          8.488461   0.000000
     12         10.216595   0.000000
     13         10.671088   0.000000
     14         12.134368   0.000000
     15         15.471031   0.000000
     16         16.320090   0.000000
     17         16.497448   0.000000
     18         17.789815   0.000000
     19         18.484618   0.000000
     20         19.127090   0.000000
     21         19.501564   0.000000
     22         20.298815   0.000000
     23         20.952196   0.000000
     24         21.464033   0.000000
     25         22.734778   0.000000
     26         23.929787   0.000000
     27         25.740565   0.000000
     28         26.613693   0.000000
     29         27.644042   0.000000
     30         28.494090   0.000000
     31         29.422417   0.000000
     32         29.609990   0.000000
     33         30.848211   0.000000
     34         31.056145   0.000000
     35         32.468995   0.000000
     36         33.237371   0.000000
 
 -0.4000000E+00  0.4000000E+00  0.1271879E-14  0.1777778E-02
      1        -19.138782   1.000000
      2        -19.134442   1.000000
      3        -19.128743   1.000000
      4        -19.126416   1.000000
      5        -19.121600   1.000000
      6         -5.312440   1.000000
      7         -2.312578   1.000000
      8          0.594573   1.000000
      9          2.428029   1.000000
     10          2.868268   1.000000
     11          8.915027   0.000000
     12          9.723921   0.000000
     13         10.251632   0.000000
     14         12.029836   0.000000
     15         14.586065   0.000000
     16         15.789237   0.000000
     17         17.211151   0.000000
     18         18.105184   0.000000
     19         18.741126   0.000000
     20         19.630677   0.000000
     21         19.917802   0.000000
     22         20.600713   0.000000
     23         20.931562   0.000000
     24         22.429789   0.000000
     25         22.642736   0.000000
     26         24.772914   0.000000
     27         25.342883   0.000000
     28         26.410491   0.000000
     29         27.512806   0.000000
     30         28.477783   0.000000
     31         28.711868   0.000000
     32         29.079697   0.000000
     33         29.795159   0.000000
     34         30.652805   0.000000
     35         32.191259   0.000000
     36         32.581350   0.000000
 
  0.4666667E+00  0.4666667E+00  0.1248778E-14  0.1777778E-02
      1        -19.139727   1.000000
      2        -19.133716   1.000000
      3        -19.129164   1.000000
      4        -19.125895   1.000000
      5        -19.121536   1.000000
      6         -5.467265   1.000000
      7         -1.818352   1.000000
      8          0.612260   1.000000
      9          2.225469   1.000000
     10          2.358575   1.000000
     11          7.917531   0.000000
     12         10.798610   0.000000
     13         11.449799   0.000000
     14         12.362073   0.000000
     15         15.271746   0.000000
     16         16.458209   0.000000
     17         17.230354   0.000000
     18         17.878043   0.000000
     19         17.909535   0.000000
     20         18.604142   0.000000
     21         19.069077   0.000000
     22         20.130373   0.000000
     23         20.195989   0.000000
     24         21.698477   0.000000
     25         22.078756   0.000000
     26         23.097851   0.000000
     27         25.314906   0.000000
     28         27.448596   0.000000
     29         27.789989   0.000000
     30         28.983495   0.000000
     31         29.482083   0.000000
     32         31.026022   0.000000
     33         31.393027   0.000000
     34         32.030674   0.000000
     35         32.389565   0.000000
     36         32.477407   0.000000
 
 -0.4666667E+00  0.4666667E+00  0.1268683E-14  0.1777778E-02
      1        -19.139649   1.000000
      2        -19.133787   1.000000
      3        -19.129127   1.000000
      4        -19.125939   1.000000
      5        -19.121516   1.000000
      6         -5.417819   1.000000
      7         -1.891420   1.000000
      8          0.537827   1.000000
      9          2.209816   1.000000
     10          2.429850   1.000000
     11          8.059717   0.000000
     12         10.666607   0.000000
     13         11.236486   0.000000
     14         12.467922   0.000000
     15         15.622935   0.000000
     16         16.270924   0.000000
     17         16.897605   0.000000
     18         17.612044   0.000000
     19         18.284597   0.000000
     20         18.897874   0.000000
     21         19.205259   0.000000
     22         20.327784   0.000000
     23         20.538646   0.000000
     24         21.453569   0.000000
     25         21.548229   0.000000
     26         23.901824   0.000000
     27         24.890522   0.000000
     28         27.360420   0.000000
     29         27.674614   0.000000
     30         28.985604   0.000000
     31         29.830678   0.000000
     32         30.461140   0.000000
     33         30.886291   0.000000
     34         31.867179   0.000000
     35         32.305508   0.000000
     36         32.936796   0.000000
 
  0.6666667E-01  0.6666667E-01  0.6666667E-01  0.5925926E-03
      1        -19.136269   1.000000
      2        -19.136269   1.000000
      3        -19.127541   1.000000
      4        -19.127541   1.000000
      5        -19.124131   1.000000
      6         -7.278673   1.000000
      7          0.448628   1.000000
      8          3.915623   1.000000
      9          4.083799   1.000000
     10          4.083799   1.000000
     11          8.288320   0.000000
     12          8.749608   0.000000
     13          8.749608   0.000000
     14         11.510560   0.000000
     15         11.661709   0.000000
     16         11.661709   0.000000
     17         13.648553   0.000000
     18         13.648553   0.000000
     19         13.879041   0.000000
     20         14.190529   0.000000
     21         24.425335   0.000000
     22         24.425335   0.000000
     23         24.723083   0.000000
     24         27.291094   0.000000
     25         27.291094   0.000000
     26         27.685838   0.000000
     27         27.782009   0.000000
     28         28.306587   0.000000
     29         28.306587   0.000000
     30         29.738417   0.000000
     31         29.738417   0.000000
     32         31.879411   0.000000
     33         31.879411   0.000000
     34         32.748609   0.000000
     35         34.339681   0.000000
     36         34.339681   0.000000
 
  0.1333333E+00  0.6666667E-01  0.6666667E-01  0.1777778E-02
      1        -19.136330   1.000000
      2        -19.136248   1.000000
      3        -19.127589   1.000000
      4        -19.127469   1.000000
      5        -19.124024   1.000000
      6         -7.209873   1.000000
      7          0.171221   1.000000
      8          3.677312   1.000000
      9          4.164626   1.000000
     10          4.367681   1.000000
     11          8.106648   0.000000
     12          8.355900   0.000000
     13          8.871045   0.000000
     14         11.329332   0.000000
     15         11.593589   0.000000
     16         11.810705   0.000000
     17         13.641500   0.000000
     18         14.353776   0.000000
     19         14.420173   0.000000
     20         14.765801   0.000000
     21         22.818993   0.000000
     22         24.552224   0.000000
     23         24.695646   0.000000
     24         26.454656   0.000000
     25         26.795774   0.000000
     26         27.839460   0.000000
     27         28.148939   0.000000
     28         28.272575   0.000000
     29         28.739321   0.000000
     30         29.809625   0.000000
     31         30.505018   0.000000
     32         31.669302   0.000000
     33         31.798202   0.000000
     34         32.970142   0.000000
     35         33.591396   0.000000
     36         34.525685   0.000000
 
  0.2000000E+00  0.6666667E-01  0.6666667E-01  0.1777778E-02
      1        -19.136524   1.000000
      2        -19.136059   1.000000
      3        -19.127657   1.000000
      4        -19.127467   1.000000
      5        -19.123752   1.000000
      6         -7.053646   1.000000
      7         -0.324395   1.000000
      8          3.391820   1.000000
      9          4.199882   1.000000
     10          4.753937   1.000000
     11          7.694183   0.000000
     12          7.901113   0.000000
     13          8.888266   0.000000
     14         11.075067   0.000000
     15         11.740772   0.000000
     16         12.012926   0.000000
     17         14.194744   0.000000
     18         15.346633   0.000000
     19         15.503281   0.000000
     20         15.724901   0.000000
     21         21.193480   0.000000
     22         24.395214   0.000000
     23         24.439623   0.000000
     24         25.261734   0.000000
     25         25.973954   0.000000
     26         27.771829   0.000000
     27         28.030049   0.000000
     28         28.450137   0.000000
     29         29.270288   0.000000
     30         29.398638   0.000000
     31         30.393414   0.000000
     32         32.052378   0.000000
     33         32.681514   0.000000
     34         33.060074   0.000000
     35         33.454200   0.000000
     36         34.090612   0.000000
 
  0.2666667E+00  0.6666667E-01  0.6666667E-01  0.1777778E-02
      1        -19.136826   1.000000
      2        -19.135759   1.000000
      3        -19.127709   1.000000
      4        -19.127529   1.000000
      5        -19.123359   1.000000
      6         -6.815641   1.000000
      7         -0.953583   1.000000
      8          3.193805   1.000000
      9          4.185348   1.000000
     10          5.082763   1.000000
     11          7.188740   0.000000
     12          7.470334   0.000000
     13          8.661578   0.000000
     14         11.159962   0.000000
     15         12.133200   0.000000
     16         12.384312   0.000000
     17         15.158702   0.000000
     18         16.511488   0.000000
     19         16.601643   0.000000
     20         17.024945   0.000000
     21         19.751183   0.000000
     22         23.096523   0.000000
     23         23.338740   0.000000
     24         25.316180   0.000000
     25         25.895493   0.000000
     26         27.001597   0.000000
     27         28.150457   0.000000
     28         28.519956   0.000000
     29         29.199970   0.000000
     30         29.295993   0.000000
     31         29.800861   0.000000
     32         31.214030   0.000000
     33         32.556465   0.000000
     34         32.560850   0.000000
     35         33.404162   0.000000
     36         33.916543   0.000000
 
  0.3333333E+00  0.6666667E-01  0.6666667E-01  0.1777778E-02
      1        -19.137192   1.000000
      2        -19.135414   1.000000
      3        -19.127715   1.000000
      4        -19.127630   1.000000
      5        -19.122918   1.000000
      6         -6.507709   1.000000
      7         -1.638323   1.000000
      8          3.101360   1.000000
      9          4.124523   1.000000
     10          5.324199   1.000000
     11          6.705426   0.000000
     12          7.124505   0.000000
     13          8.220281   0.000000
     14         11.674576   0.000000
     15         12.749337   0.000000
     16         12.951477   0.000000
     17         16.238615   0.000000
     18         17.099841   0.000000
     19         17.794836   0.000000
     20         18.574897   0.000000
     21         19.029972   0.000000
     22         21.547316   0.000000
     23         22.176951   0.000000
     24         25.598775   0.000000
     25         25.919015   0.000000
     26         26.103491   0.000000
     27         27.881288   0.000000
     28         28.375744   0.000000
     29         28.789979   0.000000
     30         29.526561   0.000000
     31         29.684540   0.000000
     32         30.068332   0.000000
     33         31.189236   0.000000
     34         31.726790   0.000000
     35         32.212136   0.000000
     36         33.466522   0.000000
 
  0.4000000E+00  0.6666667E-01  0.6666667E-01  0.1777778E-02
      1        -19.137561   1.000000
      2        -19.135096   1.000000
      3        -19.127753   1.000000
      4        -19.127672   1.000000
      5        -19.122505   1.000000
      6         -6.155345   1.000000
      7         -2.302128   1.000000
      8          3.112864   1.000000
      9          4.026613   1.000000
     10          5.441024   1.000000
     11          6.352331   0.000000
     12          6.901990   0.000000
     13          7.726744   0.000000
     14         12.476285   0.000000
     15         13.557924   0.000000
     16         13.705666   0.000000
     17         15.951543   0.000000
     18         17.674201   0.000000
     19         19.060985   0.000000
     20         19.126522   0.000000
     21         20.089727   0.000000
     22         20.414743   0.000000
     23         21.760474   0.000000
     24         24.433706   0.000000
     25         25.788423   0.000000
     26         26.198781   0.000000
     27         27.189985   0.000000
     28         28.196410   0.000000
     29         28.608192   0.000000
     30         28.814005   0.000000
     31         29.693131   0.000000
     32         29.808700   0.000000
     33         30.182138   0.000000
     34         30.246775   0.000000
     35         31.646540   0.000000
     36         33.267255   0.000000
 
  0.4666667E+00  0.6666667E-01  0.6666667E-01  0.1777778E-02
      1        -19.137864   1.000000
      2        -19.134836   1.000000
      3        -19.127878   1.000000
      4        -19.127604   1.000000
      5        -19.122196   1.000000
      6         -5.817381   1.000000
      7         -2.851158   1.000000
      8          3.217917   1.000000
      9          3.907154   1.000000
     10          5.341488   1.000000
     11          6.273926   0.000000
     12          6.820044   0.000000
     13          7.275682   0.000000
     14         13.442575   0.000000
     15         14.528104   0.000000
     16         14.574674   0.000000
     17         14.896536   0.000000
     18         17.563181   0.000000
     19         18.564252   0.000000
     20         19.810316   0.000000
     21         20.672625   0.000000
     22         22.119242   0.000000
     23         22.653907   0.000000
     24         23.016829   0.000000
     25         24.584286   0.000000
     26         26.467340   0.000000
     27         26.623139   0.000000
     28         27.359224   0.000000
     29         27.877162   0.000000
     30         28.585210   0.000000
     31         28.808823   0.000000
     32         29.526607   0.000000
     33         29.894104   0.000000
     34         30.379882   0.000000
     35         31.849048   0.000000
     36         32.936172   0.000000
 
 -0.4666667E+00  0.6666667E-01  0.6666667E-01  0.1777778E-02
      1        -19.138040   1.000000
      2        -19.134655   1.000000
      3        -19.127985   1.000000
      4        -19.127551   1.000000
      5        -19.122046   1.000000
      6         -5.620220   1.000000
      7         -3.137954   1.000000
      8          3.398367   1.000000
      9          3.787378   1.000000
     10          5.096868   1.000000
     11          6.430553   0.000000
     12          6.877848   0.000000
     13          6.914433   0.000000
     14         13.613959   0.000000
     15         14.635028   0.000000
     16         15.614745   0.000000
     17         15.721202   0.000000
     18         16.503601   0.000000
     19         17.272491   0.000000
     20         21.225252   0.000000
     21         21.439757   0.000000
     22         22.277860   0.000000
     23         22.536485   0.000000
     24         23.955243   0.000000
     25         24.493114   0.000000
     26         24.962677   0.000000
     27         25.783055   0.000000
     28         26.715593   0.000000
     29         27.643199   0.000000
     30         28.491945   0.000000
     31         28.625627   0.000000
     32         29.648171   0.000000
     33         30.170924   0.000000
     34         30.693798   0.000000
     35         32.149054   0.000000
     36         32.306303   0.000000
 
 -0.4000000E+00  0.6666667E-01  0.6666667E-01  0.1777778E-02
      1        -19.138053   1.000000
      2        -19.134561   1.000000
      3        -19.128066   1.000000
      4        -19.127545   1.000000
      5        -19.122079   1.000000
      6         -5.699035   1.000000
      7         -3.018065   1.000000
      8          3.620227   1.000000
      9          3.689181   1.000000
     10          4.858238   1.000000
     11          6.582963   0.000000
     12          6.782604   0.000000
     13          7.063326   0.000000
     14         12.670901   0.000000
     15         15.231797   0.000000
     16         15.806037   0.000000
     17         15.890194   0.000000
     18         16.938098   0.000000
     19         16.999549   0.000000
     20         20.048909   0.000000
     21         21.163671   0.000000
     22         22.550836   0.000000
     23         23.109765   0.000000
     24         23.744119   0.000000
     25         23.996476   0.000000
     26         25.512076   0.000000
     27         26.347580   0.000000
     28         26.427860   0.000000
     29         27.406381   0.000000
     30         28.866660   0.000000
     31         29.238830   0.000000
     32         29.796899   0.000000
     33         30.286820   0.000000
     34         30.674090   0.000000
     35         32.063242   0.000000
     36         32.150897   0.000000
 
 -0.3333333E+00  0.6666667E-01  0.6666667E-01  0.1777778E-02
      1        -19.137900   1.000000
      2        -19.134578   1.000000
      3        -19.128109   1.000000
      4        -19.127576   1.000000
      5        -19.122287   1.000000
      6         -5.992474   1.000000
      7         -2.554031   1.000000
      8          3.629476   1.000000
      9          3.813355   1.000000
     10          4.700759   1.000000
     11          6.497703   0.000000
     12          7.094881   0.000000
     13          7.359113   0.000000
     14         11.869319   0.000000
     15         14.151468   0.000000
     16         14.830713   0.000000
     17         16.699562   0.000000
     18         18.103621   0.000000
     19         18.250573   0.000000
     20         18.822470   0.000000
     21         19.873076   0.000000
     22         21.118423   0.000000
     23         22.257486   0.000000
     24         24.518990   0.000000
     25         25.173852   0.000000
     26         25.954756   0.000000
     27         26.095657   0.000000
     28         27.701325   0.000000
     29         28.569906   0.000000
     30         29.115058   0.000000
     31         29.846535   0.000000
     32         30.036546   0.000000
     33         30.271361   0.000000
     34         30.431051   0.000000
     35         31.984207   0.000000
     36         32.609655   0.000000
 
 -0.2666667E+00  0.6666667E-01  0.6666667E-01  0.1777778E-02
      1        -19.137613   1.000000
      2        -19.134730   1.000000
      3        -19.128105   1.000000
      4        -19.127616   1.000000
      5        -19.122633   1.000000
      6         -6.348516   1.000000
      7         -1.910001   1.000000
      8          3.617631   1.000000
      9          3.873630   1.000000
     10          4.674123   1.000000
     11          6.547551   0.000000
     12          7.489818   0.000000
     13          7.743099   0.000000
     14         11.276532   0.000000
     15         13.145280   0.000000
     16         13.848412   0.000000
     17         16.875559   0.000000
     18         17.178869   0.000000
     19         18.676028   0.000000
     20         19.519542   0.000000
     21         19.788679   0.000000
     22         19.838747   0.000000
     23         21.465385   0.000000
     24         25.314543   0.000000
     25         25.431469   0.000000
     26         26.406214   0.000000
     27         26.831912   0.000000
     28         28.942861   0.000000
     29         29.168639   0.000000
     30         29.495384   0.000000
     31         29.810794   0.000000
     32         29.872498   0.000000
     33         31.098084   0.000000
     34         31.167969   0.000000
     35         32.186198   0.000000
     36         33.287320   0.000000
 
 -0.2000000E+00  0.6666667E-01  0.6666667E-01  0.1777778E-02
      1        -19.137246   1.000000
      2        -19.135019   1.000000
      3        -19.128049   1.000000
      4        -19.127625   1.000000
      5        -19.123054   1.000000
      6         -6.681222   1.000000
      7         -1.197938   1.000000
      8          3.655158   1.000000
      9          3.798023   1.000000
     10          4.713680   1.000000
     11          6.790242   0.000000
     12          7.902499   0.000000
     13          8.181786   0.000000
     14         10.928459   0.000000
     15         12.312943   0.000000
     16         13.012326   0.000000
     17         15.939932   0.000000
     18         16.114966   0.000000
     19         17.363707   0.000000
     20         18.228830   0.000000
     21         21.183213   0.000000
     22         21.351734   0.000000
     23         22.028644   0.000000
     24         25.007529   0.000000
     25         25.355363   0.000000
     26         27.564784   0.000000
     27         27.937212   0.000000
     28         28.697369   0.000000
     29         29.131401   0.000000
     30         29.703928   0.000000
     31         29.714572   0.000000
     32         30.935598   0.000000
     33         32.111961   0.000000
     34         32.254885   0.000000
     35         32.894604   0.000000
     36         34.027420   0.000000
 
 -0.1333333E+00  0.6666667E-01  0.6666667E-01  0.1777778E-02
      1        -19.136872   1.000000
      2        -19.135400   1.000000
      3        -19.127946   1.000000
      4        -19.127600   1.000000
      5        -19.123477   1.000000
      6         -6.953437   1.000000
      7         -0.502427   1.000000
      8          3.685556   1.000000
      9          3.736183   1.000000
     10          4.696410   1.000000
     11          7.201988   0.000000
     12          8.271355   0.000000
     13          8.613383   0.000000
     14         10.836986   0.000000
     15         11.743172   0.000000
     16         12.367244   0.000000
     17         14.830510   0.000000
     18         15.120219   0.000000
     19         16.021419   0.000000
     20         16.901643   0.000000
     21         22.692718   0.000000
     22         22.903137   0.000000
     23         23.280109   0.000000
     24         24.825052   0.000000
     25         25.282664   0.000000
     26         28.179312   0.000000
     27         28.415106   0.000000
     28         28.554403   0.000000
     29         28.719521   0.000000
     30         29.533809   0.000000
     31         30.352061   0.000000
     32         31.963853   0.000000
     33         32.489010   0.000000
     34         33.109999   0.000000
     35         33.608248   0.000000
     36         34.147941   0.000000
 
 -0.6666667E-01  0.6666667E-01  0.6666667E-01  0.1777778E-02
      1        -19.136559   1.000000
      2        -19.135797   1.000000
      3        -19.127811   1.000000
      4        -19.127558   1.000000
      5        -19.123831   1.000000
      6         -7.148386   1.000000
      7          0.079039   1.000000
      8          3.624823   1.000000
      9          3.847852   1.000000
     10          4.575010   1.000000
     11          7.695923   0.000000
     12          8.516250   0.000000
     13          8.922948   0.000000
     14         10.976572   0.000000
     15         11.524358   0.000000
     16         11.971027   0.000000
     17         13.944811   0.000000
     18         14.255441   0.000000
     19         14.892136   0.000000
     20         15.667281   0.000000
     21         24.045585   0.000000
     22         24.102085   0.000000
     23         24.544301   0.000000
     24         25.128793   0.000000
     25         25.669409   0.000000
     26         27.625836   0.000000
     27         28.021215   0.000000
     28         28.418751   0.000000
     29         28.726606   0.000000
     30         29.641501   0.000000
     31         31.198586   0.000000
     32         31.704829   0.000000
     33         32.998807   0.000000
     34         33.051374   0.000000
     35         33.921444   0.000000
     36         34.113706   0.000000
 
  0.1333333E+00  0.1333333E+00  0.6666667E-01  0.1777778E-02
      1        -19.136492   1.000000
      2        -19.136176   1.000000
      3        -19.127610   1.000000
      4        -19.127348   1.000000
      5        -19.123996   1.000000
      6         -7.174267   1.000000
      7          0.023910   1.000000
      8          3.711992   1.000000
      9          3.899057   1.000000
     10          4.693508   1.000000
     11          7.704863   0.000000
     12          8.534973   0.000000
     13          8.877413   0.000000
     14         11.213662   0.000000
     15         11.716514   0.000000
     16         12.113277   0.000000
     17         13.724813   0.000000
     18         14.036317   0.000000
     19         14.557949   0.000000
     20         15.433659   0.000000
     21         22.826339   0.000000
     22         23.043794   0.000000
     23         24.779485   0.000000
     24         26.568662   0.000000
     25         27.003297   0.000000
     26         27.417356   0.000000
     27         28.145360   0.000000
     28         28.999615   0.000000
     29         29.244601   0.000000
     30         29.490697   0.000000
     31         30.849418   0.000000
     32         31.281413   0.000000
     33         31.805045   0.000000
     34         32.563134   0.000000
     35         33.716101   0.000000
     36         34.040808   0.000000
 
  0.2000000E+00  0.1333333E+00  0.6666667E-01  0.3555556E-02
      1        -19.136656   1.000000
      2        -19.136060   1.000000
      3        -19.127697   1.000000
      4        -19.127262   1.000000
      5        -19.123794   1.000000
      6         -7.051124   1.000000
      7         -0.329151   1.000000
      8          3.356644   1.000000
      9          3.932212   1.000000
     10          5.064196   1.000000
     11          7.205220   0.000000
     12          8.375046   0.000000
     13          9.023895   0.000000
     14         10.988258   0.000000
     15         11.944845   0.000000
     16         12.393227   0.000000
     17         13.859915   0.000000
     18         14.622388   0.000000
     19         15.355694   0.000000
     20         16.429961   0.000000
     21         21.280985   0.000000
     22         23.084713   0.000000
     23         24.849198   0.000000
     24         25.263287   0.000000
     25         26.708962   0.000000
     26         26.960229   0.000000
     27         27.983609   0.000000
     28         28.521176   0.000000
     29         29.638820   0.000000
     30         30.158602   0.000000
     31         30.900889   0.000000
     32         31.741124   0.000000
     33         32.191610   0.000000
     34         32.560978   0.000000
     35         33.240013   0.000000
     36         33.880421   0.000000
 
  0.2666667E+00  0.1333333E+00  0.6666667E-01  0.3555556E-02
      1        -19.136861   1.000000
      2        -19.135874   1.000000
      3        -19.127783   1.000000
      4        -19.127254   1.000000
      5        -19.123452   1.000000
      6         -6.844832   1.000000
      7         -0.836187   1.000000
      8          3.025251   1.000000
      9          3.963902   1.000000
     10          5.279686   1.000000
     11          6.856955   0.000000
     12          8.022003   0.000000
     13          9.079845   0.000000
     14         10.818592   0.000000
     15         12.304545   0.000000
     16         12.759329   0.000000
     17         14.500709   0.000000
     18         15.595325   0.000000
     19         16.611347   0.000000
     20         17.454679   0.000000
     21         19.825729   0.000000
     22         22.878447   0.000000
     23         24.055403   0.000000
     24         24.686142   0.000000
     25         25.981619   0.000000
     26         26.526476   0.000000
     27         27.621122   0.000000
     28         28.503327   0.000000
     29         29.374129   0.000000
     30         30.114284   0.000000
     31         30.841092   0.000000
     32         31.064944   0.000000
     33         32.437226   0.000000
     34         32.686489   0.000000
     35         32.961934   0.000000
     36         33.973599   0.000000
 
  0.3333333E+00  0.1333333E+00  0.6666667E-01  0.3555556E-02
      1        -19.137140   1.000000
      2        -19.135610   1.000000
      3        -19.127840   1.000000
      4        -19.127309   1.000000
      5        -19.123034   1.000000
      6         -6.564756   1.000000
      7         -1.439333   1.000000
      8          2.818107   1.000000
      9          3.908010   1.000000
     10          5.284359   1.000000
     11          6.728975   0.000000
     12          7.646564   0.000000
     13          8.876681   0.000000
     14         10.992779   0.000000
     15         12.887094   0.000000
     16         13.282392   0.000000
     17         15.491466   0.000000
     18         16.543440   0.000000
     19         17.850084   0.000000
     20         18.142486   0.000000
     21         19.327968   0.000000
     22         21.742982   0.000000
     23         23.369593   0.000000
     24         24.312388   0.000000
     25         25.480547   0.000000
     26         26.032618   0.000000
     27         27.731044   0.000000
     28         28.270322   0.000000
     29         28.736233   0.000000
     30         29.418404   0.000000
     31         30.256921   0.000000
     32         30.993834   0.000000
     33         31.521880   0.000000
     34         32.065512   0.000000
     35         32.535823   0.000000
     36         33.239780   0.000000
 
  0.4000000E+00  0.1333333E+00  0.6666667E-01  0.3555556E-02
      1        -19.137461   1.000000
      2        -19.135314   1.000000
      3        -19.127859   1.000000
      4        -19.127395   1.000000
      5        -19.122616   1.000000
      6         -6.230527   1.000000
      7         -2.068642   1.000000
      8          2.744979   1.000000
      9          3.760354   1.000000
     10          5.190497   1.000000
     11          6.671522   0.000000
     12          7.412242   0.000000
     13          8.463167   0.000000
     14         11.585270   0.000000
     15         13.651867   0.000000
     16         13.986659   0.000000
     17         15.866195   0.000000
     18         16.926857   0.000000
     19         18.357477   0.000000
     20         19.510971   0.000000
     21         19.977608   0.000000
     22         20.947503   0.000000
     23         22.309176   0.000000
     24         24.165686   0.000000
     25         24.772441   0.000000
     26         26.185033   0.000000
     27         27.225873   0.000000
     28         27.922683   0.000000
     29         28.116764   0.000000
     30         28.940630   0.000000
     31         29.512085   0.000000
     32         30.357345   0.000000
     33         30.917287   0.000000
     34         31.214084   0.000000
     35         32.044241   0.000000
     36         32.563016   0.000000
 
  0.4666667E+00  0.1333333E+00  0.6666667E-01  0.3555556E-02
      1        -19.137764   1.000000
      2        -19.135033   1.000000
      3        -19.127877   1.000000
      4        -19.127463   1.000000
      5        -19.122275   1.000000
      6         -5.885493   1.000000
      7         -2.637564   1.000000
      8          2.795592   1.000000
      9          3.557677   1.000000
     10          5.101976   1.000000
     11          6.534756   0.000000
     12          7.423818   0.000000
     13          8.012578   0.000000
     14         12.451435   0.000000
     15         14.519224   0.000000
     16         14.735585   0.000000
     17         14.978589   0.000000
     18         17.499858   0.000000
     19         18.943151   0.000000
     20         19.548149   0.000000
     21         20.700923   0.000000
     22         21.735197   0.000000
     23         22.358350   0.000000
     24         23.098951   0.000000
     25         25.100490   0.000000
     26         25.514334   0.000000
     27         26.745985   0.000000
     28         27.210133   0.000000
     29         27.827737   0.000000
     30         28.430760   0.000000
     31         28.718510   0.000000
     32         29.259315   0.000000
     33         30.229621   0.000000
     34         31.187512   0.000000
     35         31.690844   0.000000
     36         32.637267   0.000000
 
 -0.4666667E+00  0.1333333E+00  0.6666667E-01  0.3555556E-02
      1        -19.137984   1.000000
      2        -19.134797   1.000000
      3        -19.127940   1.000000
      4        -19.127483   1.000000
      5        -19.122068   1.000000
      6         -5.626114   1.000000
      7         -3.019707   1.000000
      8          2.948838   1.000000
      9          3.360810   1.000000
     10          5.011950   1.000000
     11          6.431476   0.000000
     12          7.486485   0.000000
     13          7.711302   0.000000
     14         13.373788   0.000000
     15         13.780843   0.000000
     16         15.561630   0.000000
     17         15.944108   0.000000
     18         16.640790   0.000000
     19         18.551971   0.000000
     20         20.272948   0.000000
     21         21.170572   0.000000
     22         21.803451   0.000000
     23         23.337091   0.000000
     24         23.608701   0.000000
     25         24.565719   0.000000
     26         25.356897   0.000000
     27         25.884563   0.000000
     28         26.486659   0.000000
     29         27.172968   0.000000
     30         27.621089   0.000000
     31         28.617529   0.000000
     32         28.815022   0.000000
     33         30.403583   0.000000
     34         31.227772   0.000000
     35         31.537280   0.000000
     36         32.700206   0.000000
 
 -0.4000000E+00  0.1333333E+00  0.6666667E-01  0.3555556E-02
      1        -19.138072   1.000000
      2        -19.134628   1.000000
      3        -19.128040   1.000000
      4        -19.127483   1.000000
      5        -19.122025   1.000000
      6         -5.598570   1.000000
      7         -3.052817   1.000000
      8          3.095104   1.000000
      9          3.303289   1.000000
     10          4.886062   1.000000
     11          6.473539   0.000000
     12          7.205570   0.000000
     13          7.903420   0.000000
     14         12.617339   0.000000
     15         14.688611   0.000000
     16         15.469659   0.000000
     17         16.554077   0.000000
     18         17.126277   0.000000
     19         17.466263   0.000000
     20         19.869770   0.000000
     21         21.653179   0.000000
     22         22.143768   0.000000
     23         23.252481   0.000000
     24         23.760004   0.000000
     25         24.742628   0.000000
     26         25.089034   0.000000
     27         25.635533   0.000000
     28         26.055624   0.000000
     29         27.241451   0.000000
     30         27.618203   0.000000
     31         28.720077   0.000000
     32         29.036462   0.000000
     33         30.545210   0.000000
     34         31.355640   0.000000
     35         31.664289   0.000000
     36         32.223042   0.000000
 
 -0.3333333E+00  0.1333333E+00  0.6666667E-01  0.3555556E-02
      1        -19.138004   1.000000
      2        -19.134554   1.000000
      3        -19.128132   1.000000
      4        -19.127500   1.000000
      5        -19.122155   1.000000
      6         -5.823708   1.000000
      7         -2.712764   1.000000
      8          3.042054   1.000000
      9          3.570798   1.000000
     10          4.732981   1.000000
     11          6.665225   0.000000
     12          6.962617   0.000000
     13          8.197718   0.000000
     14         11.806749   0.000000
     15         14.311914   0.000000
     16         15.892372   0.000000
     17         16.075961   0.000000
     18         17.527995   0.000000
     19         18.433534   0.000000
     20         18.899518   0.000000
     21         20.731601   0.000000
     22         21.864912   0.000000
     23         22.866724   0.000000
     24         23.708241   0.000000
     25         24.397504   0.000000
     26         25.128727   0.000000
     27         26.322976   0.000000
     28         27.073184   0.000000
     29         27.925530   0.000000
     30         28.388121   0.000000
     31         28.965236   0.000000
     32         29.609683   0.000000
     33         30.436764   0.000000
     34         31.531889   0.000000
     35         31.850829   0.000000
     36         32.246372   0.000000
 
 -0.2666667E+00  0.1333333E+00  0.6666667E-01  0.3555556E-02
      1        -19.137791   1.000000
      2        -19.134610   1.000000
      3        -19.128181   1.000000
      4        -19.127531   1.000000
      5        -19.122430   1.000000
      6         -6.161612   1.000000
      7         -2.148831   1.000000
      8          3.021298   1.000000
      9          3.865829   1.000000
     10          4.619925   1.000000
     11          6.748821   0.000000
     12          7.049242   0.000000
     13          8.508722   0.000000
     14         11.208712   0.000000
     15         13.344958   0.000000
     16         14.977067   0.000000
     17         16.321223   0.000000
     18         17.396717   0.000000
     19         18.971847   0.000000
     20         19.709620   0.000000
     21         19.934002   0.000000
     22         20.338030   0.000000
     23         21.863646   0.000000
     24         24.030968   0.000000
     25         24.908102   0.000000
     26         26.018309   0.000000
     27         26.484867   0.000000
     28         28.122432   0.000000
     29         28.554174   0.000000
     30         29.213862   0.000000
     31         29.758227   0.000000
     32         30.217050   0.000000
     33         30.897129   0.000000
     34         31.253067   0.000000
     35         32.396971   0.000000
     36         32.585678   0.000000
 
 -0.2000000E+00  0.1333333E+00  0.6666667E-01  0.3555556E-02
      1        -19.137475   1.000000
      2        -19.134816   1.000000
      3        -19.128170   1.000000
      4        -19.127547   1.000000
      5        -19.122805   1.000000
      6         -6.502401   1.000000
      7         -1.495152   1.000000
      8          3.076553   1.000000
      9          3.968375   1.000000
     10          4.688143   1.000000
     11          6.716922   0.000000
     12          7.462177   0.000000
     13          8.786402   0.000000
     14         10.848069   0.000000
     15         12.576372   0.000000
     16         13.962202   0.000000
     17         15.412399   0.000000
     18         17.034946   0.000000
     19         18.246924   0.000000
     20         18.991471   0.000000
     21         20.289025   0.000000
     22         21.329548   0.000000
     23         21.922866   0.000000
     24         23.757003   0.000000
     25         25.396534   0.000000
     26         26.567437   0.000000
     27         27.273977   0.000000
     28         28.478718   0.000000
     29         29.395496   0.000000
     30         29.728223   0.000000
     31         30.434791   0.000000
     32         30.609710   0.000000
     33         31.134864   0.000000
     34         32.101283   0.000000
     35         32.795311   0.000000
     36         33.338728   0.000000
 
 -0.1333333E+00  0.1333333E+00  0.6666667E-01  0.3555556E-02
      1        -19.137116   1.000000
      2        -19.135155   1.000000
      3        -19.128088   1.000000
      4        -19.127538   1.000000
      5        -19.123219   1.000000
      6         -6.795110   1.000000
      7         -0.846455   1.000000
      8          3.210709   1.000000
      9          3.878366   1.000000
     10          4.852162   1.000000
     11          6.849086   0.000000
     12          7.929208   0.000000
     13          8.973629   0.000000
     14         10.692799   0.000000
     15         12.088473   0.000000
     16         13.085586   0.000000
     17         14.468229   0.000000
     18         16.030613   0.000000
     19         16.875649   0.000000
     20         17.902074   0.000000
     21         21.496781   0.000000
     22         22.585237   0.000000
     23         22.919361   0.000000
     24         24.003008   0.000000
     25         25.239013   0.000000
     26         27.129547   0.000000
     27         27.732281   0.000000
     28         28.822176   0.000000
     29         29.527841   0.000000
     30         30.150519   0.000000
     31         30.477421   0.000000
     32         31.214531   0.000000
     33         31.907177   0.000000
     34         32.765179   0.000000
     35         33.493812   0.000000
     36         33.609642   0.000000
 
 -0.6666667E-01  0.1333333E+00  0.6666667E-01  0.3555556E-02
      1        -19.136774   1.000000
      2        -19.135562   1.000000
      3        -19.127939   1.000000
      4        -19.127511   1.000000
      5        -19.123597   1.000000
      6         -7.016876   1.000000
      7         -0.294039   1.000000
      8          3.408978   1.000000
      9          3.794758   1.000000
     10          4.857242   1.000000
     11          7.197026   0.000000
     12          8.354350   0.000000
     13          9.010219   0.000000
     14         10.721788   0.000000
     15         11.825293   0.000000
     16         12.427367   0.000000
     17         13.877545   0.000000
     18         14.982828   0.000000
     19         15.725265   0.000000
     20         16.671446   0.000000
     21         22.770531   0.000000
     22         23.024880   0.000000
     23         24.359850   0.000000
     24         25.010239   0.000000
     25         25.396672   0.000000
     26         26.873772   0.000000
     27         28.227651   0.000000
     28         28.778197   0.000000
     29         28.898112   0.000000
     30         30.043965   0.000000
     31         30.999983   0.000000
     32         32.014087   0.000000
     33         32.594077   0.000000
     34         32.822601   0.000000
     35         33.593044   0.000000
     36         34.210955   0.000000
 
  0.2000000E+00  0.2000000E+00  0.6666667E-01  0.1777778E-02
      1        -19.136943   1.000000
      2        -19.135870   1.000000
      3        -19.127817   1.000000
      4        -19.127066   1.000000
      5        -19.123667   1.000000
      6         -6.962511   1.000000
      7         -0.509574   1.000000
      8          3.269685   1.000000
      9          3.579467   1.000000
     10          5.236387   1.000000
     11          6.939190   0.000000
     12          8.622124   0.000000
     13          9.140452   0.000000
     14         10.818646   0.000000
     15         12.383968   0.000000
     16         12.872716   0.000000
     17         13.975260   0.000000
     18         14.271080   0.000000
     19         15.667488   0.000000
     20         17.428269   0.000000
     21         21.333156   0.000000
     22         21.601247   0.000000
     23         25.008297   0.000000
     24         25.048218   0.000000
     25         25.597341   0.000000
     26         27.231252   0.000000
     27         27.498422   0.000000
     28         28.318117   0.000000
     29         30.302072   0.000000
     30         30.853482   0.000000
     31         31.100812   0.000000
     32         31.590943   0.000000
     33         31.884192   0.000000
     34         32.277370   0.000000
     35         33.143583   0.000000
     36         33.363708   0.000000
 
  0.2666667E+00  0.2000000E+00  0.6666667E-01  0.3555556E-02
      1        -19.137197   1.000000
      2        -19.135678   1.000000
      3        -19.127945   1.000000
      4        -19.126956   1.000000
      5        -19.123393   1.000000
      6         -6.791171   1.000000
      7         -0.846772   1.000000
      8          2.922968   1.000000
      9          3.519255   1.000000
     10          4.999342   1.000000
     11          7.125681   0.000000
     12          8.545884   0.000000
     13          9.246214   0.000000
     14         10.672893   0.000000
     15         12.807846   0.000000
     16         13.301213   0.000000
     17         14.268355   0.000000
     18         14.851811   0.000000
     19         16.566645   0.000000
     20         18.367179   0.000000
     21         20.034856   0.000000
     22         21.691043   0.000000
     23         23.676699   0.000000
     24         25.174513   0.000000
     25         25.393439   0.000000
     26         26.273313   0.000000
     27         27.029907   0.000000
     28         28.448159   0.000000
     29         29.745375   0.000000
     30         30.464662   0.000000
     31         31.158730   0.000000
     32         31.334993   0.000000
     33         32.120266   0.000000
     34         32.384266   0.000000
     35         32.913874   0.000000
     36         33.424079   0.000000
 
  0.3333333E+00  0.2000000E+00  0.6666667E-01  0.3555556E-02
      1        -19.137406   1.000000
      2        -19.135504   1.000000
      3        -19.128041   1.000000
      4        -19.126940   1.000000
      5        -19.123023   1.000000
      6         -6.544879   1.000000
      7         -1.309708   1.000000
      8          2.617763   1.000000
      9          3.427843   1.000000
     10          4.697894   1.000000
     11          7.438941   0.000000
     12          8.340965   0.000000
     13          9.285123   0.000000
     14         10.516179   0.000000
     15         13.346913   0.000000
     16         13.838827   0.000000
     17         14.970624   0.000000
     18         15.775275   0.000000
     19         17.851385   0.000000
     20         18.104086   0.000000
     21         20.030587   0.000000
     22         21.491598   0.000000
     23         22.794927   0.000000
     24         24.604161   0.000000
     25         25.076899   0.000000
     26         25.801645   0.000000
     27         26.567774   0.000000
     28         28.308693   0.000000
     29         28.716281   0.000000
     30         29.457726   0.000000
     31         30.537772   0.000000
     32         31.204483   0.000000
     33         32.076312   0.000000
     34         32.477395   0.000000
     35         32.786069   0.000000
     36         33.803503   0.000000
 
  0.4000000E+00  0.2000000E+00  0.6666667E-01  0.3555556E-02
      1        -19.137591   1.000000
      2        -19.135342   1.000000
      3        -19.128079   1.000000
      4        -19.127003   1.000000
      5        -19.122630   1.000000
      6         -6.239449   1.000000
      7         -1.847196   1.000000
      8          2.450099   1.000000
      9          3.193065   1.000000
     10          4.557260   1.000000
     11          7.540905   0.000000
     12          8.219010   0.000000
     13          9.162093   0.000000
     14         10.657216   0.000000
     15         14.116950   0.000000
     16         14.479428   0.000000
     17         15.714531   0.000000
     18         16.323932   0.000000
     19         17.655869   0.000000
     20         19.403213   0.000000
     21         20.022932   0.000000
     22         21.485595   0.000000
     23         22.870815   0.000000
     24         23.572444   0.000000
     25         24.104226   0.000000
     26         26.063960   0.000000
     27         26.589318   0.000000
     28         27.115218   0.000000
     29         28.019132   0.000000
     30         29.025592   0.000000
     31         29.759040   0.000000
     32         30.572298   0.000000
     33         31.335433   0.000000
     34         32.184768   0.000000
     35         32.426849   0.000000
     36         32.880895   0.000000
 
  0.4666667E+00  0.2000000E+00  0.6666667E-01  0.3555556E-02
      1        -19.137757   1.000000
      2        -19.135180   1.000000
      3        -19.128059   1.000000
      4        -19.127121   1.000000
      5        -19.122290   1.000000
      6         -5.907692   1.000000
      7         -2.383397   1.000000
      8          2.421912   1.000000
      9          2.895739   1.000000
     10          4.560884   1.000000
     11          7.287062   0.000000
     12          8.375584   0.000000
     13          8.819066   0.000000
     14         11.267791   0.000000
     15         14.833337   0.000000
     16         15.054993   0.000000
     17         15.323293   0.000000
     18         17.077984   0.000000
     19         18.303452   0.000000
     20         19.301166   0.000000
     21         21.173038   0.000000
     22         21.860453   0.000000
     23         22.231714   0.000000
     24         23.196473   0.000000
     25         24.096089   0.000000
     26         25.781876   0.000000
     27         26.147671   0.000000
     28         26.772963   0.000000
     29         27.288119   0.000000
     30         28.545260   0.000000
     31         29.172031   0.000000
     32         29.508474   0.000000
     33         30.384673   0.000000
     34         31.063658   0.000000
     35         32.008228   0.000000
     36         32.841903   0.000000
 
 -0.4666667E+00  0.2000000E+00  0.6666667E-01  0.3555556E-02
      1        -19.137891   1.000000
      2        -19.135014   1.000000
      3        -19.128017   1.000000
      4        -19.127262   1.000000
      5        -19.122057   1.000000
      6         -5.619810   1.000000
      7         -2.810382   1.000000
      8          2.468272   1.000000
      9          2.686046   1.000000
     10          4.638138   1.000000
     11          6.962052   0.000000
     12          8.305682   0.000000
     13          8.727614   0.000000
     14         12.164147   0.000000
     15         13.785640   0.000000
     16         15.984752   0.000000
     17         16.284645   0.000000
     18         16.619495   0.000000
     19         19.110726   0.000000
     20         19.861985   0.000000
     21         20.660103   0.000000
     22         21.541622   0.000000
     23         23.084577   0.000000
     24         23.873145   0.000000
     25         24.478746   0.000000
     26         25.003374   0.000000
     27         25.609804   0.000000
     28         26.638821   0.000000
     29         27.088380   0.000000
     30         27.723397   0.000000
     31         27.998538   0.000000
     32         28.933535   0.000000
     33         29.783704   0.000000
     34         30.579012   0.000000
     35         31.895495   0.000000
     36         32.829711   0.000000
 
 -0.4000000E+00  0.2000000E+00  0.6666667E-01  0.3555556E-02
      1        -19.137960   1.000000
      2        -19.134856   1.000000
      3        -19.128010   1.000000
      4        -19.127384   1.000000
      5        -19.121964   1.000000
      6         -5.500395   1.000000
      7         -2.979805   1.000000
      8          2.360613   1.000000
      9          2.826885   1.000000
     10          4.735818   1.000000
     11          6.700769   0.000000
     12          7.933043   0.000000
     13          8.967688   0.000000
     14         12.698347   0.000000
     15         13.359947   0.000000
     16         15.460721   0.000000
     17         16.882212   0.000000
     18         17.482580   0.000000
     19         18.927077   0.000000
     20         19.490056   0.000000
     21         20.730052   0.000000
     22         22.318076   0.000000
     23         23.251618   0.000000
     24         23.816956   0.000000
     25         24.527081   0.000000
     26         24.958969   0.000000
     27         25.647078   0.000000
     28         26.175447   0.000000
     29         26.755582   0.000000
     30         27.453647   0.000000
     31         27.776707   0.000000
     32         28.702907   0.000000
     33         29.572450   0.000000
     34         30.731750   0.000000
     35         32.081873   0.000000
     36         32.402603   0.000000
 
 -0.3333333E+00  0.2000000E+00  0.6666667E-01  0.3555556E-02
      1        -19.137937   1.000000
      2        -19.134736   1.000000
      3        -19.128070   1.000000
      4        -19.127457   1.000000
      5        -19.122022   1.000000
      6         -5.630943   1.000000
      7         -2.802290   1.000000
      8          2.275076   1.000000
      9          3.148311   1.000000
     10          4.790091   1.000000
     11          6.579433   0.000000
     12          7.590629   0.000000
     13          9.199816   0.000000
     14         11.959540   0.000000
     15         14.318261   0.000000
     16         14.570465   0.000000
     17         17.071628   0.000000
     18         17.790939   0.000000
     19         18.715353   0.000000
     20         19.133717   0.000000
     21         21.773775   0.000000
     22         22.149627   0.000000
     23         22.609211   0.000000
     24         23.240378   0.000000
     25         24.109342   0.000000
     26         24.712799   0.000000
     27         25.912662   0.000000
     28         26.746139   0.000000
     29         26.993330   0.000000
     30         27.887878   0.000000
     31         28.397885   0.000000
     32         29.231331   0.000000
     33         29.760106   0.000000
     34         30.895843   0.000000
     35         32.166691   0.000000
     36         32.547405   0.000000
 
 -0.2666667E+00  0.2000000E+00  0.6666667E-01  0.3555556E-02
      1        -19.137809   1.000000
      2        -19.134698   1.000000
      3        -19.128154   1.000000
      4        -19.127493   1.000000
      5        -19.122215   1.000000
      6         -5.924121   1.000000
      7         -2.372842   1.000000
      8          2.301152   1.000000
      9          3.545939   1.000000
     10          4.742205   1.000000
     11          6.660828   0.000000
     12          7.302301   0.000000
     13          9.360915   0.000000
     14         11.392902   0.000000
     15         13.475273   0.000000
     16         15.477979   0.000000
     17         16.329932   0.000000
     18         16.744296   0.000000
     19         19.528342   0.000000
     20         20.222399   0.000000
     21         20.752047   0.000000
     22         21.146315   0.000000
     23         22.009407   0.000000
     24         23.269541   0.000000
     25         23.896967   0.000000
     26         25.541652   0.000000
     27         26.407436   0.000000
     28         26.853638   0.000000
     29         27.351422   0.000000
     30         29.016662   0.000000
     31         29.246528   0.000000
     32         30.013705   0.000000
     33         30.644984   0.000000
     34         31.052120   0.000000
     35         32.463939   0.000000
     36         32.702482   0.000000
 
 -0.2000000E+00  0.2000000E+00  0.6666667E-01  0.3555556E-02
      1        -19.137588   1.000000
      2        -19.134781   1.000000
      3        -19.128203   1.000000
      4        -19.127508   1.000000
      5        -19.122517   1.000000
      6         -6.256577   1.000000
      7         -1.837721   1.000000
      8          2.459011   1.000000
      9          3.918012   1.000000
     10          4.650845   1.000000
     11          6.887287   0.000000
     12          7.124542   0.000000
     13          9.407384   0.000000
     14         10.999131   0.000000
     15         12.850592   0.000000
     16         14.939748   0.000000
     17         15.342243   0.000000
     18         17.192624   0.000000
     19         19.140459   0.000000
     20         19.441976   0.000000
     21         20.631090   0.000000
     22         21.409233   0.000000
     23         21.651507   0.000000
     24         23.040973   0.000000
     25         24.979263   0.000000
     26         25.807951   0.000000
     27         26.361547   0.000000
     28         27.622795   0.000000
     29         28.610497   0.000000
     30         29.473348   0.000000
     31         29.927125   0.000000
     32         30.653919   0.000000
     33         31.168808   0.000000
     34         32.273780   0.000000
     35         32.505347   0.000000
     36         32.933154   0.000000
 
 -0.1333333E+00  0.2000000E+00  0.6666667E-01  0.3555556E-02
      1        -19.137306   1.000000
      2        -19.135002   1.000000
      3        -19.128171   1.000000
      4        -19.127507   1.000000
      5        -19.122880   1.000000
      6         -6.560079   1.000000
      7         -1.301166   1.000000
      8          2.757374   1.000000
      9          3.982122   1.000000
     10          4.786998   1.000000
     11          6.832315   0.000000
     12          7.448139   0.000000
     13          9.321555   0.000000
     14         10.702721   0.000000
     15         12.480043   0.000000
     16         14.135362   0.000000
     17         14.401573   0.000000
     18         17.017933   0.000000
     19         18.072608   0.000000
     20         18.744241   0.000000
     21         20.320921   0.000000
     22         21.470727   0.000000
     23         22.993726   0.000000
     24         23.900118   0.000000
     25         25.293301   0.000000
     26         25.939406   0.000000
     27         26.662090   0.000000
     28         28.598139   0.000000
     29         29.440076   0.000000
     30         30.076150   0.000000
     31         30.421329   0.000000
     32         30.708188   0.000000
     33         31.611102   0.000000
     34         32.319043   0.000000
     35         33.057857   0.000000
     36         33.864415   0.000000
 
 -0.6666667E-01  0.2000000E+00  0.6666667E-01  0.3555556E-02
      1        -19.137005   1.000000
      2        -19.135334   1.000000
      3        -19.128043   1.000000
      4        -19.127498   1.000000
      5        -19.123248   1.000000
      6         -6.802931   1.000000
      7         -0.837069   1.000000
      8          3.177017   1.000000
      9          3.804392   1.000000
     10          4.999932   1.000000
     11          6.857343   0.000000
     12          7.956003   0.000000
     13          9.032477   0.000000
     14         10.611587   0.000000
     15         12.154736   0.000000
     16         13.135279   0.000000
     17         14.298035   0.000000
     18         15.990963   0.000000
     19         16.979392   0.000000
     20         17.735593   0.000000
     21         21.240634   0.000000
     22         21.575458   0.000000
     23         24.299722   0.000000
     24         25.078895   0.000000
     25         25.336600   0.000000
     26         26.016660   0.000000
     27         27.521296   0.000000
     28         28.627720   0.000000
     29         29.179015   0.000000
     30         29.977363   0.000000
     31         31.269896   0.000000
     32         31.368332   0.000000
     33         31.849650   0.000000
     34         32.710584   0.000000
     35         33.408957   0.000000
     36         34.115276   0.000000
 
  0.2666667E+00  0.2666667E+00  0.6666667E-01  0.1777778E-02
      1        -19.137577   1.000000
      2        -19.135408   1.000000
      3        -19.128120   1.000000
      4        -19.126731   1.000000
      5        -19.123187   1.000000
      6         -6.657168   1.000000
      7         -0.997926   1.000000
      8          2.735374   1.000000
      9          3.216583   1.000000
     10          4.438342   1.000000
     11          7.735316   0.000000
     12          8.603053   0.000000
     13          9.498216   0.000000
     14         10.674711   0.000000
     15         13.434743   0.000000
     16         13.707612   0.000000
     17         14.549927   0.000000
     18         14.630877   0.000000
     19         16.994434   0.000000
     20         19.125886   0.000000
     21         19.998576   0.000000
     22         20.743611   0.000000
     23         23.545983   0.000000
     24         23.958391   0.000000
     25         25.034052   0.000000
     26         25.695184   0.000000
     27         27.619842   0.000000
     28         28.492813   0.000000
     29         29.363999   0.000000
     30         29.627362   0.000000
     31         30.831692   0.000000
     32         31.269126   0.000000
     33         32.078696   0.000000
     34         32.560005   0.000000
     35         32.967881   0.000000
     36         33.510248   0.000000
 
  0.3333333E+00  0.2666667E+00  0.6666667E-01  0.3555556E-02
      1        -19.137873   1.000000
      2        -19.135190   1.000000
      3        -19.128262   1.000000
      4        -19.126618   1.000000
      5        -19.122878   1.000000
      6         -6.449672   1.000000
      7         -1.284339   1.000000
      8          2.419984   1.000000
      9          3.041383   1.000000
     10          4.011363   1.000000
     11          8.304093   0.000000
     12          8.596629   0.000000
     13          9.538730   0.000000
     14         10.644891   0.000000
     15         13.856465   0.000000
     16         14.327905   0.000000
     17         15.033081   0.000000
     18         15.201235   0.000000
     19         17.923666   0.000000
     20         18.395796   0.000000
     21         20.164911   0.000000
     22         21.042938   0.000000
     23         22.494769   0.000000
     24         23.699461   0.000000
     25         24.338928   0.000000
     26         25.730881   0.000000
     27         27.206946   0.000000
     28         27.820733   0.000000
     29         28.788036   0.000000
     30         29.044575   0.000000
     31         30.120981   0.000000
     32         31.031690   0.000000
     33         32.264090   0.000000
     34         32.851376   0.000000
     35         33.044517   0.000000
     36         33.463843   0.000000
 
  0.4000000E+00  0.2666667E+00  0.6666667E-01  0.3555556E-02
      1        -19.138038   1.000000
      2        -19.135065   1.000000
      3        -19.128336   1.000000
      4        -19.126617   1.000000
      5        -19.122532   1.000000
      6         -6.182091   1.000000
      7         -1.679486   1.000000
      8          2.167849   1.000000
      9          2.720103   1.000000
     10          3.898259   1.000000
     11          8.435084   0.000000
     12          8.893194   0.000000
     13          9.512225   0.000000
     14         10.472879   0.000000
     15         14.497874   0.000000
     16         15.099802   0.000000
     17         15.637030   0.000000
     18         15.937001   0.000000
     19         17.343932   0.000000
     20         19.272019   0.000000
     21         20.182664   0.000000
     22         20.866787   0.000000
     23         22.502129   0.000000
     24         23.172996   0.000000
     25         24.463063   0.000000
     26         25.380431   0.000000
     27         26.183782   0.000000
     28         26.896762   0.000000
     29         28.485499   0.000000
     30         28.734327   0.000000
     31         29.265249   0.000000
     32         30.530711   0.000000
     33         31.956648   0.000000
     34         32.434697   0.000000
     35         32.848134   0.000000
     36         33.455848   0.000000
 
  0.4666667E+00  0.2666667E+00  0.6666667E-01  0.3555556E-02
      1        -19.138078   1.000000
      2        -19.135026   1.000000
      3        -19.128323   1.000000
      4        -19.126719   1.000000
      5        -19.122218   1.000000
      6         -5.880495   1.000000
      7         -2.128526   1.000000
      8          2.005388   1.000000
      9          2.391702   1.000000
     10          3.971425   1.000000
     11          8.167667   0.000000
     12          9.239637   0.000000
     13          9.583429   0.000000
     14         10.463179   0.000000
     15         15.063222   0.000000
     16         15.482078   0.000000
     17         15.910572   0.000000
     18         16.695435   0.000000
     19         17.673488   0.000000
     20         19.086247   0.000000
     21         20.845924   0.000000
     22         21.151270   0.000000
     23         22.053388   0.000000
     24         23.748283   0.000000
     25         24.417448   0.000000
     26         24.786454   0.000000
     27         25.195566   0.000000
     28         26.799897   0.000000
     29         27.824361   0.000000
     30         27.946371   0.000000
     31         29.192114   0.000000
     32         29.856622   0.000000
     33         31.063349   0.000000
     34         31.718495   0.000000
     35         31.790927   0.000000
     36         32.269635   0.000000
 
 -0.4666667E+00  0.2666667E+00  0.6666667E-01  0.3555556E-02
      1        -19.138026   1.000000
      2        -19.135035   1.000000
      3        -19.128239   1.000000
      4        -19.126903   1.000000
      5        -19.121992   1.000000
      6         -5.595740   1.000000
      7         -2.544509   1.000000
      8          1.821398   1.000000
      9          2.300720   1.000000
     10          4.115737   1.000000
     11          7.767152   0.000000
     12          9.120414   0.000000
     13          9.769060   0.000000
     14         11.024060   0.000000
     15         14.064844   0.000000
     16         16.377082   0.000000
     17         16.703506   0.000000
     18         16.807502   0.000000
     19         18.376442   0.000000
     20         19.455953   0.000000
     21         20.241338   0.000000
     22         21.946165   0.000000
     23         22.842355   0.000000
     24         23.118513   0.000000
     25         23.765466   0.000000
     26         25.151718   0.000000
     27         25.591813   0.000000
     28         26.422865   0.000000
     29         27.142416   0.000000
     30         27.592057   0.000000
     31         28.479420   0.000000
     32         29.072066   0.000000
     33         30.117735   0.000000
     34         30.724198   0.000000
     35         31.229517   0.000000
     36         32.102369   0.000000
 
 -0.4000000E+00  0.2666667E+00  0.6666667E-01  0.3555556E-02
      1        -19.137927   1.000000
      2        -19.135034   1.000000
      3        -19.128126   1.000000
      4        -19.127137   1.000000
      5        -19.121883   1.000000
      6         -5.419318   1.000000
      7         -2.807441   1.000000
      8          1.648499   1.000000
      9          2.451005   1.000000
     10          4.299145   1.000000
     11          7.347316   0.000000
     12          8.730799   0.000000
     13         10.018205   0.000000
     14         11.920807   0.000000
     15         13.150055   0.000000
     16         15.584868   0.000000
     17         17.235805   0.000000
     18         17.870326   0.000000
     19         19.210475   0.000000
     20         19.530538   0.000000
     21         20.291985   0.000000
     22         21.857361   0.000000
     23         22.566527   0.000000
     24         23.362248   0.000000
     25         24.652556   0.000000
     26         25.005503   0.000000
     27         25.376660   0.000000
     28         26.224123   0.000000
     29         26.962517   0.000000
     30         27.394371   0.000000
     31         27.893499   0.000000
     32         28.285757   0.000000
     33         29.363058   0.000000
     34         30.530046   0.000000
     35         31.399886   0.000000
     36         32.236204   0.000000
 
 -0.3333333E+00  0.2666667E+00  0.6666667E-01  0.3555556E-02
      1        -19.137816   1.000000
      2        -19.134997   1.000000
      3        -19.128045   1.000000
      4        -19.127356   1.000000
      5        -19.121897   1.000000
      6         -5.447557   1.000000
      7         -2.808379   1.000000
      8          1.590906   1.000000
      9          2.747494   1.000000
     10          4.495529   1.000000
     11          6.964656   0.000000
     12          8.322749   0.000000
     13         10.152040   0.000000
     14         12.282354   0.000000
     15         13.156927   0.000000
     16         14.587936   0.000000
     17         16.946535   0.000000
     18         18.993045   0.000000
     19         19.182890   0.000000
     20         19.632140   0.000000
     21         21.051676   0.000000
     22         21.392571   0.000000
     23         22.974137   0.000000
     24         23.658047   0.000000
     25         24.046534   0.000000
     26         24.506398   0.000000
     27         25.037740   0.000000
     28         26.404863   0.000000
     29         26.894593   0.000000
     30         27.585803   0.000000
     31         28.081396   0.000000
     32         28.647516   0.000000
     33         29.358819   0.000000
     34         30.640036   0.000000
     35         31.908350   0.000000
     36         32.319926   0.000000
 
 -0.2666667E+00  0.2666667E+00  0.6666667E-01  0.3555556E-02
      1        -19.137703   1.000000
      2        -19.134938   1.000000
      3        -19.128057   1.000000
      4        -19.127486   1.000000
      5        -19.122020   1.000000
      6         -5.664487   1.000000
      7         -2.567260   1.000000
      8          1.689200   1.000000
      9          3.149089   1.000000
     10          4.642337   1.000000
     11          6.697949   0.000000
     12          7.923648   0.000000
     13         10.122731   0.000000
     14         11.752223   0.000000
     15         13.806359   0.000000
     16         14.295415   0.000000
     17         16.139044   0.000000
     18         17.993399   0.000000
     19         20.147845   0.000000
     20         20.526902   0.000000
     21         20.790902   0.000000
     22         21.927844   0.000000
     23         22.430022   0.000000
     24         22.566267   0.000000
     25         23.838441   0.000000
     26         24.789519   0.000000
     27         25.504869   0.000000
     28         26.137631   0.000000
     29         27.031591   0.000000
     30         28.241455   0.000000
     31         28.724591   0.000000
     32         29.406328   0.000000
     33         30.276964   0.000000
     34         30.949602   0.000000
     35         32.050175   0.000000
     36         32.693915   0.000000
 
 -0.2000000E+00  0.2666667E+00  0.6666667E-01  0.3555556E-02
      1        -19.137577   1.000000
      2        -19.134913   1.000000
      3        -19.128135   1.000000
      4        -19.127519   1.000000
      5        -19.122240   1.000000
      6         -5.963907   1.000000
      7         -2.205443   1.000000
      8          1.963157   1.000000
      9          3.607991   1.000000
     10          4.648619   1.000000
     11          6.671108   0.000000
     12          7.528991   0.000000
     13          9.934758   0.000000
     14         11.257803   0.000000
     15         13.297893   0.000000
     16         14.857854   0.000000
     17         16.182665   0.000000
     18         16.691219   0.000000
     19         19.950076   0.000000
     20         20.288653   0.000000
     21         20.863610   0.000000
     22         21.680630   0.000000
     23         21.932444   0.000000
     24         23.040623   0.000000
     25         23.766159   0.000000
     26         24.976345   0.000000
     27         26.281850   0.000000
     28         26.723801   0.000000
     29         27.554460   0.000000
     30         28.906989   0.000000
     31         29.371680   0.000000
     32         29.851667   0.000000
     33         30.876383   0.000000
     34         32.046863   0.000000
     35         32.257387   0.000000
     36         33.090654   0.000000
 
 -0.1333333E+00  0.2666667E+00  0.6666667E-01  0.3555556E-02
      1        -19.137423   1.000000
      2        -19.134974   1.000000
      3        -19.128165   1.000000
      4        -19.127517   1.000000
      5        -19.122526   1.000000
      6         -6.262470   1.000000
      7         -1.822274   1.000000
      8          2.413072   1.000000
      9          3.939107   1.000000
     10          4.630606   1.000000
     11          6.894601   0.000000
     12          7.181463   0.000000
     13          9.550421   0.000000
     14         10.904236   0.000000
     15         12.858366   0.000000
     16         14.855558   0.000000
     17         15.331646   0.000000
     18         17.172225   0.000000
     19         19.043155   0.000000
     20         19.554875   0.000000
     21         19.802534   0.000000
     22         21.090213   0.000000
     23         23.042632   0.000000
     24         23.763943   0.000000
     25         24.614302   0.000000
     26         25.218625   0.000000
     27         26.348226   0.000000
     28         27.632203   0.000000
     29         29.172516   0.000000
     30         29.289562   0.000000
     31         29.583311   0.000000
     32         30.311761   0.000000
     33         31.095169   0.000000
     34         32.137472   0.000000
     35         32.615632   0.000000
     36         33.086381   0.000000
 
 -0.6666667E-01  0.2666667E+00  0.6666667E-01  0.3555556E-02
      1        -19.137234   1.000000
      2        -19.135151   1.000000
      3        -19.128091   1.000000
      4        -19.127517   1.000000
      5        -19.122844   1.000000
      6         -6.516580   1.000000
      7         -1.469855   1.000000
      8          3.001301   1.000000
      9          3.816461   1.000000
     10          4.930668   1.000000
     11          6.775145   0.000000
     12          7.462123   0.000000
     13          8.914837   0.000000
     14         10.855322   0.000000
     15         12.479184   0.000000
     16         14.027012   0.000000
     17         15.194061   0.000000
     18         17.018328   0.000000
     19         18.398696   0.000000
     20         18.643423   0.000000
     21         19.742259   0.000000
     22         20.637361   0.000000
     23         23.454835   0.000000
     24         24.916044   0.000000
     25         25.563583   0.000000
     26         25.820820   0.000000
     27         26.660875   0.000000
     28         28.419553   0.000000
     29         29.088232   0.000000
     30         29.472217   0.000000
     31         30.122202   0.000000
     32         30.879101   0.000000
     33         31.446797   0.000000
     34         31.899794   0.000000
     35         33.243017   0.000000
     36         33.470559   0.000000
 
  0.3333333E+00  0.3333333E+00  0.6666667E-01  0.1777778E-02
      1        -19.138306   1.000000
      2        -19.134876   1.000000
      3        -19.128456   1.000000
      4        -19.126396   1.000000
      5        -19.122632   1.000000
      6         -6.285253   1.000000
      7         -1.383854   1.000000
      8          2.097985   1.000000
      9          2.880116   1.000000
     10          3.435344   1.000000
     11          8.430267   0.000000
     12          9.135645   0.000000
     13          9.902309   0.000000
     14         10.818632   0.000000
     15         14.325163   0.000000
     16         14.637005   0.000000
     17         15.220248   0.000000
     18         15.648994   0.000000
     19         18.306870   0.000000
     20         18.856402   0.000000
     21         18.887148   0.000000
     22         21.490696   0.000000
     23         22.149414   0.000000
     24         23.003696   0.000000
     25         23.443687   0.000000
     26         25.955829   0.000000
     27         27.115402   0.000000
     28         27.406540   0.000000
     29         28.059980   0.000000
     30         28.856346   0.000000
     31         30.469197   0.000000
     32         30.609826   0.000000
     33         31.847855   0.000000
     34         32.132681   0.000000
     35         32.768971   0.000000
     36         33.527859   0.000000
 
  0.4000000E+00  0.3333333E+00  0.6666667E-01  0.3555556E-02
      1        -19.138579   1.000000
      2        -19.134678   1.000000
      3        -19.128580   1.000000
      4        -19.126301   1.000000
      5        -19.122341   1.000000
      6         -6.063934   1.000000
      7         -1.605910   1.000000
      8          1.760396   1.000000
      9          2.580675   1.000000
     10          3.278940   1.000000
     11          8.435415   0.000000
     12          9.680881   0.000000
     13         10.003653   0.000000
     14         10.861578   0.000000
     15         14.654976   0.000000
     16         15.401850   0.000000
     17         15.792314   0.000000
     18         16.256039   0.000000
     19         17.504374   0.000000
     20         19.092895   0.000000
     21         19.733667   0.000000
     22         20.504724   0.000000
     23         21.683575   0.000000
     24         22.645667   0.000000
     25         24.183398   0.000000
     26         25.576491   0.000000
     27         26.103918   0.000000
     28         26.800071   0.000000
     29         27.740639   0.000000
     30         28.974083   0.000000
     31         29.789362   0.000000
     32         30.094140   0.000000
     33         31.384122   0.000000
     34         32.339453   0.000000
     35         33.051032   0.000000
     36         33.621017   0.000000
 
  0.4666667E+00  0.3333333E+00  0.6666667E-01  0.3555556E-02
      1        -19.138639   1.000000
      2        -19.134636   1.000000
      3        -19.128605   1.000000
      4        -19.126346   1.000000
      5        -19.122072   1.000000
      6         -5.807571   1.000000
      7         -1.921018   1.000000
      8          1.474028   1.000000
      9          2.238575   1.000000
     10          3.406248   1.000000
     11          8.598606   0.000000
     12          9.547514   0.000000
     13         10.400526   0.000000
     14         10.711712   0.000000
     15         15.267889   0.000000
     16         15.605048   0.000000
     17         16.523440   0.000000
     18         16.919813   0.000000
     19         17.232680   0.000000
     20         19.122846   0.000000
     21         19.853089   0.000000
     22         20.705686   0.000000
     23         21.233097   0.000000
     24         23.040700   0.000000
     25         24.048678   0.000000
     26         25.170691   0.000000
     27         25.730580   0.000000
     28         26.297473   0.000000
     29         27.348557   0.000000
     30         28.738455   0.000000
     31         29.101634   0.000000
     32         29.700129   0.000000
     33         31.024934   0.000000
     34         31.841352   0.000000
     35         32.371340   0.000000
     36         33.083052   0.000000
 
 -0.4666667E+00  0.3333333E+00  0.6666667E-01  0.3555556E-02
      1        -19.138493   1.000000
      2        -19.134734   1.000000
      3        -19.128525   1.000000
      4        -19.126517   1.000000
      5        -19.121874   1.000000
      6         -5.554119   1.000000
      7         -2.269940   1.000000
      8          1.231712   1.000000
      9          2.103037   1.000000
     10          3.597430   1.000000
     11          8.518671   0.000000
     12          9.579139   0.000000
     13         10.395236   0.000000
     14         10.866901   0.000000
     15         14.501893   0.000000
     16         16.328405   0.000000
     17         17.071711   0.000000
     18         17.471151   0.000000
     19         17.902875   0.000000
     20         18.923065   0.000000
     21         19.688183   0.000000
     22         20.848183   0.000000
     23         22.442595   0.000000
     24         22.920565   0.000000
     25         23.584972   0.000000
     26         24.556799   0.000000
     27         25.744186   0.000000
     28         26.349246   0.000000
     29         27.332353   0.000000
     30         27.917486   0.000000
     31         28.795488   0.000000
     32         29.578407   0.000000
     33         30.159413   0.000000
     34         31.026317   0.000000
     35         31.411829   0.000000
     36         31.751461   0.000000
 
 -0.4000000E+00  0.3333333E+00  0.6666667E-01  0.3555556E-02
      1        -19.138203   1.000000
      2        -19.134914   1.000000
      3        -19.128368   1.000000
      4        -19.126786   1.000000
      5        -19.121777   1.000000
      6         -5.365032   1.000000
      7         -2.567528   1.000000
      8          1.075591   1.000000
      9          2.182552   1.000000
     10          3.821460   1.000000
     11          8.076177   0.000000
     12          9.480962   0.000000
     13         10.755517   0.000000
     14         11.089955   0.000000
     15         13.615390   0.000000
     16         15.860649   0.000000
     17         17.422198   0.000000
     18         18.165013   0.000000
     19         18.948694   0.000000
     20         19.172169   0.000000
     21         20.019559   0.000000
     22         21.213247   0.000000
     23         22.058690   0.000000
     24         23.108709   0.000000
     25         23.835523   0.000000
     26         24.775451   0.000000
     27         25.619534   0.000000
     28         26.103552   0.000000
     29         26.942289   0.000000
     30         27.884387   0.000000
     31         28.490819   0.000000
     32         28.868495   0.000000
     33         29.507409   0.000000
     34         30.073271   0.000000
     35         31.119201   0.000000
     36         31.701448   0.000000
 
 -0.3333333E+00  0.3333333E+00  0.6666667E-01  0.3555556E-02
      1        -19.137873   1.000000
      2        -19.135089   1.000000
      3        -19.128182   1.000000
      4        -19.127106   1.000000
      5        -19.121777   1.000000
      6         -5.314951   1.000000
      7         -2.723910   1.000000
      8          1.069196   1.000000
      9          2.428292   1.000000
     10          4.072652   1.000000
     11          7.536679   0.000000
     12          9.066149   0.000000
     13         10.988941   0.000000
     14         11.779119   0.000000
     15         12.888638   0.000000
     16         14.994283   0.000000
     17         16.939179   0.000000
     18         19.176469   0.000000
     19         19.744539   0.000000
     20         20.116080   0.000000
     21         20.337827   0.000000
     22         20.691112   0.000000
     23         22.636860   0.000000
     24         23.170115   0.000000
     25         23.653312   0.000000
     26         24.870509   0.000000
     27         25.408307   0.000000
     28         26.024116   0.000000
     29         26.850350   0.000000
     30         27.418622   0.000000
     31         27.882488   0.000000
     32         29.085831   0.000000
     33         29.310621   0.000000
     34         29.912385   0.000000
     35         31.272325   0.000000
     36         32.287195   0.000000
 
 -0.2666667E+00  0.3333333E+00  0.6666667E-01  0.3555556E-02
      1        -19.137618   1.000000
      2        -19.135169   1.000000
      3        -19.128033   1.000000
      4        -19.127403   1.000000
      5        -19.121861   1.000000
      6         -5.432876   1.000000
      7         -2.703969   1.000000
      8          1.251193   1.000000
      9          2.802714   1.000000
     10          4.326694   1.000000
     11          7.015950   0.000000
     12          8.575279   0.000000
     13         10.758399   0.000000
     14         12.168685   0.000000
     15         13.012887   0.000000
     16         14.331751   0.000000
     17         16.291293   0.000000
     18         19.261448   0.000000
     19         19.511309   0.000000
     20         20.634788   0.000000
     21         20.981936   0.000000
     22         21.477093   0.000000
     23         22.576955   0.000000
     24         23.668843   0.000000
     25         23.827862   0.000000
     26         24.052480   0.000000
     27         24.773934   0.000000
     28         26.177084   0.000000
     29         26.901583   0.000000
     30         27.268166   0.000000
     31         28.574067   0.000000
     32         28.875621   0.000000
     33         29.583374   0.000000
     34         30.876111   0.000000
     35         31.335277   0.000000
     36         32.349106   0.000000
 
 -0.2000000E+00  0.3333333E+00  0.6666667E-01  0.3555556E-02
      1        -19.137502   1.000000
      2        -19.135125   1.000000
      3        -19.128003   1.000000
      4        -19.127563   1.000000
      5        -19.122010   1.000000
      6         -5.664532   1.000000
      7         -2.556595   1.000000
      8          1.632730   1.000000
      9          3.270223   1.000000
     10          4.506164   1.000000
     11          6.648174   0.000000
     12          8.039906   0.000000
     13         10.281765   0.000000
     14         11.678223   0.000000
     15         13.755769   0.000000
     16         14.276990   0.000000
     17         16.077343   0.000000
     18         17.997676   0.000000
     19         18.909662   0.000000
     20         21.335825   0.000000
     21         21.696185   0.000000
     22         22.025619   0.000000
     23         22.611109   0.000000
     24         22.805246   0.000000
     25         23.065727   0.000000
     26         24.808117   0.000000
     27         25.349083   0.000000
     28         26.511922   0.000000
     29         27.135086   0.000000
     30         27.766834   0.000000
     31         28.471658   0.000000
     32         29.629136   0.000000
     33         30.174140   0.000000
     34         30.940588   0.000000
     35         32.050723   0.000000
     36         32.631567   0.000000
 
 -0.1333333E+00  0.3333333E+00  0.6666667E-01  0.3555556E-02
      1        -19.137477   1.000000
      2        -19.135041   1.000000
      3        -19.128069   1.000000
      4        -19.127572   1.000000
      5        -19.122214   1.000000
      6         -5.931448   1.000000
      7         -2.347593   1.000000
      8          2.196062   1.000000
      9          3.736891   1.000000
     10          4.532978   1.000000
     11          6.614988   0.000000
     12          7.474877   0.000000
     13          9.543030   0.000000
     14         11.443373   0.000000
     15         13.283548   0.000000
     16         15.378910   0.000000
     17         16.489863   0.000000
     18         16.546096   0.000000
     19         18.456456   0.000000
     20         20.249505   0.000000
     21         21.155562   0.000000
     22         21.803983   0.000000
     23         22.609605   0.000000
     24         23.242591   0.000000
     25         24.125010   0.000000
     26         25.107600   0.000000
     27         26.286518   0.000000
     28         26.810033   0.000000
     29         28.173876   0.000000
     30         28.516375   0.000000
     31         29.041387   0.000000
     32         29.437812   0.000000
     33         30.658415   0.000000
     34         31.062194   0.000000
     35         32.198460   0.000000
     36         32.535957   0.000000
 
 -0.6666667E-01  0.3333333E+00  0.6666667E-01  0.3555556E-02
      1        -19.137444   1.000000
      2        -19.135034   1.000000
      3        -19.128067   1.000000
      4        -19.127563   1.000000
      5        -19.122458   1.000000
      6         -6.178916   1.000000
      7         -2.113534   1.000000
      8          2.889284   1.000000
      9          3.815890   1.000000
     10          4.751876   1.000000
     11          6.832117   0.000000
     12          7.043433   0.000000
     13          8.657045   0.000000
     14         11.461344   0.000000
     15         12.960018   0.000000
     16         15.046921   0.000000
     17         16.108834   0.000000
     18         17.344451   0.000000
     19         18.243150   0.000000
     20         19.198240   0.000000
     21         20.195199   0.000000
     22         20.908489   0.000000
     23         22.405367   0.000000
     24         24.296921   0.000000
     25         25.432042   0.000000
     26         25.999940   0.000000
     27         26.672679   0.000000
     28         27.430828   0.000000
     29         28.618670   0.000000
     30         28.955359   0.000000
     31         29.656717   0.000000
     32         29.968457   0.000000
     33         30.495875   0.000000
     34         31.265326   0.000000
     35         32.051274   0.000000
     36         33.060663   0.000000
 
  0.4000000E+00  0.4000000E+00  0.6666667E-01  0.1777778E-02
      1        -19.138998   1.000000
      2        -19.134369   1.000000
      3        -19.128763   1.000000
      4        -19.126108   1.000000
      5        -19.122106   1.000000
      6         -5.896620   1.000000
      7         -1.649907   1.000000
      8          1.351655   1.000000
      9          2.613546   1.000000
     10          2.785359   1.000000
     11          8.227341   0.000000
     12         10.287661   0.000000
     13         10.596843   0.000000
     14         11.113480   0.000000
     15         14.858678   0.000000
     16         15.482223   0.000000
     17         16.425548   0.000000
     18         16.900336   0.000000
     19         17.757844   0.000000
     20         18.226991   0.000000
     21         20.128725   0.000000
     22         20.515897   0.000000
     23         20.908802   0.000000
     24         21.345142   0.000000
     25         24.839634   0.000000
     26         25.284231   0.000000
     27         25.374903   0.000000
     28         26.381009   0.000000
     29         28.220567   0.000000
     30         28.997157   0.000000
     31         29.022797   0.000000
     32         30.610923   0.000000
     33         30.850829   0.000000
     34         32.015084   0.000000
     35         32.792270   0.000000
     36         33.442132   0.000000
 
  0.4666667E+00  0.4000000E+00  0.6666667E-01  0.3555556E-02
      1        -19.139176   1.000000
      2        -19.134235   1.000000
      3        -19.128844   1.000000
      4        -19.126067   1.000000
      5        -19.121887   1.000000
      6         -5.699743   1.000000
      7         -1.806536   1.000000
      8          1.031093   1.000000
      9          2.278139   1.000000
     10          2.886881   1.000000
     11          8.272536   0.000000
     12         10.183627   0.000000
     13         11.075716   0.000000
     14         11.321108   0.000000
     15         15.248641   0.000000
     16         15.812844   0.000000
     17         16.757750   0.000000
     18         17.276351   0.000000
     19         17.744154   0.000000
     20         18.702983   0.000000
     21         19.405009   0.000000
     22         20.092264   0.000000
     23         21.140212   0.000000
     24         21.600052   0.000000
     25         23.510158   0.000000
     26         24.707104   0.000000
     27         26.151896   0.000000
     28         26.549284   0.000000
     29         27.876560   0.000000
     30         28.220413   0.000000
     31         29.209340   0.000000
     32         30.063127   0.000000
     33         30.700512   0.000000
     34         32.213968   0.000000
     35         32.913094   0.000000
     36         33.352300   0.000000
 
 -0.4666667E+00  0.4000000E+00  0.6666667E-01  0.3555556E-02
      1        -19.139078   1.000000
      2        -19.134300   1.000000
      3        -19.128805   1.000000
      4        -19.126181   1.000000
      5        -19.121730   1.000000
      6         -5.502778   1.000000
      7         -2.043704   1.000000
      8          0.806849   1.000000
      9          2.050127   1.000000
     10          3.116570   1.000000
     11          8.554304   0.000000
     12          9.795157   0.000000
     13         10.917250   0.000000
     14         11.686862   0.000000
     15         15.075795   0.000000
     16         16.007992   0.000000
     17         17.125020   0.000000
     18         17.860805   0.000000
     19         18.295430   0.000000
     20         18.850473   0.000000
     21         18.954918   0.000000
     22         19.989055   0.000000
     23         21.725776   0.000000
     24         21.999087   0.000000
     25         22.963025   0.000000
     26         24.340243   0.000000
     27         25.799888   0.000000
     28         26.887007   0.000000
     29         27.530505   0.000000
     30         28.064257   0.000000
     31         28.785356   0.000000
     32         29.787937   0.000000
     33         30.569047   0.000000
     34         31.560031   0.000000
     35         31.999911   0.000000
     36         32.972267   0.000000
 
 -0.4000000E+00  0.4000000E+00  0.6666667E-01  0.3555556E-02
      1        -19.138731   1.000000
      2        -19.134532   1.000000
      3        -19.128653   1.000000
      4        -19.126433   1.000000
      5        -19.121662   1.000000
      6         -5.345058   1.000000
      7         -2.312422   1.000000
      8          0.699847   1.000000
      9          2.035765   1.000000
     10          3.374155   1.000000
     11          8.647663   0.000000
     12          9.645170   0.000000
     13         10.612075   0.000000
     14         11.806641   0.000000
     15         14.212497   0.000000
     16         16.282227   0.000000
     17         17.074710   0.000000
     18         18.056072   0.000000
     19         18.960254   0.000000
     20         19.343612   0.000000
     21         19.572125   0.000000
     22         20.479318   0.000000
     23         21.133259   0.000000
     24         22.207630   0.000000
     25         24.021706   0.000000
     26         24.524382   0.000000
     27         24.981416   0.000000
     28         26.609966   0.000000
     29         27.205771   0.000000
     30         27.867979   0.000000
     31         29.011777   0.000000
     32         29.306492   0.000000
     33         29.789805   0.000000
     34         30.865001   0.000000
     35         31.705360   0.000000
     36         31.811054   0.000000
 
 -0.3333333E+00  0.4000000E+00  0.6666667E-01  0.3555556E-02
      1        -19.138233   1.000000
      2        -19.134863   1.000000
      3        -19.128427   1.000000
      4        -19.126782   1.000000
      5        -19.121676   1.000000
      6         -5.269072   1.000000
      7         -2.557369   1.000000
      8          0.759152   1.000000
      9          2.213159   1.000000
     10          3.656583   1.000000
     11          8.119493   0.000000
     12          9.673965   0.000000
     13         10.806206   0.000000
     14         11.619331   0.000000
     15         13.446674   0.000000
     16         15.565783   0.000000
     17         17.204937   0.000000
     18         18.346942   0.000000
     19         19.257232   0.000000
     20         20.094162   0.000000
     21         20.365500   0.000000
     22         20.680829   0.000000
     23         22.098649   0.000000
     24         22.474242   0.000000
     25         23.541972   0.000000
     26         24.352518   0.000000
     27         26.019168   0.000000
     28         26.288130   0.000000
     29         26.812798   0.000000
     30         27.574094   0.000000
     31         27.878767   0.000000
     32         28.917162   0.000000
     33         29.964990   0.000000
     34         30.191815   0.000000
     35         31.044912   0.000000
     36         32.254546   0.000000
 
 -0.2666667E+00  0.4000000E+00  0.6666667E-01  0.3555556E-02
      1        -19.137751   1.000000
      2        -19.135166   1.000000
      3        -19.128181   1.000000
      4        -19.127169   1.000000
      5        -19.121752   1.000000
      6         -5.302081   1.000000
      7         -2.729595   1.000000
      8          1.018897   1.000000
      9          2.545186   1.000000
     10          3.959403   1.000000
     11          7.444157   0.000000
     12          9.183840   0.000000
     13         11.091393   0.000000
     14         11.790972   0.000000
     15         12.846440   0.000000
     16         14.913179   0.000000
     17         16.957673   0.000000
     18         18.431736   0.000000
     19         19.212193   0.000000
     20         20.577588   0.000000
     21         21.332104   0.000000
     22         21.726231   0.000000
     23         21.929415   0.000000
     24         22.990479   0.000000
     25         23.892334   0.000000
     26         24.888344   0.000000
     27         25.155189   0.000000
     28         25.748770   0.000000
     29         26.785249   0.000000
     30         27.550004   0.000000
     31         27.696785   0.000000
     32         28.954613   0.000000
     33         29.227738   0.000000
     34         30.242537   0.000000
     35         31.140583   0.000000
     36         32.500747   0.000000
 
 -0.2000000E+00  0.4000000E+00  0.6666667E-01  0.3555556E-02
      1        -19.137485   1.000000
      2        -19.135268   1.000000
      3        -19.127974   1.000000
      4        -19.127508   1.000000
      5        -19.121861   1.000000
      6         -5.435834   1.000000
      7         -2.803928   1.000000
      8          1.476583   1.000000
      9          2.996756   1.000000
     10          4.247034   1.000000
     11          6.836087   0.000000
     12          8.536797   0.000000
     13         10.304798   0.000000
     14         12.400725   0.000000
     15         13.099186   0.000000
     16         14.356913   0.000000
     17         16.882554   0.000000
     18         17.872986   0.000000
     19         19.132803   0.000000
     20         20.682573   0.000000
     21         21.118473   0.000000
     22         22.375833   0.000000
     23         23.017213   0.000000
     24         23.619153   0.000000
     25         23.898155   0.000000
     26         24.415168   0.000000
     27         25.459158   0.000000
     28         26.086182   0.000000
     29         26.708501   0.000000
     30         26.993712   0.000000
     31         28.056635   0.000000
     32         28.616948   0.000000
     33         29.509828   0.000000
     34         30.412300   0.000000
     35         31.846155   0.000000
     36         32.480666   0.000000
 
 -0.1333333E+00  0.4000000E+00  0.6666667E-01  0.3555556E-02
      1        -19.137500   1.000000
      2        -19.135139   1.000000
      3        -19.127920   1.000000
      4        -19.127661   1.000000
      5        -19.121997   1.000000
      6         -5.629886   1.000000
      7         -2.782598   1.000000
      8          2.099936   1.000000
      9          3.506385   1.000000
     10          4.428045   1.000000
     11          6.488522   0.000000
     12          7.822318   0.000000
     13          9.352703   0.000000
     14         12.283948   0.000000
     15         13.878268   0.000000
     16         14.489573   0.000000
     17         16.779405   0.000000
     18         17.718198   0.000000
     19         17.817550   0.000000
     20         20.521892   0.000000
     21         21.601933   0.000000
     22         21.996594   0.000000
     23         22.992012   0.000000
     24         23.716350   0.000000
     25         24.388168   0.000000
     26         24.712335   0.000000
     27         25.853392   0.000000
     28         26.678548   0.000000
     29         27.253665   0.000000
     30         27.786020   0.000000
     31         28.207495   0.000000
     32         28.825549   0.000000
     33         29.197317   0.000000
     34         30.747682   0.000000
     35         32.179590   0.000000
     36         32.473644   0.000000
 
 -0.6666667E-01  0.4000000E+00  0.6666667E-01  0.3555556E-02
      1        -19.137609   1.000000
      2        -19.134975   1.000000
      3        -19.127985   1.000000
      4        -19.127627   1.000000
      5        -19.122159   1.000000
      6         -5.836776   1.000000
      7         -2.680469   1.000000
      8          2.832540   1.000000
      9          3.789773   1.000000
     10          4.611846   1.000000
     11          6.578857   0.000000
     12          7.105390   0.000000
     13          8.366320   0.000000
     14         12.321726   0.000000
     15         13.647399   0.000000
     16         15.704547   0.000000
     17         16.155341   0.000000
     18         16.810473   0.000000
     19         18.115592   0.000000
     20         19.895156   0.000000
     21         20.946987   0.000000
     22         22.006123   0.000000
     23         22.498495   0.000000
     24         23.281542   0.000000
     25         25.273991   0.000000
     26         25.856375   0.000000
     27         26.730695   0.000000
     28         26.989337   0.000000
     29         27.644753   0.000000
     30         28.162987   0.000000
     31         28.643116   0.000000
     32         29.698198   0.000000
     33         30.062593   0.000000
     34         30.531188   0.000000
     35         31.245031   0.000000
     36         32.652426   0.000000
 
  0.4666667E+00  0.4666667E+00  0.6666667E-01  0.1777778E-02
      1        -19.139507   1.000000
      2        -19.133977   1.000000
      3        -19.128991   1.000000
      4        -19.125933   1.000000
      5        -19.121719   1.000000
      6         -5.574815   1.000000
      7         -1.807697   1.000000
      8          0.733584   1.000000
      9          2.441698   1.000000
     10          2.448443   1.000000
     11          8.068602   0.000000
     12         10.564196   0.000000
     13         11.302738   0.000000
     14         11.933417   0.000000
     15         15.332496   0.000000
     16         16.118193   0.000000
     17         17.033914   0.000000
     18         17.188040   0.000000
     19         17.982068   0.000000
     20         19.045744   0.000000
     21         19.318840   0.000000
     22         19.940710   0.000000
     23         20.010048   0.000000
     24         22.004712   0.000000
     25         23.015485   0.000000
     26         23.246996   0.000000
     27         26.128299   0.000000
     28         27.056318   0.000000
     29         27.705704   0.000000
     30         28.668562   0.000000
     31         29.158892   0.000000
     32         30.538539   0.000000
     33         30.701850   0.000000
     34         31.973008   0.000000
     35         32.247538   0.000000
     36         33.301347   0.000000
 
 -0.4666667E+00  0.4666667E+00  0.6666667E-01  0.3555556E-02
      1        -19.139534   1.000000
      2        -19.133933   1.000000
      3        -19.129012   1.000000
      4        -19.125962   1.000000
      5        -19.121607   1.000000
      6         -5.455795   1.000000
      7         -1.913680   1.000000
      8          0.577444   1.000000
      9          2.137850   1.000000
     10          2.689545   1.000000
     11          8.162374   0.000000
     12         10.362330   0.000000
     13         11.309249   0.000000
     14         12.276534   0.000000
     15         15.640005   0.000000
     16         15.817521   0.000000
     17         17.024793   0.000000
     18         17.839927   0.000000
     19         18.126062   0.000000
     20         18.812224   0.000000
     21         19.425966   0.000000
     22         19.918272   0.000000
     23         20.529364   0.000000
     24         21.565951   0.000000
     25         22.834621   0.000000
     26         23.173404   0.000000
     27         25.677834   0.000000
     28         26.600847   0.000000
     29         28.041390   0.000000
     30         28.811964   0.000000
     31         29.388254   0.000000
     32         30.089589   0.000000
     33         30.842278   0.000000
     34         31.535844   0.000000
     35         32.477958   0.000000
     36         33.172013   0.000000
 
 -0.4000000E+00  0.4666667E+00  0.6666667E-01  0.3555556E-02
      1        -19.139250   1.000000
      2        -19.134114   1.000000
      3        -19.128903   1.000000
      4        -19.126158   1.000000
      5        -19.121577   1.000000
      6         -5.366112   1.000000
      7         -2.098701   1.000000
      8          0.554371   1.000000
      9          2.021729   1.000000
     10          2.974440   1.000000
     11          8.507195   0.000000
     12          9.820011   0.000000
     13         11.087339   0.000000
     14         12.241753   0.000000
     15         14.958876   0.000000
     16         16.231336   0.000000
     17         16.985791   0.000000
     18         17.928895   0.000000
     19         18.456405   0.000000
     20         19.137837   0.000000
     21         19.953900   0.000000
     22         20.140187   0.000000
     23         20.775467   0.000000
     24         21.358864   0.000000
     25         22.718093   0.000000
     26         24.522174   0.000000
     27         25.244267   0.000000
     28         26.338423   0.000000
     29         27.092373   0.000000
     30         28.727407   0.000000
     31         29.557408   0.000000
     32         29.865872   0.000000
     33         30.584235   0.000000
     34         31.175444   0.000000
     35         32.291138   0.000000
     36         32.502610   0.000000
 
 -0.3333333E+00  0.4666667E+00  0.6666667E-01  0.3555556E-02
      1        -19.138725   1.000000
      2        -19.134472   1.000000
      3        -19.128688   1.000000
      4        -19.126488   1.000000
      5        -19.121621   1.000000
      6         -5.322141   1.000000
      7         -2.338143   1.000000
      8          0.685720   1.000000
      9          2.114741   1.000000
     10          3.284264   1.000000
     11          8.576097   0.000000
     12          9.597638   0.000000
     13         10.712617   0.000000
     14         11.816517   0.000000
     15         14.260908   0.000000
     16         16.224386   0.000000
     17         16.964142   0.000000
     18         17.995685   0.000000
     19         18.575188   0.000000
     20         19.314988   0.000000
     21         20.414476   0.000000
     22         20.779906   0.000000
     23         21.361081   0.000000
     24         22.420770   0.000000
     25         23.047050   0.000000
     26         24.586164   0.000000
     27         25.178318   0.000000
     28         26.424486   0.000000
     29         26.954772   0.000000
     30         27.762688   0.000000
     31         28.922980   0.000000
     32         29.575502   0.000000
     33         30.055875   0.000000
     34         30.838183   0.000000
     35         31.554624   0.000000
     36         32.305959   0.000000
 
 -0.2666667E+00  0.4666667E+00  0.6666667E-01  0.3555556E-02
      1        -19.138101   1.000000
      2        -19.134901   1.000000
      3        -19.128410   1.000000
      4        -19.126892   1.000000
      5        -19.121710   1.000000
      6         -5.329205   1.000000
      7         -2.597411   1.000000
      8          0.997104   1.000000
      9          2.393427   1.000000
     10          3.617380   1.000000
     11          7.905901   0.000000
     12          9.630724   0.000000
     13         10.790128   0.000000
     14         11.130335   0.000000
     15         13.774714   0.000000
     16         15.582242   0.000000
     17         17.412700   0.000000
     18         17.734257   0.000000
     19         18.282939   0.000000
     20         19.911802   0.000000
     21         20.831790   0.000000
     22         21.928483   0.000000
     23         22.277788   0.000000
     24         23.280617   0.000000
     25         23.754027   0.000000
     26         23.945021   0.000000
     27         25.329283   0.000000
     28         26.036405   0.000000
     29         26.883976   0.000000
     30         27.460449   0.000000
     31         28.506685   0.000000
     32         28.978025   0.000000
     33         29.357849   0.000000
     34         30.310391   0.000000
     35         31.179753   0.000000
     36         32.696663   0.000000
 
 -0.2000000E+00  0.4666667E+00  0.6666667E-01  0.3555556E-02
      1        -19.137620   1.000000
      2        -19.135211   1.000000
      3        -19.128128   1.000000
      4        -19.127302   1.000000
      5        -19.121810   1.000000
      6         -5.383624   1.000000
      7         -2.828300   1.000000
      8          1.482009   1.000000
      9          2.821216   1.000000
     10          3.963246   1.000000
     11          7.157773   0.000000
     12          8.979264   0.000000
     13         10.098336   0.000000
     14         11.904343   0.000000
     15         13.503789   0.000000
     16         15.079633   0.000000
     17         16.589118   0.000000
     18         18.135333   0.000000
     19         18.851132   0.000000
     20         19.931861   0.000000
     21         20.829058   0.000000
     22         22.227069   0.000000
     23         23.372553   0.000000
     24         23.751509   0.000000
     25         24.510260   0.000000
     26         24.809543   0.000000
     27         25.418392   0.000000
     28         26.033887   0.000000
     29         26.286138   0.000000
     30         26.801791   0.000000
     31         27.626961   0.000000
     32         28.497048   0.000000
     33         29.458955   0.000000
     34         30.389432   0.000000
     35         31.674990   0.000000
     36         32.758936   0.000000
 
 -0.1333333E+00  0.4666667E+00  0.6666667E-01  0.3555556E-02
      1        -19.137525   1.000000
      2        -19.135186   1.000000
      3        -19.127894   1.000000
      4        -19.127639   1.000000
      5        -19.121904   1.000000
      6         -5.476440   1.000000
      7         -2.985581   1.000000
      8          2.105253   1.000000
      9          3.344200   1.000000
     10          4.275633   1.000000
     11          6.572837   0.000000
     12          8.138505   0.000000
     13          9.110696   0.000000
     14         13.048330   0.000000
     15         13.537656   0.000000
     16         14.730337   0.000000
     17         15.940504   0.000000
     18         18.349246   0.000000
     19         18.802677   0.000000
     20         19.856594   0.000000
     21         20.423203   0.000000
     22         22.751549   0.000000
     23         23.600609   0.000000
     24         24.440812   0.000000
     25         24.968991   0.000000
     26         25.106927   0.000000
     27         25.465456   0.000000
     28         26.030458   0.000000
     29         26.405004   0.000000
     30         27.457228   0.000000
     31         27.783364   0.000000
     32         28.025950   0.000000
     33         28.898585   0.000000
     34         30.852342   0.000000
     35         32.212160   0.000000
     36         32.497587   0.000000
 
 -0.6666667E-01  0.4666667E+00  0.6666667E-01  0.3555556E-02
      1        -19.137699   1.000000
      2        -19.134955   1.000000
      3        -19.127888   1.000000
      4        -19.127702   1.000000
      5        -19.121995   1.000000
      6         -5.593290   1.000000
      7         -3.042299   1.000000
      8          2.812985   1.000000
      9          3.755258   1.000000
     10          4.556299   1.000000
     11          6.379224   0.000000
     12          7.248202   0.000000
     13          8.154118   0.000000
     14         13.325283   0.000000
     15         14.484763   0.000000
     16         14.655014   0.000000
     17         15.608496   0.000000
     18         17.320842   0.000000
     19         18.489618   0.000000
     20         19.882257   0.000000
     21         21.243272   0.000000
     22         22.212398   0.000000
     23         23.724834   0.000000
     24         23.843543   0.000000
     25         24.560042   0.000000
     26         25.520834   0.000000
     27         26.159491   0.000000
     28         26.466973   0.000000
     29         26.902756   0.000000
     30         27.920037   0.000000
     31         28.488836   0.000000
     32         29.186349   0.000000
     33         29.356240   0.000000
     34         30.573108   0.000000
     35         31.137962   0.000000
     36         32.260919   0.000000
 
 -0.4666667E+00 -0.4666667E+00  0.6666667E-01  0.1777778E-02
      1        -19.139716   1.000000
      2        -19.133759   1.000000
      3        -19.129103   1.000000
      4        -19.125903   1.000000
      5        -19.121541   1.000000
      6         -5.428497   1.000000
      7         -1.890449   1.000000
      8          0.530245   1.000000
      9          2.314843   1.000000
     10          2.377258   1.000000
     11          7.994202   0.000000
     12         10.641271   0.000000
     13         11.363347   0.000000
     14         12.462781   0.000000
     15         15.557121   0.000000
     16         16.311091   0.000000
     17         17.075288   0.000000
     18         17.335119   0.000000
     19         18.354128   0.000000
     20         18.921643   0.000000
     21         19.045539   0.000000
     22         20.425034   0.000000
     23         20.802678   0.000000
     24         21.320973   0.000000
     25         21.531694   0.000000
     26         23.695051   0.000000
     27         24.894281   0.000000
     28         26.288002   0.000000
     29         28.867390   0.000000
     30         29.240725   0.000000
     31         29.744628   0.000000
     32         30.425417   0.000000
     33         30.797137   0.000000
     34         31.026502   0.000000
     35         32.169873   0.000000
     36         33.181681   0.000000
 
 -0.4000000E+00 -0.4666667E+00  0.6666667E-01  0.3555556E-02
      1        -19.139568   1.000000
      2        -19.133823   1.000000
      3        -19.129061   1.000000
      4        -19.126019   1.000000
      5        -19.121557   1.000000
      6         -5.429700   1.000000
      7         -1.957131   1.000000
      8          0.624333   1.000000
      9          2.141803   1.000000
     10          2.635984   1.000000
     11          8.136293   0.000000
     12         10.291645   0.000000
     13         11.305923   0.000000
     14         12.208829   0.000000
     15         15.667295   0.000000
     16         15.827853   0.000000
     17         17.401971   0.000000
     18         17.712504   0.000000
     19         18.017265   0.000000
     20         19.009233   0.000000
     21         19.450869   0.000000
     22         19.911512   0.000000
     23         21.104772   0.000000
     24         21.560064   0.000000
     25         22.002945   0.000000
     26         23.695753   0.000000
     27         25.220803   0.000000
     28         26.145606   0.000000
     29         28.080698   0.000000
     30         29.222939   0.000000
     31         29.575496   0.000000
     32         30.076906   0.000000
     33         31.097574   0.000000
     34         31.527997   0.000000
     35         32.502178   0.000000
     36         33.135006   0.000000
 
 -0.3333333E+00 -0.4666667E+00  0.6666667E-01  0.3555556E-02
      1        -19.139116   1.000000
      2        -19.134112   1.000000
      3        -19.128892   1.000000
      4        -19.126289   1.000000
      5        -19.121639   1.000000
      6         -5.456776   1.000000
      7         -2.105875   1.000000
      8          0.835721   1.000000
      9          2.141094   1.000000
     10          2.965968   1.000000
     11          8.498487   0.000000
     12          9.630572   0.000000
     13         11.041657   0.000000
     14         11.600241   0.000000
     15         15.243351   0.000000
     16         16.047942   0.000000
     17         16.869741   0.000000
     18         17.718387   0.000000
     19         18.304370   0.000000
     20         18.948740   0.000000
     21         19.864193   0.000000
     22         20.234813   0.000000
     23         21.606714   0.000000
     24         22.428047   0.000000
     25         22.969432   0.000000
     26         23.492485   0.000000
     27         25.512016   0.000000
     28         26.648587   0.000000
     29         27.038758   0.000000
     30         28.419679   0.000000
     31         28.990911   0.000000
     32         29.966975   0.000000
     33         30.932968   0.000000
     34         31.611336   0.000000
     35         32.318587   0.000000
     36         33.262371   0.000000
 
 -0.2666667E+00 -0.4666667E+00  0.6666667E-01  0.3555556E-02
      1        -19.138476   1.000000
      2        -19.134556   1.000000
      3        -19.128630   1.000000
      4        -19.126668   1.000000
      5        -19.121757   1.000000
      6         -5.497722   1.000000
      7         -2.328821   1.000000
      8          1.168912   1.000000
      9          2.356970   1.000000
     10          3.325337   1.000000
     11          8.336381   0.000000
     12          9.535755   0.000000
     13         10.528268   0.000000
     14         10.845415   0.000000
     15         14.859887   0.000000
     16         16.119463   0.000000
     17         16.699848   0.000000
     18         17.099989   0.000000
     19         18.110847   0.000000
     20         19.406613   0.000000
     21         20.243423   0.000000
     22         21.595937   0.000000
     23         22.413889   0.000000
     24         23.163889   0.000000
     25         23.731947   0.000000
     26         24.334129   0.000000
     27         24.577909   0.000000
     28         25.902581   0.000000
     29         27.476876   0.000000
     30         27.983692   0.000000
     31         28.566951   0.000000
     32         29.684828   0.000000
     33         30.073999   0.000000
     34         31.058389   0.000000
     35         31.968756   0.000000
     36         32.958880   0.000000
 
 -0.2000000E+00 -0.4666667E+00  0.6666667E-01  0.3555556E-02
      1        -19.137858   1.000000
      2        -19.134991   1.000000
      3        -19.128329   1.000000
      4        -19.127089   1.000000
      5        -19.121870   1.000000
      6         -5.538804   1.000000
      7         -2.592390   1.000000
      8          1.625741   1.000000
      9          2.761854   1.000000
     10          3.710677   1.000000
     11          7.562867   0.000000
     12          9.292699   0.000000
     13          9.784065   0.000000
     14         11.011602   0.000000
     15         14.631546   0.000000
     16         15.549615   0.000000
     17         16.252757   0.000000
     18         17.495149   0.000000
     19         17.956569   0.000000
     20         20.092187   0.000000
     21         20.510332   0.000000
     22         22.440325   0.000000
     23         23.238517   0.000000
     24         23.432715   0.000000
     25         24.141306   0.000000
     26         24.831323   0.000000
     27         25.489446   0.000000
     28         25.587119   0.000000
     29         26.703197   0.000000
     30         27.248493   0.000000
     31         28.261496   0.000000
     32         29.153905   0.000000
     33         30.348280   0.000000
     34         30.636698   0.000000
     35         31.628889   0.000000
     36         33.156659   0.000000
 
 -0.1333333E+00 -0.4666667E+00  0.6666667E-01  0.3555556E-02
      1        -19.137569   1.000000
      2        -19.135149   1.000000
      3        -19.128049   1.000000
      4        -19.127474   1.000000
      5        -19.121950   1.000000
      6         -5.571193   1.000000
      7         -2.846104   1.000000
      8          2.186178   1.000000
      9          3.291547   1.000000
     10          4.114983   1.000000
     11          6.832856   0.000000
     12          8.303344   0.000000
     13          8.974887   0.000000
     14         12.102501   0.000000
     15         14.527556   0.000000
     16         14.973559   0.000000
     17         15.801968   0.000000
     18         17.633205   0.000000
     19         18.389101   0.000000
     20         20.345843   0.000000
     21         20.773785   0.000000
     22         21.767342   0.000000
     23         23.448672   0.000000
     24         24.562026   0.000000
     25         25.002173   0.000000
     26         25.123568   0.000000
     27         25.473672   0.000000
     28         26.401690   0.000000
     29         26.722883   0.000000
     30         27.168518   0.000000
     31         27.654415   0.000000
     32         28.480135   0.000000
     33         29.729498   0.000000
     34         30.906316   0.000000
     35         32.131470   0.000000
     36         32.737455   0.000000
 
 -0.4000000E+00 -0.4000000E+00  0.6666667E-01  0.1777778E-02
      1        -19.139579   1.000000
      2        -19.133745   1.000000
      3        -19.129090   1.000000
      4        -19.126042   1.000000
      5        -19.121616   1.000000
      6         -5.526613   1.000000
      7         -1.888046   1.000000
      8          0.846773   1.000000
      9          2.347219   1.000000
     10          2.424314   1.000000
     11          8.014891   0.000000
     12         10.494793   0.000000
     13         11.194083   0.000000
     14         11.789420   0.000000
     15         15.403884   0.000000
     16         16.097289   0.000000
     17         17.264331   0.000000
     18         17.844120   0.000000
     19         18.310197   0.000000
     20         18.574283   0.000000
     21         19.213351   0.000000
     22         20.005466   0.000000
     23         20.504969   0.000000
     24         22.317556   0.000000
     25         22.672914   0.000000
     26         22.935025   0.000000
     27         25.566781   0.000000
     28         26.263217   0.000000
     29         28.020520   0.000000
     30         29.087253   0.000000
     31         29.252537   0.000000
     32         30.862936   0.000000
     33         31.471787   0.000000
     34         31.712886   0.000000
     35         32.501447   0.000000
     36         33.083062   0.000000
 
 -0.3333333E+00 -0.4000000E+00  0.6666667E-01  0.3555556E-02
      1        -19.139267   1.000000
      2        -19.133913   1.000000
      3        -19.128987   1.000000
      4        -19.126229   1.000000
      5        -19.121743   1.000000
      6         -5.637442   1.000000
      7         -1.896685   1.000000
      8          1.154394   1.000000
      9          2.294562   1.000000
     10          2.714472   1.000000
     11          8.195363   0.000000
     12         10.027091   0.000000
     13         11.054875   0.000000
     14         11.158349   0.000000
     15         15.273464   0.000000
     16         15.958548   0.000000
     17         16.756401   0.000000
     18         17.649451   0.000000
     19         18.373558   0.000000
     20         18.681261   0.000000
     21         19.471794   0.000000
     22         20.336652   0.000000
     23         21.077692   0.000000
     24         21.938801   0.000000
     25         23.342237   0.000000
     26         23.983027   0.000000
     27         25.436318   0.000000
     28         26.753464   0.000000
     29         27.320919   0.000000
     30         28.351689   0.000000
     31         29.662938   0.000000
     32         30.215840   0.000000
     33         31.948004   0.000000
     34         32.286306   0.000000
     35         32.791311   0.000000
     36         33.228094   0.000000
 
 -0.2666667E+00 -0.4000000E+00  0.6666667E-01  0.3555556E-02
      1        -19.138707   1.000000
      2        -19.134286   1.000000
      3        -19.128773   1.000000
      4        -19.126548   1.000000
      5        -19.121902   1.000000
      6         -5.739531   1.000000
      7         -1.999248   1.000000
      8          1.500139   1.000000
      9          2.441585   1.000000
     10          3.093110   1.000000
     11          8.481721   0.000000
     12          9.389876   0.000000
     13         10.235981   0.000000
     14         10.835076   0.000000
     15         15.278378   0.000000
     16         15.889613   0.000000
     17         16.108537   0.000000
     18         17.296660   0.000000
     19         17.850778   0.000000
     20         18.705313   0.000000
     21         20.720547   0.000000
     22         21.260491   0.000000
     23         21.501624   0.000000
     24         22.266091   0.000000
     25         24.353515   0.000000
     26         24.964710   0.000000
     27         25.308585   0.000000
     28         25.444706   0.000000
     29         27.199079   0.000000
     30         28.842049   0.000000
     31         29.143866   0.000000
     32         29.999039   0.000000
     33         31.519595   0.000000
     34         31.831049   0.000000
     35         32.982556   0.000000
     36         33.622336   0.000000
 
 -0.2000000E+00 -0.4000000E+00  0.6666667E-01  0.3555556E-02
      1        -19.138059   1.000000
      2        -19.134746   1.000000
      3        -19.128492   1.000000
      4        -19.126939   1.000000
      5        -19.122045   1.000000
      6         -5.813747   1.000000
      7         -2.190835   1.000000
      8          1.877763   1.000000
      9          2.828886   1.000000
     10          3.518713   1.000000
     11          8.002425   0.000000
     12          9.207183   0.000000
     13          9.498507   0.000000
     14         10.553131   0.000000
     15         14.972855   0.000000
     16         15.492452   0.000000
     17         16.385911   0.000000
     18         16.931046   0.000000
     19         17.421125   0.000000
     20         19.120152   0.000000
     21         21.316867   0.000000
     22         21.561127   0.000000
     23         22.815428   0.000000
     24         23.564718   0.000000
     25         23.925923   0.000000
     26         24.656036   0.000000
     27         25.450910   0.000000
     28         26.323373   0.000000
     29         26.621375   0.000000
     30         28.180364   0.000000
     31         29.660678   0.000000
     32         29.892815   0.000000
     33         31.004065   0.000000
     34         31.316986   0.000000
     35         32.369494   0.000000
     36         33.297620   0.000000
 
 -0.1333333E+00 -0.4000000E+00  0.6666667E-01  0.3555556E-02
      1        -19.137609   1.000000
      2        -19.135051   1.000000
      3        -19.128203   1.000000
      4        -19.127331   1.000000
      5        -19.122135   1.000000
      6         -5.847726   1.000000
      7         -2.434263   1.000000
      8          2.319317   1.000000
      9          3.347540   1.000000
     10          4.012109   1.000000
     11          7.216604   0.000000
     12          8.146715   0.000000
     13          9.102017   0.000000
     14         11.201417   0.000000
     15         14.198217   0.000000
     16         15.601635   0.000000
     17         16.486596   0.000000
     18         16.817126   0.000000
     19         17.429556   0.000000
     20         19.688813   0.000000
     21         21.467974   0.000000
     22         22.058505   0.000000
     23         22.401700   0.000000
     24         23.567441   0.000000
     25         24.718375   0.000000
     26         25.265750   0.000000
     27         25.960637   0.000000
     28         26.785072   0.000000
     29         27.031442   0.000000
     30         27.926205   0.000000
     31         29.054825   0.000000
     32         29.447654   0.000000
     33         30.441915   0.000000
     34         31.326007   0.000000
     35         31.999217   0.000000
     36         32.926040   0.000000
 
 -0.3333333E+00 -0.3333333E+00  0.6666667E-01  0.1777778E-02
      1        -19.139123   1.000000
      2        -19.133937   1.000000
      3        -19.128955   1.000000
      4        -19.126324   1.000000
      5        -19.121920   1.000000
      6         -5.826232   1.000000
      7         -1.744598   1.000000
      8          1.558532   1.000000
      9          2.560824   1.000000
     10          2.579474   1.000000
     11          8.123011   0.000000
     12         10.191029   0.000000
     13         10.424560   0.000000
     14         10.922336   0.000000
     15         14.948707   0.000000
     16         15.513719   0.000000
     17         16.466963   0.000000
     18         17.247552   0.000000
     19         18.897004   0.000000
     20         19.157048   0.000000
     21         19.503758   0.000000
     22         20.069648   0.000000
     23         20.885764   0.000000
     24         21.696822   0.000000
     25         24.341083   0.000000
     26         24.992343   0.000000
     27         25.090155   0.000000
     28         25.938802   0.000000
     29         28.040485   0.000000
     30         29.099066   0.000000
     31         29.162708   0.000000
     32         30.953317   0.000000
     33         32.061563   0.000000
     34         32.515909   0.000000
     35         32.999264   0.000000
     36         33.064582   0.000000
 
 -0.2666667E+00 -0.3333333E+00  0.6666667E-01  0.3555556E-02
      1        -19.138706   1.000000
      2        -19.134189   1.000000
      3        -19.128803   1.000000
      4        -19.126555   1.000000
      5        -19.122128   1.000000
      6         -5.992275   1.000000
      7         -1.684953   1.000000
      8          1.930370   1.000000
      9          2.644295   1.000000
     10          2.950255   1.000000
     11          8.312888   0.000000
     12          9.615738   0.000000
     13          9.727131   0.000000
     14         10.817180   0.000000
     15         14.649610   0.000000
     16         15.304000   0.000000
     17         15.846685   0.000000
     18         16.810688   0.000000
     19         18.776392   0.000000
     20         19.115872   0.000000
     21         20.096309   0.000000
     22         20.521952   0.000000
     23         21.247924   0.000000
     24         22.549648   0.000000
     25         24.231362   0.000000
     26         25.245217   0.000000
     27         25.600587   0.000000
     28         26.117771   0.000000
     29         27.875058   0.000000
     30         29.255206   0.000000
     31         29.748729   0.000000
     32         30.375843   0.000000
     33         32.394210   0.000000
     34         32.846583   0.000000
     35         32.919271   0.000000
     36         33.425897   0.000000
 
 -0.2000000E+00 -0.3333333E+00  0.6666667E-01  0.3555556E-02
      1        -19.138125   1.000000
      2        -19.134594   1.000000
      3        -19.128568   1.000000
      4        -19.126881   1.000000
      5        -19.122314   1.000000
      6         -6.114042   1.000000
      7         -1.739486   1.000000
      8          2.199686   1.000000
      9          2.992407   1.000000
     10          3.442863   1.000000
     11          8.339781   0.000000
     12          8.773934   0.000000
     13          9.285285   0.000000
     14         10.551511   0.000000
     15         14.367812   0.000000
     16         15.033710   0.000000
     17         15.555980   0.000000
     18         16.749680   0.000000
     19         18.572398   0.000000
     20         18.852745   0.000000
     21         19.819904   0.000000
     22         21.763302   0.000000
     23         22.679551   0.000000
     24         23.443723   0.000000
     25         23.553963   0.000000
     26         24.866030   0.000000
     27         26.275211   0.000000
     28         26.936183   0.000000
     29         27.322057   0.000000
     30         29.370877   0.000000
     31         29.767861   0.000000
     32         30.679673   0.000000
     33         31.680844   0.000000
     34         32.352276   0.000000
     35         33.056169   0.000000
     36         33.941005   0.000000
 
 -0.1333333E+00 -0.3333333E+00  0.6666667E-01  0.3555556E-02
      1        -19.137603   1.000000
      2        -19.134970   1.000000
      3        -19.128302   1.000000
      4        -19.127245   1.000000
      5        -19.122431   1.000000
      6         -6.178394   1.000000
      7         -1.896023   1.000000
      8          2.496957   1.000000
      9          3.431921   1.000000
     10          4.065359   1.000000
     11          7.635576   0.000000
     12          7.862021   0.000000
     13          9.247647   0.000000
     14         10.605991   0.000000
     15         13.617248   0.000000
     16         15.328445   0.000000
     17         15.454298   0.000000
     18         16.978859   0.000000
     19         18.357335   0.000000
     20         18.917717   0.000000
     21         19.873035   0.000000
     22         21.735109   0.000000
     23         23.514922   0.000000
     24         23.863742   0.000000
     25         24.288446   0.000000
     26         24.868028   0.000000
     27         25.967825   0.000000
     28         27.672945   0.000000
     29         28.187268   0.000000
     30         28.865163   0.000000
     31         29.714679   0.000000
     32         30.633443   0.000000
     33         30.787561   0.000000
     34         31.918684   0.000000
     35         32.701681   0.000000
     36         33.454817   0.000000
 
 -0.2666667E+00 -0.2666667E+00  0.6666667E-01  0.1777778E-02
      1        -19.138455   1.000000
      2        -19.134303   1.000000
      3        -19.128716   1.000000
      4        -19.126687   1.000000
      5        -19.122388   1.000000
      6         -6.215414   1.000000
      7         -1.445980   1.000000
      8          2.332630   1.000000
      9          2.831133   1.000000
     10          3.123994   1.000000
     11          8.285766   0.000000
     12          8.959479   0.000000
     13          9.824933   0.000000
     14         10.639270   0.000000
     15         14.302263   0.000000
     16         14.442177   0.000000
     17         15.664566   0.000000
     18         15.995809   0.000000
     19         19.066861   0.000000
     20         19.927871   0.000000
     21         20.013221   0.000000
     22         20.492396   0.000000
     23         20.967133   0.000000
     24         23.204426   0.000000
     25         23.644174   0.000000
     26         25.136082   0.000000
     27         26.662760   0.000000
     28         27.126611   0.000000
     29         28.575449   0.000000
     30         28.996173   0.000000
     31         30.293540   0.000000
     32         31.125111   0.000000
     33         32.194271   0.000000
     34         32.783606   0.000000
     35         32.800628   0.000000
     36         33.908038   0.000000
 
 -0.2000000E+00 -0.2666667E+00  0.6666667E-01  0.3555556E-02
      1        -19.138011   1.000000
      2        -19.134604   1.000000
      3        -19.128538   1.000000
      4        -19.126924   1.000000
      5        -19.122628   1.000000
      6         -6.385126   1.000000
      7         -1.325318   1.000000
      8          2.547576   1.000000
      9          3.080772   1.000000
     10          3.670220   1.000000
     11          8.180597   0.000000
     12          8.449792   0.000000
     13          9.409533   0.000000
     14         10.560483   0.000000
     15         13.751177   0.000000
     16         14.250999   0.000000
     17         14.975643   0.000000
     18         15.988787   0.000000
     19         18.475269   0.000000
     20         19.632460   0.000000
     21         20.147991   0.000000
     22         21.061180   0.000000
     23         22.256983   0.000000
     24         22.972037   0.000000
     25         24.378925   0.000000
     26         25.074097   0.000000
     27         27.344367   0.000000
     28         27.882746   0.000000
     29         28.324061   0.000000
     30         29.319844   0.000000
     31         30.623419   0.000000
     32         31.283925   0.000000
     33         32.031318   0.000000
     34         32.585296   0.000000
     35         33.009905   0.000000
     36         33.797455   0.000000
 
 -0.1333333E+00 -0.2666667E+00  0.6666667E-01  0.3555556E-02
      1        -19.137513   1.000000
      2        -19.134970   1.000000
      3        -19.128310   1.000000
      4        -19.127223   1.000000
      5        -19.122791   1.000000
      6         -6.487815   1.000000
      7         -1.339614   1.000000
      8          2.726002   1.000000
      9          3.450125   1.000000
     10          4.338539   1.000000
     11          7.417993   0.000000
     12          8.155336   0.000000
     13          9.217317   0.000000
     14         10.437273   0.000000
     15         13.155329   0.000000
     16         14.258034   0.000000
     17         14.639095   0.000000
     18         16.413554   0.000000
     19         18.278020   0.000000
     20         19.170677   0.000000
     21         19.897102   0.000000
     22         20.926528   0.000000
     23         23.841179   0.000000
     24         24.014714   0.000000
     25         24.521738   0.000000
     26         25.381865   0.000000
     27         26.321171   0.000000
     28         28.707619   0.000000
     29         29.263317   0.000000
     30         29.429987   0.000000
     31         30.161440   0.000000
     32         30.743331   0.000000
     33         31.925820   0.000000
     34         32.229325   0.000000
     35         33.332931   0.000000
     36         34.002783   0.000000
 
 -0.2000000E+00 -0.2000000E+00  0.6666667E-01  0.1777778E-02
      1        -19.137719   1.000000
      2        -19.134792   1.000000
      3        -19.128413   1.000000
      4        -19.127059   1.000000
      5        -19.122928   1.000000
      6         -6.598836   1.000000
      7         -1.012649   1.000000
      8          2.849043   1.000000
      9          3.156615   1.000000
     10          4.166610   1.000000
     11          7.611140   0.000000
     12          8.457591   0.000000
     13          9.468115   0.000000
     14         10.506683   0.000000
     15         13.238755   0.000000
     16         13.508984   0.000000
     17         14.999048   0.000000
     18         15.054667   0.000000
     19         17.533114   0.000000
     20         19.659406   0.000000
     21         21.171559   0.000000
     22         21.380230   0.000000
     23         22.199212   0.000000
     24         22.932622   0.000000
     25         24.629678   0.000000
     26         25.809092   0.000000
     27         28.232642   0.000000
     28         28.506734   0.000000
     29         28.945690   0.000000
     30         29.539324   0.000000
     31         31.361705   0.000000
     32         31.612978   0.000000
     33         31.836646   0.000000
     34         32.085544   0.000000
     35         32.649267   0.000000
     36         33.941388   0.000000
 
 -0.1333333E+00 -0.2000000E+00  0.6666667E-01  0.3555556E-02
      1        -19.137324   1.000000
      2        -19.135092   1.000000
      3        -19.128231   1.000000
      4        -19.127262   1.000000
      5        -19.123147   1.000000
      6         -6.740591   1.000000
      7         -0.845258   1.000000
      8          3.005808   1.000000
      9          3.444196   1.000000
     10          4.714356   1.000000
     11          7.075992   0.000000
     12          8.438128   0.000000
     13          9.199383   0.000000
     14         10.503467   0.000000
     15         12.677483   0.000000
     16         13.299794   0.000000
     17         14.283697   0.000000
     18         15.414699   0.000000
     19         17.016302   0.000000
     20         18.707886   0.000000
     21         21.390080   0.000000
     22         21.546048   0.000000
     23         23.527965   0.000000
     24         23.889096   0.000000
     25         24.605619   0.000000
     26         26.627571   0.000000
     27         27.239057   0.000000
     28         28.917673   0.000000
     29         29.749096   0.000000
     30         30.349573   0.000000
     31         30.788536   0.000000
     32         31.056798   0.000000
     33         31.862428   0.000000
     34         32.561529   0.000000
     35         32.941658   0.000000
     36         33.776179   0.000000
 
 -0.1333333E+00 -0.1333333E+00  0.6666667E-01  0.1777778E-02
      1        -19.137052   1.000000
      2        -19.135319   1.000000
      3        -19.128093   1.000000
      4        -19.127364   1.000000
      5        -19.123433   1.000000
      6         -6.919754   1.000000
      7         -0.480007   1.000000
      8          3.275715   1.000000
      9          3.516582   1.000000
     10          4.964326   1.000000
     11          6.933036   0.000000
     12          8.527685   0.000000
     13          9.160888   0.000000
     14         10.625016   0.000000
     15         12.193026   0.000000
     16         12.661839   0.000000
     17         14.346788   0.000000
     18         14.591760   0.000000
     19         16.121535   0.000000
     20         17.683194   0.000000
     21         22.575664   0.000000
     22         22.704977   0.000000
     23         23.619570   0.000000
     24         24.073206   0.000000
     25         24.621702   0.000000
     26         27.717041   0.000000
     27         27.992651   0.000000
     28         28.359216   0.000000
     29         29.964227   0.000000
     30         30.289863   0.000000
     31         31.211940   0.000000
     32         31.222141   0.000000
     33         32.096915   0.000000
     34         32.155895   0.000000
     35         33.615895   0.000000
     36         34.079758   0.000000
 
  0.1333333E+00  0.1333333E+00  0.1333333E+00  0.5925926E-03
      1        -19.136403   1.000000
      2        -19.136403   1.000000
      3        -19.127389   1.000000
      4        -19.127389   1.000000
      5        -19.124052   1.000000
      6         -7.171199   1.000000
      7         -0.091035   1.000000
      8          4.101502   1.000000
      9          4.101502   1.000000
     10          4.267329   1.000000
     11          8.159050   0.000000
     12          8.381799   0.000000
     13          8.381799   0.000000
     14         11.330292   0.000000
     15         11.866866   0.000000
     16         11.866866   0.000000
     17         14.316999   0.000000
     18         14.316999   0.000000
     19         14.477579   0.000000
     20         14.885031   0.000000
     21         22.918109   0.000000
     22         22.918109   0.000000
     23         23.269760   0.000000
     24         27.879740   0.000000
     25         27.990160   0.000000
     26         27.990160   0.000000
     27         28.484458   0.000000
     28         28.484458   0.000000
     29         28.778687   0.000000
     30         29.798932   0.000000
     31         29.798932   0.000000
     32         31.383802   0.000000
     33         31.383802   0.000000
     34         32.099771   0.000000
     35         33.319029   0.000000
     36         35.064546   0.000000
 
  0.2000000E+00  0.1333333E+00  0.1333333E+00  0.1777778E-02
      1        -19.136459   1.000000
      2        -19.136433   1.000000
      3        -19.127454   1.000000
      4        -19.127251   1.000000
      5        -19.123928   1.000000
      6         -7.080356   1.000000
      7         -0.377456   1.000000
      8          3.573687   1.000000
      9          4.263825   1.000000
     10          4.746614   1.000000
     11          7.768777   0.000000
     12          7.855735   0.000000
     13          8.826101   0.000000
     14         11.315783   0.000000
     15         11.762424   0.000000
     16         12.286661   0.000000
     17         13.935505   0.000000
     18         15.052551   0.000000
     19         15.233615   0.000000
     20         15.614263   0.000000
     21         21.328622   0.000000
     22         23.097003   0.000000
     23         23.301310   0.000000
     24         26.636627   0.000000
     25         27.057463   0.000000
     26         27.746957   0.000000
     27         28.934642   0.000000
     28         29.039713   0.000000
     29         29.228073   0.000000
     30         29.333172   0.000000
     31         30.180613   0.000000
     32         31.878750   0.000000
     33         31.920223   0.000000
     34         31.976133   0.000000
     35         32.940572   0.000000
     36         34.205120   0.000000
 
  0.2666667E+00  0.1333333E+00  0.1333333E+00  0.1777778E-02
      1        -19.136652   1.000000
      2        -19.136271   1.000000
      3        -19.127522   1.000000
      4        -19.127227   1.000000
      5        -19.123641   1.000000
      6         -6.904834   1.000000
      7         -0.793525   1.000000
      8          3.051589   1.000000
      9          4.344495   1.000000
     10          5.220983   1.000000
     11          7.237840   0.000000
     12          7.402189   0.000000
     13          9.187273   0.000000
     14         11.261687   0.000000
     15         11.875535   0.000000
     16         12.783574   0.000000
     17         14.038074   0.000000
     18         16.123663   0.000000
     19         16.336181   0.000000
     20         16.562248   0.000000
     21         19.813066   0.000000
     22         23.346046   0.000000
     23         23.373140   0.000000
     24         25.046797   0.000000
     25         25.829244   0.000000
     26         26.909720   0.000000
     27         28.817084   0.000000
     28         29.016861   0.000000
     29         29.394016   0.000000
     30         29.535387   0.000000
     31         30.306441   0.000000
     32         31.315996   0.000000
     33         32.571180   0.000000
     34         32.947596   0.000000
     35         33.209640   0.000000
     36         33.252213   0.000000
 
  0.3333333E+00  0.1333333E+00  0.1333333E+00  0.1777778E-02
      1        -19.136961   1.000000
      2        -19.135969   1.000000
      3        -19.127562   1.000000
      4        -19.127304   1.000000
      5        -19.123247   1.000000
      6         -6.651919   1.000000
      7         -1.311563   1.000000
      8          2.663790   1.000000
      9          4.312174   1.000000
     10          5.543430   1.000000
     11          6.753932   0.000000
     12          7.087498   0.000000
     13          9.315212   0.000000
     14         11.278831   0.000000
     15         12.223007   0.000000
     16         13.402345   0.000000
     17         14.734397   0.000000
     18         16.945031   0.000000
     19         17.567889   0.000000
     20         17.602925   0.000000
     21         18.990098   0.000000
     22         23.041011   0.000000
     23         23.173967   0.000000
     24         23.967611   0.000000
     25         25.078379   0.000000
     26         25.804207   0.000000
     27         27.927568   0.000000
     28         29.191920   0.000000
     29         29.564283   0.000000
     30         29.676871   0.000000
     31         30.022798   0.000000
     32         30.537388   0.000000
     33         31.520670   0.000000
     34         32.150593   0.000000
     35         32.843970   0.000000
     36         33.581530   0.000000
 
  0.4000000E+00  0.1333333E+00  0.1333333E+00  0.1777778E-02
      1        -19.137338   1.000000
      2        -19.135589   1.000000
      3        -19.127552   1.000000
      4        -19.127451   1.000000
      5        -19.122820   1.000000
      6         -6.336835   1.000000
      7         -1.888575   1.000000
      8          2.443912   1.000000
      9          4.169058   1.000000
     10          5.553425   1.000000
     11          6.527091   0.000000
     12          6.939012   0.000000
     13          9.103854   0.000000
     14         11.702106   0.000000
     15         12.795923   0.000000
     16         14.133393   0.000000
     17         15.543978   0.000000
     18         16.361212   0.000000
     19         18.895809   0.000000
     20         19.104072   0.000000
     21         19.599336   0.000000
     22         21.736618   0.000000
     23         22.238311   0.000000
     24         24.233333   0.000000
     25         24.651410   0.000000
     26         25.093894   0.000000
     27         26.839602   0.000000
     28         28.649072   0.000000
     29         29.120675   0.000000
     30         29.570168   0.000000
     31         29.734843   0.000000
     32         30.153117   0.000000
     33         30.823478   0.000000
     34         31.422124   0.000000
     35         32.320739   0.000000
     36         32.506715   0.000000
 
  0.4666667E+00  0.1333333E+00  0.1333333E+00  0.1777778E-02
      1        -19.137724   1.000000
      2        -19.135199   1.000000
      3        -19.127638   1.000000
      4        -19.127495   1.000000
      5        -19.122438   1.000000
      6         -5.992078   1.000000
      7         -2.453101   1.000000
      8          2.388685   1.000000
      9          3.957595   1.000000
     10          5.244172   1.000000
     11          6.619191   0.000000
     12          6.943623   0.000000
     13          8.706248   0.000000
     14         12.488978   0.000000
     15         13.571979   0.000000
     16         14.628663   0.000000
     17         15.065437   0.000000
     18         17.151625   0.000000
     19         19.605140   0.000000
     20         20.082311   0.000000
     21         20.473517   0.000000
     22         21.067945   0.000000
     23         22.148103   0.000000
     24         23.260483   0.000000
     25         24.847007   0.000000
     26         25.073265   0.000000
     27         26.002873   0.000000
     28         27.417389   0.000000
     29         28.087550   0.000000
     30         28.667828   0.000000
     31         29.864166   0.000000
     32         29.865451   0.000000
     33         30.225427   0.000000
     34         30.989342   0.000000
     35         31.883029   0.000000
     36         32.446768   0.000000
 
 -0.4666667E+00  0.1333333E+00  0.1333333E+00  0.1777778E-02
      1        -19.138045   1.000000
      2        -19.134844   1.000000
      3        -19.127841   1.000000
      4        -19.127416   1.000000
      5        -19.122159   1.000000
      6         -5.690559   1.000000
      7         -2.895362   1.000000
      8          2.479213   1.000000
      9          3.732908   1.000000
     10          4.864978   1.000000
     11          6.827533   0.000000
     12          7.072178   0.000000
     13          8.284626   0.000000
     14         13.330956   0.000000
     15         13.691955   0.000000
     16         14.522123   0.000000
     17         16.006399   0.000000
     18         17.563082   0.000000
     19         18.813172   0.000000
     20         19.693441   0.000000
     21         21.609987   0.000000
     22         22.116804   0.000000
     23         22.613961   0.000000
     24         23.012373   0.000000
     25         24.368047   0.000000
     26         25.323405   0.000000
     27         25.885021   0.000000
     28         26.660113   0.000000
     29         27.097888   0.000000
     30         27.178911   0.000000
     31         28.203127   0.000000
     32         30.133764   0.000000
     33         30.477030   0.000000
     34         31.361425   0.000000
     35         31.805659   0.000000
     36         32.723551   0.000000
 
 -0.4000000E+00  0.1333333E+00  0.1333333E+00  0.1777778E-02
      1        -19.138239   1.000000
      2        -19.134568   1.000000
      3        -19.128039   1.000000
      4        -19.127356   1.000000
      5        -19.122034   1.000000
      6         -5.567252   1.000000
      7         -3.055221   1.000000
      8          2.693079   1.000000
      9          3.537346   1.000000
     10          4.515243   1.000000
     11          7.078484   0.000000
     12          7.301410   0.000000
     13          7.907908   0.000000
     14         12.451861   0.000000
     15         14.671064   0.000000
     16         15.600893   0.000000
     17         16.688418   0.000000
     18         17.120257   0.000000
     19         17.518886   0.000000
     20         20.482547   0.000000
     21         20.853714   0.000000
     22         21.953306   0.000000
     23         23.373544   0.000000
     24         24.324546   0.000000
     25         24.592637   0.000000
     26         25.208720   0.000000
     27         25.342916   0.000000
     28         25.820175   0.000000
     29         26.576073   0.000000
     30         26.993501   0.000000
     31         27.647938   0.000000
     32         30.237162   0.000000
     33         30.660927   0.000000
     34         31.641529   0.000000
     35         31.906257   0.000000
     36         32.892849   0.000000
 
 -0.3333333E+00  0.1333333E+00  0.1333333E+00  0.1777778E-02
      1        -19.138265   1.000000
      2        -19.134399   1.000000
      3        -19.128199   1.000000
      4        -19.127340   1.000000
      5        -19.122079   1.000000
      6         -5.709467   1.000000
      7         -2.834122   1.000000
      8          3.001339   1.000000
      9          3.396194   1.000000
     10          4.222968   1.000000
     11          7.322152   0.000000
     12          7.615670   0.000000
     13          7.635239   0.000000
     14         11.597923   0.000000
     15         15.521246   0.000000
     16         15.864065   0.000000
     17         16.094942   0.000000
     18         17.016437   0.000000
     19         18.260097   0.000000
     20         19.133487   0.000000
     21         20.681296   0.000000
     22         22.209428   0.000000
     23         22.761930   0.000000
     24         24.200891   0.000000
     25         24.614536   0.000000
     26         25.109112   0.000000
     27         25.119942   0.000000
     28         26.359752   0.000000
     29         27.402319   0.000000
     30         27.592966   0.000000
     31         28.597996   0.000000
     32         30.138253   0.000000
     33         30.638443   0.000000
     34         31.594366   0.000000
     35         32.173421   0.000000
     36         33.055564   0.000000
 
 -0.2666667E+00  0.1333333E+00  0.1333333E+00  0.1777778E-02
      1        -19.138116   1.000000
      2        -19.134380   1.000000
      3        -19.128301   1.000000
      4        -19.127358   1.000000
      5        -19.122287   1.000000
      6         -6.017504   1.000000
      7         -2.334462   1.000000
      8          3.322242   1.000000
      9          3.329339   1.000000
     10          4.042664   1.000000
     11          7.256975   0.000000
     12          7.757367   0.000000
     13          7.999883   0.000000
     14         10.963662   0.000000
     15         14.471758   0.000000
     16         15.071302   0.000000
     17         16.612799   0.000000
     18         17.567006   0.000000
     19         18.508366   0.000000
     20         19.153247   0.000000
     21         20.125805   0.000000
     22         20.848142   0.000000
     23         22.480710   0.000000
     24         24.081185   0.000000
     25         24.202711   0.000000
     26         24.795061   0.000000
     27         26.471746   0.000000
     28         27.582784   0.000000
     29         28.406672   0.000000
     30         28.831106   0.000000
     31         29.951487   0.000000
     32         29.995479   0.000000
     33         30.490900   0.000000
     34         31.287238   0.000000
     35         32.557629   0.000000
     36         33.293413   0.000000
 
 -0.2000000E+00  0.1333333E+00  0.1333333E+00  0.1777778E-02
      1        -19.137823   1.000000
      2        -19.134536   1.000000
      3        -19.128323   1.000000
      4        -19.127382   1.000000
      5        -19.122623   1.000000
      6         -6.361134   1.000000
      7         -1.704750   1.000000
      8          3.319879   1.000000
      9          3.432550   1.000000
     10          4.191061   1.000000
     11          7.073009   0.000000
     12          8.052424   0.000000
     13          8.429500   0.000000
     14         10.595308   0.000000
     15         13.498371   0.000000
     16         14.088656   0.000000
     17         16.374124   0.000000
     18         16.421898   0.000000
     19         18.870672   0.000000
     20         19.577099   0.000000
     21         19.838894   0.000000
     22         21.050578   0.000000
     23         21.775373   0.000000
     24         23.760237   0.000000
     25         24.156994   0.000000
     26         25.664169   0.000000
     27         27.787416   0.000000
     28         28.668634   0.000000
     29         29.072034   0.000000
     30         29.678798   0.000000
     31         30.239375   0.000000
     32         30.264616   0.000000
     33         30.911373   0.000000
     34         31.643366   0.000000
     35         32.653659   0.000000
     36         33.723395   0.000000
 
 -0.1333333E+00  0.1333333E+00  0.1333333E+00  0.1777778E-02
      1        -19.137443   1.000000
      2        -19.134870   1.000000
      3        -19.128253   1.000000
      4        -19.127386   1.000000
      5        -19.123028   1.000000
      6         -6.672124   1.000000
      7         -1.052892   1.000000
      8          3.331951   1.000000
      9          3.387210   1.000000
     10          4.608006   1.000000
     11          6.939422   0.000000
     12          8.322880   0.000000
     13          8.853158   0.000000
     14         10.503992   0.000000
     15         12.711607   0.000000
     16         13.259818   0.000000
     17         15.294414   0.000000
     18         15.487955   0.000000
     19         17.413200   0.000000
     20         18.873141   0.000000
     21         21.334528   0.000000
     22         21.815240   0.000000
     23         22.811560   0.000000
     24         23.464165   0.000000
     25         24.040370   0.000000
     26         26.824965   0.000000
     27         28.388509   0.000000
     28         28.936285   0.000000
     29         29.745231   0.000000
     30         29.899271   0.000000
     31         30.615112   0.000000
     32         30.803882   0.000000
     33         31.165465   0.000000
     34         32.354321   0.000000
     35         33.146295   0.000000
     36         33.483369   0.000000
 
  0.2000000E+00  0.2000000E+00  0.1333333E+00  0.1777778E-02
      1        -19.136700   1.000000
      2        -19.136326   1.000000
      3        -19.127457   1.000000
      4        -19.127100   1.000000
      5        -19.123888   1.000000
      6         -7.023016   1.000000
      7         -0.573469   1.000000
      8          3.774832   1.000000
      9          3.857093   1.000000
     10          5.042984   1.000000
     11          7.236798   0.000000
     12          8.402422   0.000000
     13          8.552211   0.000000
     14         11.142622   0.000000
     15         12.051951   0.000000
     16         12.534230   0.000000
     17         14.412562   0.000000
     18         14.715390   0.000000
     19         15.332340   0.000000
     20         16.376029   0.000000
     21         21.344450   0.000000
     22         21.621962   0.000000
     23         23.350762   0.000000
     24         26.716816   0.000000
     25         26.880344   0.000000
     26         28.075870   0.000000
     27         28.122375   0.000000
     28         28.570550   0.000000
     29         29.480095   0.000000
     30         30.182300   0.000000
     31         30.539158   0.000000
     32         31.414937   0.000000
     33         31.700369   0.000000
     34         32.368998   0.000000
     35         32.486808   0.000000
     36         33.716386   0.000000
 
  0.2666667E+00  0.2000000E+00  0.1333333E+00  0.3555556E-02
      1        -19.136876   1.000000
      2        -19.136226   1.000000
      3        -19.127545   1.000000
      4        -19.126994   1.000000
      5        -19.123674   1.000000
      6         -6.881206   1.000000
      7         -0.877796   1.000000
      8          3.183832   1.000000
      9          4.012151   1.000000
     10          5.346565   1.000000
     11          6.867778   0.000000
     12          8.037151   0.000000
     13          9.031886   0.000000
     14         11.056897   0.000000
     15         12.318357   0.000000
     16         13.032531   0.000000
     17         14.158374   0.000000
     18         15.487447   0.000000
     19         16.121482   0.000000
     20         17.354132   0.000000
     21         19.930002   0.000000
     22         21.729325   0.000000
     23         23.527513   0.000000
     24         25.318809   0.000000
     25         26.298049   0.000000
     26         27.049239   0.000000
     27         27.693143   0.000000
     28         28.903202   0.000000
     29         29.429661   0.000000
     30         30.424262   0.000000
     31         31.021703   0.000000
     32         31.227926   0.000000
     33         32.028599   0.000000
     34         32.330149   0.000000
     35         32.667750   0.000000
     36         33.411818   0.000000
 
  0.3333333E+00  0.2000000E+00  0.1333333E+00  0.3555556E-02
      1        -19.137069   1.000000
      2        -19.136053   1.000000
      3        -19.127628   1.000000
      4        -19.126992   1.000000
      5        -19.123329   1.000000
      6         -6.660698   1.000000
      7         -1.274421   1.000000
      8          2.647536   1.000000
      9          4.047773   1.000000
     10          5.376038   1.000000
     11          6.833041   0.000000
     12          7.635239   0.000000
     13          9.416788   0.000000
     14         11.057590   0.000000
     15         12.593220   0.000000
     16         13.677092   0.000000
     17         14.370489   0.000000
     18         16.420780   0.000000
     19         17.329376   0.000000
     20         17.805921   0.000000
     21         19.282846   0.000000
     22         21.967065   0.000000
     23         23.546818   0.000000
     24         23.981107   0.000000
     25         25.274161   0.000000
     26         25.861646   0.000000
     27         27.722060   0.000000
     28         28.122440   0.000000
     29         29.417321   0.000000
     30         30.123968   0.000000
     31         30.714586   0.000000
     32         31.223269   0.000000
     33         31.733232   0.000000
     34         32.182212   0.000000
     35         32.549497   0.000000
     36         33.213461   0.000000
 
  0.4000000E+00  0.2000000E+00  0.1333333E+00  0.3555556E-02
      1        -19.137343   1.000000
      2        -19.135768   1.000000
      3        -19.127681   1.000000
      4        -19.127075   1.000000
      5        -19.122926   1.000000
      6         -6.373778   1.000000
      7         -1.747510   1.000000
      8          2.275330   1.000000
      9          3.875929   1.000000
     10          5.302276   1.000000
     11          6.801907   0.000000
     12          7.504914   0.000000
     13          9.583128   0.000000
     14         11.157271   0.000000
     15         13.056704   0.000000
     16         14.441137   0.000000
     17         15.055053   0.000000
     18         16.187921   0.000000
     19         18.207353   0.000000
     20         18.841784   0.000000
     21         20.108523   0.000000
     22         21.737165   0.000000
     23         22.872618   0.000000
     24         23.531545   0.000000
     25         24.211799   0.000000
     26         25.148834   0.000000
     27         27.052317   0.000000
     28         27.982386   0.000000
     29         28.214219   0.000000
     30         29.786595   0.000000
     31         30.326856   0.000000
     32         30.926720   0.000000
     33         31.366070   0.000000
     34         31.540091   0.000000
     35         32.292686   0.000000
     36         33.153041   0.000000
 
  0.4666667E+00  0.2000000E+00  0.1333333E+00  0.3555556E-02
      1        -19.137672   1.000000
      2        -19.135412   1.000000
      3        -19.127723   1.000000
      4        -19.127186   1.000000
      5        -19.122538   1.000000
      6         -6.045504   1.000000
      7         -2.252791   1.000000
      8          2.091827   1.000000
      9          3.578681   1.000000
     10          5.207254   1.000000
     11          6.631325   0.000000
     12          7.687896   0.000000
     13          9.405459   0.000000
     14         11.647543   0.000000
     15         13.758337   0.000000
     16         14.661128   0.000000
     17         15.340780   0.000000
     18         16.427889   0.000000
     19         19.272444   0.000000
     20         20.106767   0.000000
     21         20.653432   0.000000
     22         21.517390   0.000000
     23         22.201632   0.000000
     24         23.154106   0.000000
     25         23.647549   0.000000
     26         25.204147   0.000000
     27         26.032506   0.000000
     28         26.767307   0.000000
     29         28.307216   0.000000
     30         28.716269   0.000000
     31         29.534494   0.000000
     32         30.382878   0.000000
     33         30.982338   0.000000
     34         31.211506   0.000000
     35         31.988065   0.000000
     36         32.323666   0.000000
 
 -0.4666667E+00  0.2000000E+00  0.1333333E+00  0.3555556E-02
      1        -19.137991   1.000000
      2        -19.135043   1.000000
      3        -19.127813   1.000000
      4        -19.127251   1.000000
      5        -19.122225   1.000000
      6         -5.729878   1.000000
      7         -2.702470   1.000000
      8          2.086379   1.000000
      9          3.270521   1.000000
     10          5.027692   1.000000
     11          6.579907   0.000000
     12          7.945511   0.000000
     13          9.044047   0.000000
     14         12.473664   0.000000
     15         13.546638   0.000000
     16         14.657183   0.000000
     17         16.281778   0.000000
     18         17.309007   0.000000
     19         19.025028   0.000000
     20         20.215718   0.000000
     21         21.226685   0.000000
     22         21.715690   0.000000
     23         22.410498   0.000000
     24         23.126599   0.000000
     25         24.188347   0.000000
     26         24.776560   0.000000
     27         25.423944   0.000000
     28         26.123101   0.000000
     29         27.469484   0.000000
     30         27.874088   0.000000
     31         28.702585   0.000000
     32         29.185169   0.000000
     33         30.667406   0.000000
     34         31.277673   0.000000
     35         31.903996   0.000000
     36         32.224146   0.000000
 
 -0.4000000E+00  0.2000000E+00  0.1333333E+00  0.3555556E-02
      1        -19.138229   1.000000
      2        -19.134714   1.000000
      3        -19.127982   1.000000
      4        -19.127249   1.000000
      5        -19.122038   1.000000
      6         -5.534514   1.000000
      7         -2.956728   1.000000
      8          2.233740   1.000000
      9          3.015419   1.000000
     10          4.769404   1.000000
     11          6.695953   0.000000
     12          8.206480   0.000000
     13          8.668349   0.000000
     14         12.454541   0.000000
     15         13.568452   0.000000
     16         15.681326   0.000000
     17         16.850558   0.000000
     18         17.349043   0.000000
     19         18.686978   0.000000
     20         20.102440   0.000000
     21         20.316053   0.000000
     22         22.394417   0.000000
     23         23.043441   0.000000
     24         23.913204   0.000000
     25         24.150780   0.000000
     26         24.967697   0.000000
     27         25.339284   0.000000
     28         25.992533   0.000000
     29         26.535713   0.000000
     30         26.920472   0.000000
     31         27.686816   0.000000
     32         29.029376   0.000000
     33         30.749881   0.000000
     34         31.309319   0.000000
     35         32.025948   0.000000
     36         32.290188   0.000000
 
 -0.3333333E+00  0.2000000E+00  0.1333333E+00  0.3555556E-02
      1        -19.138328   1.000000
      2        -19.134470   1.000000
      3        -19.128171   1.000000
      4        -19.127233   1.000000
      5        -19.122004   1.000000
      6         -5.577265   1.000000
      7         -2.878224   1.000000
      8          2.495893   1.000000
      9          2.854847   1.000000
     10          4.483510   1.000000
     11          6.937554   0.000000
     12          8.234257   0.000000
     13          8.555747   0.000000
     14         11.607959   0.000000
     15         14.711245   0.000000
     16         15.767750   0.000000
     17         16.678420   0.000000
     18         17.665702   0.000000
     19         18.397332   0.000000
     20         19.172469   0.000000
     21         21.181824   0.000000
     22         21.588385   0.000000
     23         23.118323   0.000000
     24         23.759483   0.000000
     25         24.467169   0.000000
     26         25.045461   0.000000
     27         25.319314   0.000000
     28         25.880228   0.000000
     29         26.715005   0.000000
     30         27.170201   0.000000
     31         28.126956   0.000000
     32         29.016294   0.000000
     33         31.073045   0.000000
     34         31.472938   0.000000
     35         32.200659   0.000000
     36         32.263032   0.000000
 
 -0.2666667E+00  0.2000000E+00  0.1333333E+00  0.3555556E-02
      1        -19.138264   1.000000
      2        -19.134359   1.000000
      3        -19.128324   1.000000
      4        -19.127237   1.000000
      5        -19.122127   1.000000
      6         -5.827228   1.000000
      7         -2.494600   1.000000
      8          2.671730   1.000000
      9          2.975880   1.000000
     10          4.208635   1.000000
     11          7.264614   0.000000
     12          7.943742   0.000000
     13          8.778585   0.000000
     14         10.996269   0.000000
     15         14.681987   0.000000
     16         15.831469   0.000000
     17         16.252721   0.000000
     18         17.291661   0.000000
     19         18.603490   0.000000
     20         19.482285   0.000000
     21         20.577000   0.000000
     22         21.630837   0.000000
     23         22.357562   0.000000
     24         23.151562   0.000000
     25         24.118474   0.000000
     26         24.949253   0.000000
     27         25.986367   0.000000
     28         26.419164   0.000000
     29         27.629299   0.000000
     30         28.445068   0.000000
     31         28.807750   0.000000
     32         29.739760   0.000000
     33         31.479456   0.000000
     34         31.639182   0.000000
     35         32.142994   0.000000
     36         32.532754   0.000000
 
 -0.2000000E+00  0.2000000E+00  0.1333333E+00  0.3555556E-02
      1        -19.138044   1.000000
      2        -19.134424   1.000000
      3        -19.128402   1.000000
      4        -19.127257   1.000000
      5        -19.122392   1.000000
      6         -6.155131   1.000000
      7         -1.949613   1.000000
      8          2.705925   1.000000
      9          3.373767   1.000000
     10          4.008785   1.000000
     11          7.555241   0.000000
     12          7.754812   0.000000
     13          8.960081   0.000000
     14         10.667918   0.000000
     15         13.769038   0.000000
     16         15.151201   0.000000
     17         15.869712   0.000000
     18         17.052799   0.000000
     19         18.829604   0.000000
     20         19.788310   0.000000
     21         20.171619   0.000000
     22         21.401965   0.000000
     23         21.740992   0.000000
     24         23.036618   0.000000
     25         24.209830   0.000000
     26         24.754306   0.000000
     27         27.194350   0.000000
     28         27.534199   0.000000
     29         28.321225   0.000000
     30         28.832972   0.000000
     31         29.954477   0.000000
     32         31.005571   0.000000
     33         31.310831   0.000000
     34         31.611179   0.000000
     35         32.747734   0.000000
     36         33.345674   0.000000
 
 -0.1333333E+00  0.2000000E+00  0.1333333E+00  0.3555556E-02
      1        -19.137710   1.000000
      2        -19.134679   1.000000
      3        -19.128372   1.000000
      4        -19.127268   1.000000
      5        -19.122750   1.000000
      6         -6.473557   1.000000
      7         -1.366077   1.000000
      8          2.814579   1.000000
      9          3.516407   1.000000
     10          4.198692   1.000000
     11          7.340477   0.000000
     12          8.093892   0.000000
     13          9.090388   0.000000
     14         10.553919   0.000000
     15         13.090717   0.000000
     16         14.132525   0.000000
     17         14.989598   0.000000
     18         16.424336   0.000000
     19         18.307209   0.000000
     20         19.380212   0.000000
     21         20.580473   0.000000
     22         21.348455   0.000000
     23         22.525446   0.000000
     24         23.141577   0.000000
     25         24.059347   0.000000
     26         25.738566   0.000000
     27         27.443559   0.000000
     28         28.726374   0.000000
     29         29.151221   0.000000
     30         29.667933   0.000000
     31         30.341973   0.000000
     32         30.927083   0.000000
     33         31.495896   0.000000
     34         32.253694   0.000000
     35         33.330076   0.000000
     36         33.539437   0.000000
 
  0.2666667E+00  0.2666667E+00  0.1333333E+00  0.1777778E-02
      1        -19.137196   1.000000
      2        -19.136026   1.000000
      3        -19.127670   1.000000
      4        -19.126772   1.000000
      5        -19.123536   1.000000
      6         -6.774989   1.000000
      7         -1.062247   1.000000
      8          3.235962   1.000000
      9          3.515112   1.000000
     10          5.129396   1.000000
     11          7.035198   0.000000
     12          8.593770   0.000000
     13          8.852362   0.000000
     14         10.793065   0.000000
     15         12.910994   0.000000
     16         13.491944   0.000000
     17         14.654579   0.000000
     18         14.948080   0.000000
     19         16.496812   0.000000
     20         18.249947   0.000000
     21         19.911009   0.000000
     22         20.484364   0.000000
     23         23.701913   0.000000
     24         25.175377   0.000000
     25         25.239287   0.000000
     26         26.313502   0.000000
     27         28.196605   0.000000
     28         28.637279   0.000000
     29         29.461928   0.000000
     30         29.965964   0.000000
     31         31.194706   0.000000
     32         31.395502   0.000000
     33         31.441799   0.000000
     34         32.155035   0.000000
     35         32.712360   0.000000
     36         33.254127   0.000000
 
  0.3333333E+00  0.2666667E+00  0.1333333E+00  0.3555556E-02
      1        -19.137448   1.000000
      2        -19.135835   1.000000
      3        -19.127798   1.000000
      4        -19.126666   1.000000
      5        -19.123258   1.000000
      6         -6.590988   1.000000
      7         -1.329122   1.000000
      8          2.715785   1.000000
      9          3.503964   1.000000
     10          4.760188   1.000000
     11          7.476678   0.000000
     12          8.365179   0.000000
     13          9.224210   0.000000
     14         10.796978   0.000000
     15         13.359981   0.000000
     16         14.044350   0.000000
     17         14.590445   0.000000
     18         15.695252   0.000000
     19         17.371416   0.000000
     20         18.152548   0.000000
     21         19.675966   0.000000
     22         20.764761   0.000000
     23         23.622085   0.000000
     24         24.092393   0.000000
     25         24.468813   0.000000
     26         25.959846   0.000000
     27         27.348933   0.000000
     28         28.521627   0.000000
     29         28.951853   0.000000
     30         29.905099   0.000000
     31         30.269146   0.000000
     32         30.897522   0.000000
     33         31.525500   0.000000
     34         32.668440   0.000000
     35         33.165825   0.000000
     36         33.574208   0.000000
 
  0.4000000E+00  0.2666667E+00  0.1333333E+00  0.3555556E-02
      1        -19.137649   1.000000
      2        -19.135647   1.000000
      3        -19.127893   1.000000
      4        -19.126679   1.000000
      5        -19.122904   1.000000
      6         -6.339488   1.000000
      7         -1.671541   1.000000
      8          2.233218   1.000000
      9          3.292739   1.000000
     10          4.657311   1.000000
     11          7.596802   0.000000
     12          8.327136   0.000000
     13          9.549937   0.000000
     14         10.883794   0.000000
     15         13.722507   0.000000
     16         14.709826   0.000000
     17         15.013701   0.000000
     18         16.115171   0.000000
     19         17.562355   0.000000
     20         18.665620   0.000000
     21         20.411665   0.000000
     22         21.153692   0.000000
     23         22.626350   0.000000
     24         23.341778   0.000000
     25         24.222192   0.000000
     26         25.812005   0.000000
     27         26.501784   0.000000
     28         27.281557   0.000000
     29         28.062103   0.000000
     30         29.668409   0.000000
     31         30.080560   0.000000
     32         30.397127   0.000000
     33         31.843294   0.000000
     34         32.141560   0.000000
     35         32.760417   0.000000
     36         33.727708   0.000000
 
  0.4666667E+00  0.2666667E+00  0.1333333E+00  0.3555556E-02
      1        -19.137826   1.000000
      2        -19.135439   1.000000
      3        -19.127939   1.000000
      4        -19.126780   1.000000
      5        -19.122539   1.000000
      6         -6.040665   1.000000
      7         -2.072225   1.000000
      8          1.924923   1.000000
      9          2.910426   1.000000
     10          4.758694   1.000000
     11          7.269160   0.000000
     12          8.658824   0.000000
     13          9.821739   0.000000
     14         10.937867   0.000000
     15         14.322965   0.000000
     16         14.790268   0.000000
     17         15.767752   0.000000
     18         15.941924   0.000000
     19         18.462414   0.000000
     20         19.940116   0.000000
     21         20.564781   0.000000
     22         21.152290   0.000000
     23         22.260725   0.000000
     24         22.996573   0.000000
     25         23.972305   0.000000
     26         25.363525   0.000000
     27         25.851396   0.000000
     28         26.613721   0.000000
     29         26.989234   0.000000
     30         29.326113   0.000000
     31         29.561607   0.000000
     32         30.013812   0.000000
     33         31.024515   0.000000
     34         31.788049   0.000000
     35         32.096577   0.000000
     36         33.172451   0.000000
 
 -0.4666667E+00  0.2666667E+00  0.1333333E+00  0.3555556E-02
      1        -19.137998   1.000000
      2        -19.135200   1.000000
      3        -19.127954   1.000000
      4        -19.126931   1.000000
      5        -19.122227   1.000000
      6         -5.734916   1.000000
      7         -2.475741   1.000000
      8          1.810824   1.000000
      9          2.540317   1.000000
     10          4.880572   1.000000
     11          6.920595   0.000000
     12          8.994391   0.000000
     13          9.759401   0.000000
     14         11.383968   0.000000
     15         13.719108   0.000000
     16         15.174694   0.000000
     17         16.655739   0.000000
     18         16.842592   0.000000
     19         18.780412   0.000000
     20         20.055159   0.000000
     21         20.847477   0.000000
     22         21.538220   0.000000
     23         22.474238   0.000000
     24         22.724464   0.000000
     25         24.199923   0.000000
     26         24.505403   0.000000
     27         25.493802   0.000000
     28         26.119187   0.000000
     29         27.003066   0.000000
     30         28.364913   0.000000
     31         28.856125   0.000000
     32         29.234767   0.000000
     33         30.420766   0.000000
     34         30.625076   0.000000
     35         31.827178   0.000000
     36         33.042231   0.000000
 
 -0.4000000E+00  0.2666667E+00  0.1333333E+00  0.3555556E-02
      1        -19.138149   1.000000
      2        -19.134944   1.000000
      3        -19.127994   1.000000
      4        -19.127072   1.000000
      5        -19.122014   1.000000
      6         -5.501232   1.000000
      7         -2.774522   1.000000
      8          1.873159   1.000000
      9          2.258311   1.000000
     10          4.926817   1.000000
     11          6.693405   0.000000
     12          9.230686   0.000000
     13          9.485783   0.000000
     14         12.194388   0.000000
     15         12.752061   0.000000
     16         16.138903   0.000000
     17         16.821042   0.000000
     18         17.681916   0.000000
     19         18.800837   0.000000
     20         19.796331   0.000000
     21         20.598262   0.000000
     22         21.911469   0.000000
     23         22.742023   0.000000
     24         23.229983   0.000000
     25         23.887439   0.000000
     26         24.401938   0.000000
     27         25.626967   0.000000
     28         26.515788   0.000000
     29         26.781773   0.000000
     30         27.440269   0.000000
     31         27.694234   0.000000
     32         28.560702   0.000000
     33         29.756630   0.000000
     34         30.351359   0.000000
     35         31.904260   0.000000
     36         33.073734   0.000000
 
 -0.3333333E+00  0.2666667E+00  0.1333333E+00  0.3555556E-02
      1        -19.138235   1.000000
      2        -19.134710   1.000000
      3        -19.128105   1.000000
      4        -19.127152   1.000000
      5        -19.121927   1.000000
      6         -5.450235   1.000000
      7         -2.833353   1.000000
      8          2.003894   1.000000
      9          2.176215   1.000000
     10          4.830319   1.000000
     11          6.670004   0.000000
     12          9.012199   0.000000
     13          9.527619   0.000000
     14         11.857529   0.000000
     15         13.361686   0.000000
     16         15.825006   0.000000
     17         16.965289   0.000000
     18         18.455799   0.000000
     19         18.943100   0.000000
     20         19.322004   0.000000
     21         20.564459   0.000000
     22         21.862210   0.000000
     23         22.564998   0.000000
     24         23.652047   0.000000
     25         23.897621   0.000000
     26         24.669927   0.000000
     27         25.657701   0.000000
     28         26.239349   0.000000
     29         26.608717   0.000000
     30         27.100703   0.000000
     31         27.838080   0.000000
     32         28.383901   0.000000
     33         29.766889   0.000000
     34         30.586208   0.000000
     35         32.077971   0.000000
     36         33.312654   0.000000
 
 -0.2666667E+00  0.2666667E+00  0.1333333E+00  0.3555556E-02
      1        -19.138217   1.000000
      2        -19.134551   1.000000
      3        -19.128257   1.000000
      4        -19.127184   1.000000
      5        -19.121977   1.000000
      6         -5.615059   1.000000
      7         -2.610374   1.000000
      8          1.993638   1.000000
      9          2.496023   1.000000
     10          4.591831   1.000000
     11          6.857374   0.000000
     12          8.647537   0.000000
     13          9.574773   0.000000
     14         11.348256   0.000000
     15         14.510693   0.000000
     16         14.833963   0.000000
     17         16.689026   0.000000
     18         17.961801   0.000000
     19         19.059464   0.000000
     20         20.051781   0.000000
     21         20.931881   0.000000
     22         21.470973   0.000000
     23         22.029989   0.000000
     24         22.867775   0.000000
     25         24.719939   0.000000
     26         25.074426   0.000000
     27         25.221383   0.000000
     28         25.593245   0.000000
     29         27.069896   0.000000
     30         27.376298   0.000000
     31         28.380473   0.000000
     32         29.786858   0.000000
     33         30.269481   0.000000
     34         31.221182   0.000000
     35         32.153038   0.000000
     36         33.257628   0.000000
 
 -0.2000000E+00  0.2666667E+00  0.1333333E+00  0.3555556E-02
      1        -19.138076   1.000000
      2        -19.134526   1.000000
      3        -19.128379   1.000000
      4        -19.127202   1.000000
      5        -19.122158   1.000000
      6         -5.901931   1.000000
      7         -2.209289   1.000000
      8          2.089400   1.000000
      9          2.956599   1.000000
     10          4.279887   1.000000
     11          7.197607   0.000000
     12          8.275505   0.000000
     13          9.489082   0.000000
     14         11.056799   0.000000
     15         14.018990   0.000000
     16         15.265655   0.000000
     17         16.218441   0.000000
     18         16.835329   0.000000
     19         19.389622   0.000000
     20         20.253349   0.000000
     21         20.796904   0.000000
     22         21.156083   0.000000
     23         21.817562   0.000000
     24         22.975317   0.000000
     25         23.958109   0.000000
     26         24.897202   0.000000
     27         26.097056   0.000000
     28         26.429249   0.000000
     29         27.367312   0.000000
     30         27.770610   0.000000
     31         29.709967   0.000000
     32         30.753221   0.000000
     33         31.236315   0.000000
     34         31.850054   0.000000
     35         32.559937   0.000000
     36         32.862539   0.000000
 
 -0.1333333E+00  0.2666667E+00  0.1333333E+00  0.3555556E-02
      1        -19.137831   1.000000
      2        -19.134665   1.000000
      3        -19.128405   1.000000
      4        -19.127215   1.000000
      5        -19.122441   1.000000
      6         -6.211387   1.000000
      7         -1.755561   1.000000
      8          2.335794   1.000000
      9          3.428554   1.000000
     10          4.031270   1.000000
     11          7.609827   0.000000
     12          7.908147   0.000000
     13          9.371082   0.000000
     14         10.760160   0.000000
     15         13.518103   0.000000
     16         14.781716   0.000000
     17         15.458635   0.000000
     18         16.989761   0.000000
     19         18.838072   0.000000
     20         19.481981   0.000000
     21         20.100382   0.000000
     22         21.404821   0.000000
     23         22.694604   0.000000
     24         23.274761   0.000000
     25         24.204397   0.000000
     26         24.712565   0.000000
     27         26.270353   0.000000
     28         27.715498   0.000000
     29         28.186241   0.000000
     30         28.766017   0.000000
     31         30.567244   0.000000
     32         30.944187   0.000000
     33         31.140688   0.000000
     34         32.380507   0.000000
     35         32.926466   0.000000
     36         33.809160   0.000000
 
  0.3333333E+00  0.3333333E+00  0.1333333E+00  0.1777778E-02
      1        -19.137833   1.000000
      2        -19.135562   1.000000
      3        -19.127977   1.000000
      4        -19.126448   1.000000
      5        -19.123051   1.000000
      6         -6.446719   1.000000
      7         -1.464798   1.000000
      8          2.576603   1.000000
      9          3.160361   1.000000
     10          4.151475   1.000000
     11          8.186677   0.000000
     12          8.724631   0.000000
     13          9.238634   0.000000
     14         10.652697   0.000000
     15         14.126031   0.000000
     16         14.517169   0.000000
     17         15.177447   0.000000
     18         15.262045   0.000000
     19         17.804195   0.000000
     20         18.501702   0.000000
     21         18.668088   0.000000
     22         21.247384   0.000000
     23         23.353987   0.000000
     24         23.799205   0.000000
     25         23.914356   0.000000
     26         24.858195   0.000000
     27         28.193480   0.000000
     28         28.223881   0.000000
     29         28.641644   0.000000
     30         29.083224   0.000000
     31         30.032679   0.000000
     32         30.142551   0.000000
     33         31.023253   0.000000
     34         32.772350   0.000000
     35         33.347007   0.000000
     36         33.665714   0.000000
 
  0.4000000E+00  0.3333333E+00  0.1333333E+00  0.3555556E-02
      1        -19.138107   1.000000
      2        -19.135334   1.000000
      3        -19.128117   1.000000
      4        -19.126364   1.000000
      5        -19.122755   1.000000
      6         -6.236916   1.000000
      7         -1.672190   1.000000
      8          2.144380   1.000000
      9          2.894115   1.000000
     10          3.940887   1.000000
     11          8.390138   0.000000
     12          9.023390   0.000000
     13          9.402802   0.000000
     14         10.825133   0.000000
     15         14.474555   0.000000
     16         14.997737   0.000000
     17         15.527678   0.000000
     18         15.916952   0.000000
     19         17.386688   0.000000
     20         18.666883   0.000000
     21         19.205647   0.000000
     22         21.555032   0.000000
     23         22.524669   0.000000
     24         23.037421   0.000000
     25         24.164031   0.000000
     26         24.786567   0.000000
     27         26.840712   0.000000
     28         27.511981   0.000000
     29         28.288249   0.000000
     30         28.769234   0.000000
     31         29.612275   0.000000
     32         29.994359   0.000000
     33         31.314327   0.000000
     34         32.377787   0.000000
     35         33.251060   0.000000
     36         33.764943   0.000000
 
  0.4666667E+00  0.3333333E+00  0.1333333E+00  0.3555556E-02
      1        -19.138250   1.000000
      2        -19.135181   1.000000
      3        -19.128191   1.000000
      4        -19.126410   1.000000
      5        -19.122436   1.000000
      6         -5.978726   1.000000
      7         -1.944620   1.000000
      8          1.777839   1.000000
      9          2.421311   1.000000
     10          4.115953   1.000000
     11          8.110975   0.000000
     12          9.403541   0.000000
     13          9.727745   0.000000
     14         10.992212   0.000000
     15         14.743575   0.000000
     16         15.133309   0.000000
     17         15.941506   0.000000
     18         16.366970   0.000000
     19         17.698981   0.000000
     20         19.354099   0.000000
     21         20.293415   0.000000
     22         20.636164   0.000000
     23         21.415686   0.000000
     24         23.897168   0.000000
     25         24.484491   0.000000
     26         24.766901   0.000000
     27         25.248475   0.000000
     28         26.637024   0.000000
     29         27.750820   0.000000
     30         28.048780   0.000000
     31         29.194749   0.000000
     32         30.252410   0.000000
     33         31.282296   0.000000
     34         31.916438   0.000000
     35         32.335859   0.000000
     36         33.121443   0.000000
 
 -0.4666667E+00  0.3333333E+00  0.1333333E+00  0.3555556E-02
      1        -19.138276   1.000000
      2        -19.135087   1.000000
      3        -19.128193   1.000000
      4        -19.126567   1.000000
      5        -19.122151   1.000000
      6         -5.703264   1.000000
      7         -2.257758   1.000000
      8          1.571551   1.000000
      9          1.991348   1.000000
     10          4.367419   1.000000
     11          7.695863   0.000000
     12          9.782880   0.000000
     13         10.139687   0.000000
     14         10.962578   0.000000
     15         14.056724   0.000000
     16         15.557555   0.000000
     17         16.661426   0.000000
     18         17.217949   0.000000
     19         18.460823   0.000000
     20         19.487744   0.000000
     21         20.010315   0.000000
     22         20.636534   0.000000
     23         22.006399   0.000000
     24         23.617551   0.000000
     25         24.146636   0.000000
     26         24.796072   0.000000
     27         25.080784   0.000000
     28         26.173480   0.000000
     29         26.972916   0.000000
     30         27.798807   0.000000
     31         28.816609   0.000000
     32         29.881655   0.000000
     33         30.565723   0.000000
     34         30.999972   0.000000
     35         31.661003   0.000000
     36         32.167477   0.000000
 
 -0.4000000E+00  0.3333333E+00  0.1333333E+00  0.3555556E-02
      1        -19.138230   1.000000
      2        -19.135016   1.000000
      3        -19.128149   1.000000
      4        -19.126790   1.000000
      5        -19.121945   1.000000
      6         -5.466358   1.000000
      7         -2.546083   1.000000
      8          1.495448   1.000000
      9          1.738060   1.000000
     10          4.599279   1.000000
     11          7.263867   0.000000
     12         10.009816   0.000000
     13         10.351564   0.000000
     14         11.220472   0.000000
     15         13.111189   0.000000
     16         16.457793   0.000000
     17         16.966368   0.000000
     18         18.046635   0.000000
     19         18.369544   0.000000
     20         19.317091   0.000000
     21         20.489902   0.000000
     22         21.153742   0.000000
     23         22.223187   0.000000
     24         23.016320   0.000000
     25         23.970288   0.000000
     26         24.827342   0.000000
     27         25.379528   0.000000
     28         25.942043   0.000000
     29         27.135491   0.000000
     30         27.728728   0.000000
     31         28.108721   0.000000
     32         28.737500   0.000000
     33         29.817322   0.000000
     34         30.187369   0.000000
     35         31.106299   0.000000
     36         32.082664   0.000000
 
 -0.3333333E+00  0.3333333E+00  0.1333333E+00  0.3555556E-02
      1        -19.138153   1.000000
      2        -19.134933   1.000000
      3        -19.128118   1.000000
      4        -19.127013   1.000000
      5        -19.121840   1.000000
      6         -5.351184   1.000000
      7         -2.707206   1.000000
      8          1.410538   1.000000
      9          1.817682   1.000000
     10          4.758853   1.000000
     11          6.904054   0.000000
     12          9.766353   0.000000
     13         10.421192   0.000000
     14         11.960515   0.000000
     15         12.481219   0.000000
     16         16.016397   0.000000
     17         17.131705   0.000000
     18         18.456436   0.000000
     19         19.065835   0.000000
     20         19.683509   0.000000
     21         20.821555   0.000000
     22         20.973038   0.000000
     23         22.325094   0.000000
     24         22.844383   0.000000
     25         23.943946   0.000000
     26         25.293509   0.000000
     27         25.464147   0.000000
     28         25.738497   0.000000
     29         26.849453   0.000000
     30         27.465088   0.000000
     31         27.628588   0.000000
     32         28.734623   0.000000
     33         29.141356   0.000000
     34         30.126915   0.000000
     35         31.021023   0.000000
     36         32.407947   0.000000
 
 -0.2666667E+00  0.3333333E+00  0.1333333E+00  0.3555556E-02
      1        -19.138063   1.000000
      2        -19.134845   1.000000
      3        -19.128162   1.000000
      4        -19.127161   1.000000
      5        -19.121846   1.000000
      6         -5.418556   1.000000
      7         -2.667507   1.000000
      8          1.420729   1.000000
      9          2.123565   1.000000
     10          4.754758   1.000000
     11          6.733889   0.000000
     12          9.365170   0.000000
     13         10.284144   0.000000
     14         11.857056   0.000000
     15         13.201790   0.000000
     16         15.138454   0.000000
     17         16.597929   0.000000
     18         19.026058   0.000000
     19         19.661937   0.000000
     20         19.940373   0.000000
     21         20.505649   0.000000
     22         20.983259   0.000000
     23         22.557696   0.000000
     24         23.546961   0.000000
     25         24.111136   0.000000
     26         24.216728   0.000000
     27         25.136006   0.000000
     28         25.875941   0.000000
     29         26.763963   0.000000
     30         27.238681   0.000000
     31         27.959819   0.000000
     32         28.777118   0.000000
     33         30.145242   0.000000
     34         30.598849   0.000000
     35         31.492006   0.000000
     36         32.506034   0.000000
 
 -0.2000000E+00  0.3333333E+00  0.1333333E+00  0.3555556E-02
      1        -19.137949   1.000000
      2        -19.134788   1.000000
      3        -19.128265   1.000000
      4        -19.127221   1.000000
      5        -19.121955   1.000000
      6         -5.633649   1.000000
      7         -2.461355   1.000000
      8          1.602625   1.000000
      9          2.569386   1.000000
     10          4.522369   1.000000
     11          6.845628   0.000000
     12          8.906413   0.000000
     13         10.031691   0.000000
     14         11.430041   0.000000
     15         14.333903   0.000000
     16         14.510606   0.000000
     17         16.014025   0.000000
     18         18.079340   0.000000
     19         19.221221   0.000000
     20         20.386540   0.000000
     21         21.190563   0.000000
     22         21.708601   0.000000
     23         22.258145   0.000000
     24         22.677553   0.000000
     25         24.254396   0.000000
     26         24.913776   0.000000
     27         25.379894   0.000000
     28         25.672696   0.000000
     29         26.487849   0.000000
     30         27.149185   0.000000
     31         28.829645   0.000000
     32         29.945107   0.000000
     33         30.877757   0.000000
     34         31.417633   0.000000
     35         32.303652   0.000000
     36         32.474141   0.000000
 
 -0.1333333E+00  0.3333333E+00  0.1333333E+00  0.3555556E-02
      1        -19.137796   1.000000
      2        -19.134818   1.000000
      3        -19.128335   1.000000
      4        -19.127236   1.000000
      5        -19.122156   1.000000
      6         -5.909245   1.000000
      7         -2.181263   1.000000
      8          1.968372   1.000000
      9          3.103433   1.000000
     10          4.161359   1.000000
     11          7.189809   0.000000
     12          8.393622   0.000000
     13          9.740608   0.000000
     14         10.914789   0.000000
     15         14.031087   0.000000
     16         15.077212   0.000000
     17         16.238588   0.000000
     18         16.781926   0.000000
     19         18.662472   0.000000
     20         19.648187   0.000000
     21         20.996403   0.000000
     22         22.062215   0.000000
     23         22.903796   0.000000
     24         23.255747   0.000000
     25         23.569338   0.000000
     26         24.813061   0.000000
     27         25.641490   0.000000
     28         26.660564   0.000000
     29         27.237615   0.000000
     30         27.687682   0.000000
     31         29.789554   0.000000
     32         30.421698   0.000000
     33         31.152067   0.000000
     34         31.858674   0.000000
     35         32.279193   0.000000
     36         33.008963   0.000000
 
  0.4000000E+00  0.4000000E+00  0.1333333E+00  0.1777778E-02
      1        -19.138512   1.000000
      2        -19.135021   1.000000
      3        -19.128310   1.000000
      4        -19.126177   1.000000
      5        -19.122521   1.000000
      6         -6.074358   1.000000
      7         -1.746888   1.000000
      8          1.780116   1.000000
      9          2.851728   1.000000
     10          3.361848   1.000000
     11          8.531380   0.000000
     12          9.649357   0.000000
     13          9.743627   0.000000
     14         10.803498   0.000000
     15         15.163958   0.000000
     16         15.480202   0.000000
     17         15.684548   0.000000
     18         16.284478   0.000000
     19         17.602454   0.000000
     20         17.743253   0.000000
     21         19.460445   0.000000
     22         21.081252   0.000000
     23         22.467446   0.000000
     24         22.600901   0.000000
     25         23.982104   0.000000
     26         24.817790   0.000000
     27         26.486118   0.000000
     28         26.608047   0.000000
     29         28.233116   0.000000
     30         29.107316   0.000000
     31         29.252975   0.000000
     32         29.999840   0.000000
     33         30.682724   0.000000
     34         31.379454   0.000000
     35         33.141952   0.000000
     36         34.455545   0.000000
 
  0.4666667E+00  0.4000000E+00  0.1333333E+00  0.3555556E-02
      1        -19.138742   1.000000
      2        -19.134809   1.000000
      3        -19.128431   1.000000
      4        -19.126137   1.000000
      5        -19.122257   1.000000
      6         -5.866911   1.000000
      7         -1.889566   1.000000
      8          1.397557   1.000000
      9          2.432320   1.000000
     10          3.443440   1.000000
     11          8.497396   0.000000
     12          9.553132   0.000000
     13         10.456530   0.000000
     14         11.073548   0.000000
     15         15.156202   0.000000
     16         15.564122   0.000000
     17         16.398737   0.000000
     18         16.902885   0.000000
     19         17.322116   0.000000
     20         18.197156   0.000000
     21         20.109116   0.000000
     22         20.564116   0.000000
     23         21.094569   0.000000
     24         22.913946   0.000000
     25         24.473655   0.000000
     26         24.805687   0.000000
     27         25.436586   0.000000
     28         26.301342   0.000000
     29         27.774780   0.000000
     30         28.748184   0.000000
     31         28.831523   0.000000
     32         29.972941   0.000000
     33         30.372384   0.000000
     34         31.521975   0.000000
     35         33.216148   0.000000
     36         33.700731   0.000000
 
 -0.4666667E+00  0.4000000E+00  0.1333333E+00  0.3555556E-02
      1        -19.138762   1.000000
      2        -19.134736   1.000000
      3        -19.128456   1.000000
      4        -19.126243   1.000000
      5        -19.122016   1.000000
      6         -5.639748   1.000000
      7         -2.091178   1.000000
      8          1.132363   1.000000
      9          1.950841   1.000000
     10          3.767476   1.000000
     11          8.391146   0.000000
     12          9.464142   0.000000
     13         10.960369   0.000000
     14         11.262530   0.000000
     15         14.542948   0.000000
     16         15.592984   0.000000
     17         17.217301   0.000000
     18         17.717312   0.000000
     19         17.977613   0.000000
     20         18.795817   0.000000
     21         19.399707   0.000000
     22         19.943978   0.000000
     23         21.906655   0.000000
     24         23.077447   0.000000
     25         23.388081   0.000000
     26         24.801167   0.000000
     27         25.801997   0.000000
     28         26.051683   0.000000
     29         27.293601   0.000000
     30         27.886079   0.000000
     31         28.552715   0.000000
     32         29.643036   0.000000
     33         30.533085   0.000000
     34         31.677308   0.000000
     35         32.232963   0.000000
     36         32.317518   0.000000
 
 -0.4000000E+00  0.4000000E+00  0.1333333E+00  0.3555556E-02
      1        -19.138593   1.000000
      2        -19.134787   1.000000
      3        -19.128393   1.000000
      4        -19.126473   1.000000
      5        -19.121841   1.000000
      6         -5.432028   1.000000
      7         -2.324103   1.000000
      8          0.990188   1.000000
      9          1.664357   1.000000
     10          4.097903   1.000000
     11          7.985963   0.000000
     12          9.822698   0.000000
     13         11.096367   0.000000
     14         11.299841   0.000000
     15         13.649310   0.000000
     16         16.292065   0.000000
     17         17.405412   0.000000
     18         18.143830   0.000000
     19         18.442595   0.000000
     20         19.077233   0.000000
     21         19.749292   0.000000
     22         20.142973   0.000000
     23         21.541497   0.000000
     24         23.341155   0.000000
     25         23.882395   0.000000
     26         24.569357   0.000000
     27         25.487431   0.000000
     28         25.764169   0.000000
     29         26.712741   0.000000
     30         28.227317   0.000000
     31         28.358883   0.000000
     32         29.486429   0.000000
     33         29.904740   0.000000
     34         30.309284   0.000000
     35         31.267925   0.000000
     36         32.133813   0.000000
 
 -0.3333333E+00  0.4000000E+00  0.1333333E+00  0.3555556E-02
      1        -19.138306   1.000000
      2        -19.134906   1.000000
      3        -19.128275   1.000000
      4        -19.126776   1.000000
      5        -19.121748   1.000000
      6         -5.297344   1.000000
      7         -2.532540   1.000000
      8          0.946655   1.000000
      9          1.646868   1.000000
     10          4.392579   1.000000
     11          7.450643   0.000000
     12         10.231966   0.000000
     13         11.118151   0.000000
     14         11.275588   0.000000
     15         12.947951   0.000000
     16         16.384605   0.000000
     17         17.129104   0.000000
     18         17.996305   0.000000
     19         19.168334   0.000000
     20         19.862964   0.000000
     21         20.230475   0.000000
     22         20.944578   0.000000
     23         21.275668   0.000000
     24         23.267698   0.000000
     25         23.816183   0.000000
     26         24.972145   0.000000
     27         25.341817   0.000000
     28         25.970932   0.000000
     29         26.292366   0.000000
     30         27.572180   0.000000
     31         28.585709   0.000000
     32         28.787509   0.000000
     33         29.417299   0.000000
     34         30.076010   0.000000
     35         30.569941   0.000000
     36         32.166316   0.000000
 
 -0.2666667E+00  0.4000000E+00  0.1333333E+00  0.3555556E-02
      1        -19.138002   1.000000
      2        -19.135019   1.000000
      3        -19.128164   1.000000
      4        -19.127073   1.000000
      5        -19.121744   1.000000
      6         -5.286252   1.000000
      7         -2.653490   1.000000
      8          1.031541   1.000000
      9          1.875639   1.000000
     10          4.600973   1.000000
     11          6.959044   0.000000
     12         10.002562   0.000000
     13         10.950562   0.000000
     14         11.944746   0.000000
     15         12.376497   0.000000
     16         15.680942   0.000000
     17         16.803544   0.000000
     18         18.642285   0.000000
     19         18.961918   0.000000
     20         20.249700   0.000000
     21         21.081159   0.000000
     22         21.297620   0.000000
     23         22.436588   0.000000
     24         22.912432   0.000000
     25         23.705696   0.000000
     26         24.405949   0.000000
     27         25.431114   0.000000
     28         25.824525   0.000000
     29         26.562327   0.000000
     30         27.532863   0.000000
     31         27.872319   0.000000
     32         28.597065   0.000000
     33         29.088761   0.000000
     34         30.333071   0.000000
     35         31.368009   0.000000
     36         31.959958   0.000000
 
 -0.2000000E+00  0.4000000E+00  0.1333333E+00  0.3555556E-02
      1        -19.137776   1.000000
      2        -19.135072   1.000000
      3        -19.128136   1.000000
      4        -19.127267   1.000000
      5        -19.121811   1.000000
      6         -5.406971   1.000000
      7         -2.660823   1.000000
      8          1.290549   1.000000
      9          2.288095   1.000000
     10          4.600998   1.000000
     11          6.701790   0.000000
     12          9.492398   0.000000
     13         10.541852   0.000000
     14         11.731116   0.000000
     15         13.150602   0.000000
     16         15.094516   0.000000
     17         16.522532   0.000000
     18         18.103279   0.000000
     19         19.054656   0.000000
     20         20.555143   0.000000
     21         21.354205   0.000000
     22         22.084070   0.000000
     23         22.429642   0.000000
     24         23.630713   0.000000
     25         23.972008   0.000000
     26         24.275832   0.000000
     27         24.824321   0.000000
     28         25.745184   0.000000
     29         26.696079   0.000000
     30         27.096373   0.000000
     31         27.745522   0.000000
     32         28.913555   0.000000
     33         29.965091   0.000000
     34         30.644895   0.000000
     35         31.905132   0.000000
     36         32.411497   0.000000
 
 -0.1333333E+00  0.4000000E+00  0.1333333E+00  0.3555556E-02
      1        -19.137658   1.000000
      2        -19.135061   1.000000
      3        -19.128187   1.000000
      4        -19.127327   1.000000
      5        -19.121944   1.000000
      6         -5.614163   1.000000
      7         -2.576452   1.000000
      8          1.729417   1.000000
      9          2.831101   1.000000
     10          4.317371   1.000000
     11          6.818760   0.000000
     12          8.864603   0.000000
     13          9.925112   0.000000
     14         11.312033   0.000000
     15         14.370141   0.000000
     16         14.659438   0.000000
     17         16.547553   0.000000
     18         17.536477   0.000000
     19         17.996637   0.000000
     20         20.760673   0.000000
     21         21.258977   0.000000
     22         22.184257   0.000000
     23         22.988041   0.000000
     24         23.235264   0.000000
     25         23.998788   0.000000
     26         25.087229   0.000000
     27         25.488349   0.000000
     28         25.950484   0.000000
     29         26.626228   0.000000
     30         26.910291   0.000000
     31         28.325364   0.000000
     32         29.505108   0.000000
     33         30.281704   0.000000
     34         31.109508   0.000000
     35         32.293896   0.000000
     36         32.701667   0.000000
 
  0.4666667E+00  0.4666667E+00  0.1333333E+00  0.1777778E-02
      1        -19.139104   1.000000
      2        -19.134502   1.000000
      3        -19.128606   1.000000
      4        -19.126002   1.000000
      5        -19.122052   1.000000
      6         -5.719046   1.000000
      7         -1.911281   1.000000
      8          1.006110   1.000000
      9          2.624352   1.000000
     10          2.895159   1.000000
     11          8.395860   0.000000
     12          9.997019   0.000000
     13         10.886671   0.000000
     14         11.304559   0.000000
     15         15.681069   0.000000
     16         15.767425   0.000000
     17         16.652381   0.000000
     18         16.888800   0.000000
     19         17.532687   0.000000
     20         18.212516   0.000000
     21         19.439724   0.000000
     22         20.961933   0.000000
     23         21.294745   0.000000
     24         21.560496   0.000000
     25         24.158285   0.000000
     26         24.544886   0.000000
     27         25.009104   0.000000
     28         26.539668   0.000000
     29         28.234942   0.000000
     30         28.341800   0.000000
     31         29.089365   0.000000
     32         29.715353   0.000000
     33         30.200987   0.000000
     34         30.938413   0.000000
     35         33.037568   0.000000
     36         34.435073   0.000000
 
 -0.4666667E+00  0.4666667E+00  0.1333333E+00  0.3555556E-02
      1        -19.139224   1.000000
      2        -19.134355   1.000000
      3        -19.128682   1.000000
      4        -19.126026   1.000000
      5        -19.121864   1.000000
      6         -5.556118   1.000000
      7         -2.005765   1.000000
      8          0.752119   1.000000
      9          2.186838   1.000000
     10          3.159039   1.000000
     11          8.414049   0.000000
     12          9.788492   0.000000
     13         11.237156   0.000000
     14         11.750845   0.000000
     15         15.156911   0.000000
     16         15.813668   0.000000
     17         17.053577   0.000000
     18         17.493225   0.000000
     19         18.192287   0.000000
     20         18.702806   0.000000
     21         19.166273   0.000000
     22         19.931331   0.000000
     23         21.610792   0.000000
     24         22.326695   0.000000
     25         22.790866   0.000000
     26         24.182002   0.000000
     27         24.977162   0.000000
     28         27.270743   0.000000
     29         27.711949   0.000000
     30         28.019721   0.000000
     31         28.734573   0.000000
     32         29.431575   0.000000
     33         30.398142   0.000000
     34         31.528243   0.000000
     35         32.683370   0.000000
     36         33.260902   0.000000
 
 -0.4000000E+00  0.4666667E+00  0.1333333E+00  0.3555556E-02
      1        -19.139073   1.000000
      2        -19.134394   1.000000
      3        -19.128646   1.000000
      4        -19.126209   1.000000
      5        -19.121732   1.000000
      6         -5.405746   1.000000
      7         -2.162386   1.000000
      8          0.657277   1.000000
      9          1.795965   1.000000
     10          3.559197   1.000000
     11          8.457588   0.000000
     12          9.472197   0.000000
     13         11.417644   0.000000
     14         11.942268   0.000000
     15         14.279173   0.000000
     16         16.091862   0.000000
     17         17.514215   0.000000
     18         18.048391   0.000000
     19         18.488766   0.000000
     20         18.927157   0.000000
     21         19.545642   0.000000
     22         19.972787   0.000000
     23         21.142348   0.000000
     24         22.102112   0.000000
     25         23.692709   0.000000
     26         24.237742   0.000000
     27         24.855017   0.000000
     28         26.602144   0.000000
     29         27.138583   0.000000
     30         27.633768   0.000000
     31         28.847256   0.000000
     32         29.657263   0.000000
     33         30.643847   0.000000
     34         31.301332   0.000000
     35         32.020077   0.000000
     36         32.331743   0.000000
 
 -0.3333333E+00  0.4666667E+00  0.1333333E+00  0.3555556E-02
      1        -19.138698   1.000000
      2        -19.134598   1.000000
      3        -19.128511   1.000000
      4        -19.126514   1.000000
      5        -19.121673   1.000000
      6         -5.298556   1.000000
      7         -2.359584   1.000000
      8          0.702241   1.000000
      9          1.640844   1.000000
     10          3.943154   1.000000
     11          8.031165   0.000000
     12          9.769452   0.000000
     13         11.302141   0.000000
     14         11.800704   0.000000
     15         13.511680   0.000000
     16         16.615446   0.000000
     17         17.086275   0.000000
     18         17.700497   0.000000
     19         19.167896   0.000000
     20         19.493789   0.000000
     21         20.068988   0.000000
     22         20.678194   0.000000
     23         20.987646   0.000000
     24         22.370704   0.000000
     25         24.185795   0.000000
     26         24.469107   0.000000
     27         25.460363   0.000000
     28         25.696162   0.000000
     29         26.611805   0.000000
     30         27.043531   0.000000
     31         28.963394   0.000000
     32         29.592339   0.000000
     33         30.075374   0.000000
     34         30.839575   0.000000
     35         31.156230   0.000000
     36         31.897370   0.000000
 
 -0.2666667E+00  0.4666667E+00  0.1333333E+00  0.3555556E-02
      1        -19.138202   1.000000
      2        -19.134897   1.000000
      3        -19.128318   1.000000
      4        -19.126882   1.000000
      5        -19.121683   1.000000
      6         -5.260177   1.000000
      7         -2.563556   1.000000
      8          0.868866   1.000000
      9          1.763932   1.000000
     10          4.276993   1.000000
     11          7.373264   0.000000
     12         10.255476   0.000000
     13         11.206723   0.000000
     14         11.384724   0.000000
     15         12.863448   0.000000
     16         16.314069   0.000000
     17         17.214575   0.000000
     18         17.732791   0.000000
     19         18.265754   0.000000
     20         20.476649   0.000000
     21         20.926728   0.000000
     22         21.676324   0.000000
     23         22.040669   0.000000
     24         22.585589   0.000000
     25         23.477248   0.000000
     26         24.825450   0.000000
     27         25.182904   0.000000
     28         25.773268   0.000000
     29         26.416077   0.000000
     30         27.457313   0.000000
     31         28.032087   0.000000
     32         28.869989   0.000000
     33         29.656866   0.000000
     34         30.358562   0.000000
     35         30.980613   0.000000
     36         31.994307   0.000000
 
 -0.2000000E+00  0.4666667E+00  0.1333333E+00  0.3555556E-02
      1        -19.137749   1.000000
      2        -19.135165   1.000000
      3        -19.128132   1.000000
      4        -19.127227   1.000000
      5        -19.121741   1.000000
      6         -5.301854   1.000000
      7         -2.733010   1.000000
      8          1.169697   1.000000
      9          2.133702   1.000000
     10          4.487777   1.000000
     11          6.810518   0.000000
     12          9.964043   0.000000
     13         10.645686   0.000000
     14         11.992919   0.000000
     15         12.436038   0.000000
     16         15.710503   0.000000
     17         17.087721   0.000000
     18         17.572395   0.000000
     19         18.445215   0.000000
     20         20.854881   0.000000
     21         21.675039   0.000000
     22         21.868124   0.000000
     23         22.781755   0.000000
     24         23.175401   0.000000
     25         23.870421   0.000000
     26         24.540450   0.000000
     27         25.348465   0.000000
     28         25.617861   0.000000
     29         26.195941   0.000000
     30         27.238332   0.000000
     31         27.769813   0.000000
     32         28.460988   0.000000
     33         29.619594   0.000000
     34         29.701579   0.000000
     35         31.767026   0.000000
     36         32.505266   0.000000
 
 -0.1333333E+00  0.4666667E+00  0.1333333E+00  0.3555556E-02
      1        -19.137528   1.000000
      2        -19.135254   1.000000
      3        -19.128037   1.000000
      4        -19.127440   1.000000
      5        -19.121832   1.000000
      6         -5.414479   1.000000
      7         -2.832647   1.000000
      8          1.614447   1.000000
      9          2.684353   1.000000
     10          4.418053   1.000000
     11          6.602874   0.000000
     12          9.237031   0.000000
     13          9.802939   0.000000
     14         12.131076   0.000000
     15         13.275667   0.000000
     16         15.260273   0.000000
     17         16.290976   0.000000
     18         17.918221   0.000000
     19         18.771942   0.000000
     20         20.240327   0.000000
     21         21.024932   0.000000
     22         22.422740   0.000000
     23         23.565843   0.000000
     24         24.007087   0.000000
     25         24.306230   0.000000
     26         24.989156   0.000000
     27         25.178862   0.000000
     28         25.675512   0.000000
     29         26.661014   0.000000
     30         26.886321   0.000000
     31         27.502646   0.000000
     32         28.191094   0.000000
     33         28.944679   0.000000
     34         31.022387   0.000000
     35         32.372092   0.000000
     36         32.770528   0.000000
 
 -0.4666667E+00 -0.4666667E+00  0.1333333E+00  0.1777778E-02
      1        -19.139477   1.000000
      2        -19.134096   1.000000
      3        -19.128820   1.000000
      4        -19.125958   1.000000
      5        -19.121731   1.000000
      6         -5.469426   1.000000
      7         -2.008971   1.000000
      8          0.551359   1.000000
      9          2.497477   1.000000
     10          2.652910   1.000000
     11          8.274908   0.000000
     12         10.175035   0.000000
     13         11.106034   0.000000
     14         12.189040   0.000000
     15         15.631652   0.000000
     16         16.101034   0.000000
     17         16.458667   0.000000
     18         17.270260   0.000000
     19         18.503079   0.000000
     20         19.012940   0.000000
     21         19.731284   0.000000
     22         20.253317   0.000000
     23         20.432728   0.000000
     24         22.472038   0.000000
     25         22.677728   0.000000
     26         23.021220   0.000000
     27         24.800152   0.000000
     28         26.610509   0.000000
     29         28.280779   0.000000
     30         28.518770   0.000000
     31         29.164515   0.000000
     32         29.904220   0.000000
     33         30.383139   0.000000
     34         31.025033   0.000000
     35         31.854161   0.000000
     36         34.301527   0.000000
 
 -0.4000000E+00 -0.4666667E+00  0.1333333E+00  0.3555556E-02
      1        -19.139443   1.000000
      2        -19.134044   1.000000
      3        -19.128839   1.000000
      4        -19.126060   1.000000
      5        -19.121653   1.000000
      6         -5.398246   1.000000
      7         -2.088314   1.000000
      8          0.541589   1.000000
      9          2.097702   1.000000
     10          3.024780   1.000000
     11          8.335052   0.000000
     12          9.827781   0.000000
     13         11.310993   0.000000
     14         12.232267   0.000000
     15         15.026138   0.000000
     16         16.090675   0.000000
     17         17.108657   0.000000
     18         17.701462   0.000000
     19         18.475332   0.000000
     20         18.953951   0.000000
     21         20.057397   0.000000
     22         20.447865   0.000000
     23         20.830558   0.000000
     24         21.284425   0.000000
     25         22.686246   0.000000
     26         24.011741   0.000000
     27         24.610285   0.000000
     28         25.899979   0.000000
     29         27.791793   0.000000
     30         28.806455   0.000000
     31         29.193999   0.000000
     32         30.124782   0.000000
     33         30.516233   0.000000
     34         31.215049   0.000000
     35         31.839629   0.000000
     36         33.218581   0.000000
 
 -0.3333333E+00 -0.4666667E+00  0.1333333E+00  0.3555556E-02
      1        -19.139110   1.000000
      2        -19.134212   1.000000
      3        -19.128734   1.000000
      4        -19.126313   1.000000
      5        -19.121639   1.000000
      6         -5.356356   1.000000
      7         -2.226595   1.000000
      8          0.692104   1.000000
      9          1.810297   1.000000
     10          3.477424   1.000000
     11          8.388938   0.000000
     12          9.399445   0.000000
     13         11.441029   0.000000
     14         11.882595   0.000000
     15         14.318879   0.000000
     16         16.132615   0.000000
     17         17.547404   0.000000
     18         17.825082   0.000000
     19         18.576240   0.000000
     20         19.337243   0.000000
     21         19.558396   0.000000
     22         20.754800   0.000000
     23         21.307344   0.000000
     24         21.906307   0.000000
     25         23.119531   0.000000
     26         24.290179   0.000000
     27         24.840440   0.000000
     28         26.080696   0.000000
     29         26.799298   0.000000
     30         27.724790   0.000000
     31         29.514768   0.000000
     32         29.836724   0.000000
     33         30.669304   0.000000
     34         31.465757   0.000000
     35         31.822862   0.000000
     36         32.382783   0.000000
 
 -0.2666667E+00 -0.4666667E+00  0.1333333E+00  0.3555556E-02
      1        -19.138562   1.000000
      2        -19.134558   1.000000
      3        -19.128535   1.000000
      4        -19.126676   1.000000
      5        -19.121681   1.000000
      6         -5.348243   1.000000
      7         -2.412354   1.000000
      8          0.940520   1.000000
      9          1.800221   1.000000
     10          3.901833   1.000000
     11          7.836414   0.000000
     12          9.740326   0.000000
     13         11.201336   0.000000
     14         11.308083   0.000000
     15         13.774921   0.000000
     16         16.389013   0.000000
     17         16.812428   0.000000
     18         17.779725   0.000000
     19         18.495772   0.000000
     20         19.758553   0.000000
     21         20.319822   0.000000
     22         21.105164   0.000000
     23         22.382160   0.000000
     24         22.881313   0.000000
     25         23.717735   0.000000
     26         24.107124   0.000000
     27         24.913928   0.000000
     28         25.420367   0.000000
     29         26.752526   0.000000
     30         27.610042   0.000000
     31         28.689561   0.000000
     32         29.405816   0.000000
     33         30.297829   0.000000
     34         31.001749   0.000000
     35         31.284250   0.000000
     36         32.298071   0.000000
 
 -0.2000000E+00 -0.4666667E+00  0.1333333E+00  0.3555556E-02
      1        -19.137950   1.000000
      2        -19.134975   1.000000
      3        -19.128283   1.000000
      4        -19.127078   1.000000
      5        -19.121755   1.000000
      6         -5.369879   1.000000
      7         -2.626806   1.000000
      8          1.237042   1.000000
      9          2.117751   1.000000
     10          4.253393   1.000000
     11          7.110283   0.000000
     12         10.128270   0.000000
     13         10.357483   0.000000
     14         11.266089   0.000000
     15         13.429361   0.000000
     16         15.927697   0.000000
     17         16.893280   0.000000
     18         17.208681   0.000000
     19         18.601194   0.000000
     20         20.244383   0.000000
     21         21.236846   0.000000
     22         21.853590   0.000000
     23         23.037619   0.000000
     24         23.650286   0.000000
     25         23.963162   0.000000
     26         24.310626   0.000000
     27         24.884151   0.000000
     28         25.432684   0.000000
     29         26.091068   0.000000
     30         27.485710   0.000000
     31         28.166240   0.000000
     32         29.040423   0.000000
     33         29.758171   0.000000
     34         30.151621   0.000000
     35         31.865932   0.000000
     36         32.482527   0.000000
 
 -0.4000000E+00 -0.4000000E+00  0.1333333E+00  0.1777778E-02
      1        -19.139549   1.000000
      2        -19.133870   1.000000
      3        -19.128923   1.000000
      4        -19.126068   1.000000
      5        -19.121629   1.000000
      6         -5.417243   1.000000
      7         -2.087737   1.000000
      8          0.630683   1.000000
      9          2.479784   1.000000
     10          2.579487   1.000000
     11          8.218325   0.000000
     12         10.118173   0.000000
     13         11.010946   0.000000
     14         12.044422   0.000000
     15         15.632119   0.000000
     16         16.087374   0.000000
     17         16.880889   0.000000
     18         17.470625   0.000000
     19         18.646486   0.000000
     20         19.318741   0.000000
     21         19.376286   0.000000
     22         20.901631   0.000000
     23         21.010161   0.000000
     24         21.480188   0.000000
     25         22.043297   0.000000
     26         23.994436   0.000000
     27         24.451229   0.000000
     28         25.480703   0.000000
     29         28.378982   0.000000
     30         29.122989   0.000000
     31         29.596654   0.000000
     32         30.072082   0.000000
     33         30.444419   0.000000
     34         30.810633   0.000000
     35         31.847612   0.000000
     36         34.199657   0.000000
 
 -0.3333333E+00 -0.4000000E+00  0.1333333E+00  0.3555556E-02
      1        -19.139345   1.000000
      2        -19.133925   1.000000
      3        -19.128879   1.000000
      4        -19.126239   1.000000
      5        -19.121666   1.000000
      6         -5.461411   1.000000
      7         -2.135747   1.000000
      8          0.881476   1.000000
      9          2.147354   1.000000
     10          3.022710   1.000000
     11          8.301989   0.000000
     12          9.651738   0.000000
     13         11.152109   0.000000
     14         11.512472   0.000000
     15         15.319693   0.000000
     16         15.902709   0.000000
     17         17.321327   0.000000
     18         17.709066   0.000000
     19         18.409790   0.000000
     20         19.267382   0.000000
     21         19.470031   0.000000
     22         20.278004   0.000000
     23         21.623576   0.000000
     24         22.268730   0.000000
     25         22.919708   0.000000
     26         23.461751   0.000000
     27         24.304385   0.000000
     28         26.332068   0.000000
     29         27.734241   0.000000
     30         28.317789   0.000000
     31         29.301753   0.000000
     32         30.114344   0.000000
     33         30.604849   0.000000
     34         31.649880   0.000000
     35         32.642212   0.000000
     36         33.262995   0.000000
 
 -0.2666667E+00 -0.4000000E+00  0.1333333E+00  0.3555556E-02
      1        -19.138864   1.000000
      2        -19.134212   1.000000
      3        -19.128717   1.000000
      4        -19.126547   1.000000
      5        -19.121752   1.000000
      6         -5.519320   1.000000
      7         -2.230147   1.000000
      8          1.214448   1.000000
      9          1.994824   1.000000
     10          3.517282   1.000000
     11          8.211059   0.000000
     12          9.311328   0.000000
     13         10.750807   0.000000
     14         11.275938   0.000000
     15         14.855657   0.000000
     16         15.701185   0.000000
     17         16.680417   0.000000
     18         18.164284   0.000000
     19         18.512159   0.000000
     20         19.067221   0.000000
     21         20.044180   0.000000
     22         20.635140   0.000000
     23         22.516339   0.000000
     24         22.904681   0.000000
     25         23.405829   0.000000
     26         24.040611   0.000000
     27         24.171059   0.000000
     28         26.223472   0.000000
     29         27.491712   0.000000
     30         27.829720   0.000000
     31         28.246748   0.000000
     32         30.433081   0.000000
     33         30.985620   0.000000
     34         31.845391   0.000000
     35         32.251698   0.000000
     36         32.694518   0.000000
 
 -0.2000000E+00 -0.4000000E+00  0.1333333E+00  0.3555556E-02
      1        -19.138224   1.000000
      2        -19.134651   1.000000
      3        -19.128471   1.000000
      4        -19.126931   1.000000
      5        -19.121856   1.000000
      6         -5.574869   1.000000
      7         -2.380337   1.000000
      8          1.479410   1.000000
      9          2.245531   1.000000
     10          3.971257   1.000000
     11          7.515205   0.000000
     12          9.736304   0.000000
     13          9.884725   0.000000
     14         11.104525   0.000000
     15         14.559747   0.000000
     16         15.362095   0.000000
     17         16.248951   0.000000
     18         17.871232   0.000000
     19         18.149669   0.000000
     20         19.969067   0.000000
     21         20.828440   0.000000
     22         21.512709   0.000000
     23         22.562079   0.000000
     24         23.736484   0.000000
     25         24.077863   0.000000
     26         24.547790   0.000000
     27         24.757449   0.000000
     28         25.176450   0.000000
     29         26.839044   0.000000
     30         27.147205   0.000000
     31         29.000400   0.000000
     32         29.887322   0.000000
     33         30.780240   0.000000
     34         31.444837   0.000000
     35         32.098090   0.000000
     36         32.464400   0.000000
 
 -0.3333333E+00 -0.3333333E+00  0.1333333E+00  0.1777778E-02
      1        -19.139302   1.000000
      2        -19.133848   1.000000
      3        -19.128905   1.000000
      4        -19.126322   1.000000
      5        -19.121757   1.000000
      6         -5.593367   1.000000
      7         -2.074179   1.000000
      8          1.216981   1.000000
      9          2.571882   1.000000
     10          2.658128   1.000000
     11          8.230024   0.000000
     12          9.865034   0.000000
     13         10.710961   0.000000
     14         10.920728   0.000000
     15         15.803718   0.000000
     16         15.922195   0.000000
     17         16.779744   0.000000
     18         17.545651   0.000000
     19         18.314063   0.000000
     20         18.864357   0.000000
     21         19.900684   0.000000
     22         20.745990   0.000000
     23         21.126439   0.000000
     24         22.420312   0.000000
     25         23.203035   0.000000
     26         23.927692   0.000000
     27         24.049348   0.000000
     28         26.969296   0.000000
     29         27.192347   0.000000
     30         28.510640   0.000000
     31         29.891640   0.000000
     32         30.377209   0.000000
     33         30.586283   0.000000
     34         31.254849   0.000000
     35         33.113955   0.000000
     36         34.040030   0.000000
 
 -0.2666667E+00 -0.3333333E+00  0.1333333E+00  0.3555556E-02
      1        -19.138956   1.000000
      2        -19.134008   1.000000
      3        -19.128802   1.000000
      4        -19.126543   1.000000
      5        -19.121892   1.000000
      6         -5.726609   1.000000
      7         -2.046859   1.000000
      8          1.629761   1.000000
      9          2.347949   1.000000
     10          3.147660   1.000000
     11          8.289470   0.000000
     12          9.388452   0.000000
     13         10.119465   0.000000
     14         10.899213   0.000000
     15         15.213815   0.000000
     16         15.959575   0.000000
     17         16.246552   0.000000
     18         17.438999   0.000000
     19         18.408282   0.000000
     20         19.370685   0.000000
     21         19.721284   0.000000
     22         21.213234   0.000000
     23         21.735248   0.000000
     24         22.080735   0.000000
     25         23.712092   0.000000
     26         24.354637   0.000000
     27         24.969815   0.000000
     28         25.924880   0.000000
     29         27.886953   0.000000
     30         28.344128   0.000000
     31         29.193763   0.000000
     32         30.538163   0.000000
     33         31.308662   0.000000
     34         31.911222   0.000000
     35         33.327243   0.000000
     36         33.498202   0.000000
 
 -0.2000000E+00 -0.3333333E+00  0.1333333E+00  0.3555556E-02
      1        -19.138397   1.000000
      2        -19.134379   1.000000
      3        -19.128599   1.000000
      4        -19.126868   1.000000
      5        -19.122038   1.000000
      6         -5.837669   1.000000
      7         -2.076991   1.000000
      8          1.874157   1.000000
      9          2.513459   1.000000
     10          3.679278   1.000000
     11          7.933861   0.000000
     12          9.276292   0.000000
     13          9.333532   0.000000
     14         10.997084   0.000000
     15         14.660443   0.000000
     16         15.332235   0.000000
     17         16.153968   0.000000
     18         17.050647   0.000000
     19         18.877267   0.000000
     20         19.177581   0.000000
     21         20.780614   0.000000
     22         21.170502   0.000000
     23         22.118481   0.000000
     24         23.277537   0.000000
     25         23.656426   0.000000
     26         24.678086   0.000000
     27         25.485574   0.000000
     28         26.000513   0.000000
     29         26.936583   0.000000
     30         28.222187   0.000000
     31         29.556362   0.000000
     32         30.693084   0.000000
     33         31.687466   0.000000
     34         32.221774   0.000000
     35         32.632126   0.000000
     36         32.943710   0.000000
 
 -0.2666667E+00 -0.2666667E+00  0.1333333E+00  0.1777778E-02
      1        -19.138786   1.000000
      2        -19.134030   1.000000
      3        -19.128770   1.000000
      4        -19.126672   1.000000
      5        -19.122082   1.000000
      6         -5.928870   1.000000
      7         -1.888248   1.000000
      8          2.112364   1.000000
      9          2.766741   1.000000
     10          2.913688   1.000000
     11          8.281736   0.000000
     12          9.403673   0.000000
     13          9.516743   0.000000
     14         10.502408   0.000000
     15         15.182598   0.000000
     16         15.272292   0.000000
     17         16.228399   0.000000
     18         16.936575   0.000000
     19         18.676730   0.000000
     20         19.185088   0.000000
     21         20.408644   0.000000
     22         20.994198   0.000000
     23         21.282988   0.000000
     24         22.579151   0.000000
     25         23.500331   0.000000
     26         24.778103   0.000000
     27         25.538598   0.000000
     28         26.023436   0.000000
     29         28.625908   0.000000
     30         28.862264   0.000000
     31         29.881879   0.000000
     32         30.287459   0.000000
     33         31.304235   0.000000
     34         32.045183   0.000000
     35         33.540284   0.000000
     36         33.653201   0.000000
 
 -0.2000000E+00 -0.2666667E+00  0.1333333E+00  0.3555556E-02
      1        -19.138368   1.000000
      2        -19.134276   1.000000
      3        -19.128625   1.000000
      4        -19.126911   1.000000
      5        -19.122279   1.000000
      6         -6.096658   1.000000
      7         -1.781810   1.000000
      8          2.379686   1.000000
      9          2.884969   1.000000
     10          3.429917   1.000000
     11          8.210917   0.000000
     12          8.664064   0.000000
     13          9.194108   0.000000
     14         10.645177   0.000000
     15         14.250008   0.000000
     16         15.177974   0.000000
     17         15.730617   0.000000
     18         16.795975   0.000000
     19         18.758953   0.000000
     20         19.804570   0.000000
     21         20.177664   0.000000
     22         20.706204   0.000000
     23         22.369852   0.000000
     24         22.912355   0.000000
     25         23.662909   0.000000
     26         24.224031   0.000000
     27         26.533018   0.000000
     28         27.038048   0.000000
     29         27.907209   0.000000
     30         29.241957   0.000000
     31         30.004630   0.000000
     32         30.591085   0.000000
     33         31.978424   0.000000
     34         32.496919   0.000000
     35         32.797168   0.000000
     36         33.744198   0.000000
 
 -0.2000000E+00 -0.2000000E+00  0.1333333E+00  0.1777778E-02
      1        -19.138120   1.000000
      2        -19.134385   1.000000
      3        -19.128541   1.000000
      4        -19.127053   1.000000
      5        -19.122533   1.000000
      6         -6.315420   1.000000
      7         -1.534853   1.000000
      8          2.884208   1.000000
      9          3.048170   1.000000
     10          3.603298   1.000000
     11          7.965090   0.000000
     12          8.351561   0.000000
     13          9.161783   0.000000
     14         10.383830   0.000000
     15         13.946837   0.000000
     16         14.275430   0.000000
     17         15.900088   0.000000
     18         15.967621   0.000000
     19         18.921702   0.000000
     20         19.834054   0.000000
     21         19.906079   0.000000
     22         21.367743   0.000000
     23         22.252350   0.000000
     24         22.615041   0.000000
     25         23.604237   0.000000
     26         24.864650   0.000000
     27         27.622285   0.000000
     28         28.029960   0.000000
     29         28.764447   0.000000
     30         29.313210   0.000000
     31         30.352677   0.000000
     32         30.815923   0.000000
     33         31.708210   0.000000
     34         32.235481   0.000000
     35         32.961259   0.000000
     36         33.654963   0.000000
 
  0.2000000E+00  0.2000000E+00  0.2000000E+00  0.5925926E-03
      1        -19.136601   1.000000
      2        -19.136601   1.000000
      3        -19.127161   1.000000
      4        -19.127161   1.000000
      5        -19.123941   1.000000
      6         -6.998151   1.000000
      7         -0.763281   1.000000
      8          4.133774   1.000000
      9          4.133774   1.000000
     10          4.635851   1.000000
     11          7.918930   0.000000
     12          7.918930   0.000000
     13          7.952842   0.000000
     14         11.340083   0.000000
     15         12.239404   0.000000
     16         12.239404   0.000000
     17         15.242529   0.000000
     18         15.242529   0.000000
     19         15.353715   0.000000
     20         15.787878   0.000000
     21         21.453978   0.000000
     22         21.453978   0.000000
     23         21.894397   0.000000
     24         27.475426   0.000000
     25         27.475426   0.000000
     26         28.034744   0.000000
     27         28.915885   0.000000
     28         28.915885   0.000000
     29         29.308259   0.000000
     30         29.467565   0.000000
     31         29.467565   0.000000
     32         31.094416   0.000000
     33         31.666305   0.000000
     34         32.233610   0.000000
     35         32.233610   0.000000
     36         34.886562   0.000000
 
  0.2666667E+00  0.2000000E+00  0.2000000E+00  0.1777778E-02
      1        -19.136657   1.000000
      2        -19.136656   1.000000
      3        -19.127234   1.000000
      4        -19.127000   1.000000
      5        -19.123807   1.000000
      6         -6.888783   1.000000
      7         -1.026015   1.000000
      8          3.514577   1.000000
      9          4.348429   1.000000
     10          5.106067   1.000000
     11          7.369199   0.000000
     12          7.375147   0.000000
     13          8.670276   0.000000
     14         11.395037   0.000000
     15         12.106685   0.000000
     16         12.906463   0.000000
     17         14.653848   0.000000
     18         15.977543   0.000000
     19         16.275249   0.000000
     20         16.516846   0.000000
     21         19.973692   0.000000
     22         21.664891   0.000000
     23         21.961198   0.000000
     24         26.440014   0.000000
     25         26.980698   0.000000
     26         27.047367   0.000000
     27         28.471240   0.000000
     28         29.018417   0.000000
     29         29.226044   0.000000
     30         30.067344   0.000000
     31         30.077820   0.000000
     32         30.923107   0.000000
     33         31.687111   0.000000
     34         32.430978   0.000000
     35         32.899285   0.000000
     36         33.670540   0.000000
 
  0.3333333E+00  0.2000000E+00  0.2000000E+00  0.1777778E-02
      1        -19.136856   1.000000
      2        -19.136492   1.000000
      3        -19.127292   1.000000
      4        -19.126987   1.000000
      5        -19.123518   1.000000
      6         -6.699301   1.000000
      7         -1.344327   1.000000
      8          2.817794   1.000000
      9          4.417152   1.000000
     10          5.573764   1.000000
     11          6.854759   0.000000
     12          7.028715   0.000000
     13          9.304319   0.000000
     14         11.527735   0.000000
     15         12.176654   0.000000
     16         13.671168   0.000000
     17         14.361240   0.000000
     18         16.886336   0.000000
     19         17.122329   0.000000
     20         17.444535   0.000000
     21         18.985020   0.000000
     22         21.973738   0.000000
     23         22.171515   0.000000
     24         25.052163   0.000000
     25         25.739942   0.000000
     26         25.844919   0.000000
     27         27.552429   0.000000
     28         29.177982   0.000000
     29         29.291155   0.000000
     30         29.978821   0.000000
     31         30.546802   0.000000
     32         31.003884   0.000000
     33         31.858009   0.000000
     34         32.176315   0.000000
     35         32.373197   0.000000
     36         33.518122   0.000000
 
  0.4000000E+00  0.2000000E+00  0.2000000E+00  0.1777778E-02
      1        -19.137178   1.000000
      2        -19.136151   1.000000
      3        -19.127313   1.000000
      4        -19.127105   1.000000
      5        -19.123140   1.000000
      6         -6.439489   1.000000
      7         -1.719526   1.000000
      8          2.256982   1.000000
      9          4.290201   1.000000
     10          5.606692   1.000000
     11          6.717605   0.000000
     12          6.935813   0.000000
     13          9.763433   0.000000
     14         11.640178   0.000000
     15         12.468359   0.000000
     16         14.442609   0.000000
     17         14.683670   0.000000
     18         16.182032   0.000000
     19         18.384678   0.000000
     20         18.718479   0.000000
     21         19.496613   0.000000
     22         22.279413   0.000000
     23         22.358939   0.000000
     24         23.534944   0.000000
     25         24.540343   0.000000
     26         24.789623   0.000000
     27         26.535916   0.000000
     28         28.835597   0.000000
     29         29.359282   0.000000
     30         29.705939   0.000000
     31         29.752889   0.000000
     32         30.500237   0.000000
     33         31.452729   0.000000
     34         31.938596   0.000000
     35         32.514734   0.000000
     36         33.498584   0.000000
 
  0.4666667E+00  0.2000000E+00  0.2000000E+00  0.1777778E-02
      1        -19.137575   1.000000
      2        -19.135702   1.000000
      3        -19.127320   1.000000
      4        -19.127284   1.000000
      5        -19.122740   1.000000
      6         -6.128984   1.000000
      7         -2.141786   1.000000
      8          1.894252   1.000000
      9          4.023797   1.000000
     10          5.210931   1.000000
     11          6.957796   0.000000
     12          7.046918   0.000000
     13          9.914032   0.000000
     14         11.923604   0.000000
     15         12.985278   0.000000
     16         14.547590   0.000000
     17         15.483414   0.000000
     18         15.771684   0.000000
     19         19.860579   0.000000
     20         20.069089   0.000000
     21         20.465438   0.000000
     22         21.926799   0.000000
     23         22.052226   0.000000
     24         22.870417   0.000000
     25         23.436586   0.000000
     26         24.403011   0.000000
     27         25.552615   0.000000
     28         27.568540   0.000000
     29         28.116136   0.000000
     30         29.538704   0.000000
     31         29.825758   0.000000
     32         29.931712   0.000000
     33         31.060182   0.000000
     34         32.006826   0.000000
     35         32.170559   0.000000
     36         32.855571   0.000000
 
 -0.4666667E+00  0.2000000E+00  0.2000000E+00  0.1777778E-02
      1        -19.137985   1.000000
      2        -19.135219   1.000000
      3        -19.127591   1.000000
      4        -19.127211   1.000000
      5        -19.122381   1.000000
      6         -5.808919   1.000000
      7         -2.558260   1.000000
      8          1.743786   1.000000
      9          3.717446   1.000000
     10          4.750638   1.000000
     11          7.243293   0.000000
     12          7.276279   0.000000
     13          9.719205   0.000000
     14         12.605535   0.000000
     15         13.453107   0.000000
     16         13.715168   0.000000
     17         16.436105   0.000000
     18         16.777908   0.000000
     19         20.115410   0.000000
     20         20.436114   0.000000
     21         21.471146   0.000000
     22         21.726916   0.000000
     23         22.163743   0.000000
     24         22.340261   0.000000
     25         23.565369   0.000000
     26         24.440679   0.000000
     27         24.956376   0.000000
     28         26.293370   0.000000
     29         26.755441   0.000000
     30         28.501043   0.000000
     31         29.444364   0.000000
     32         30.142360   0.000000
     33         30.289692   0.000000
     34         31.038807   0.000000
     35         32.490663   0.000000
     36         33.018601   0.000000
 
 -0.4000000E+00  0.2000000E+00  0.2000000E+00  0.1777778E-02
      1        -19.138329   1.000000
      2        -19.134769   1.000000
      3        -19.127891   1.000000
      4        -19.127125   1.000000
      5        -19.122119   1.000000
      6         -5.563529   1.000000
      7         -2.855148   1.000000
      8          1.786799   1.000000
      9          3.438176   1.000000
     10          4.323631   1.000000
     11          7.513130   0.000000
     12          7.575359   0.000000
     13          9.378582   0.000000
     14         12.345671   0.000000
     15         13.611220   0.000000
     16         14.632142   0.000000
     17         17.406679   0.000000
     18         17.592163   0.000000
     19         19.052050   0.000000
     20         19.707385   0.000000
     21         20.839392   0.000000
     22         22.210097   0.000000
     23         23.031067   0.000000
     24         23.355698   0.000000
     25         24.106152   0.000000
     26         24.443115   0.000000
     27         24.878534   0.000000
     28         25.709210   0.000000
     29         26.185957   0.000000
     30         26.675362   0.000000
     31         28.513575   0.000000
     32         29.669138   0.000000
     33         30.343596   0.000000
     34         31.129103   0.000000
     35         32.803632   0.000000
     36         33.076267   0.000000
 
 -0.3333333E+00  0.2000000E+00  0.2000000E+00  0.1777778E-02
      1        -19.138543   1.000000
      2        -19.134412   1.000000
      3        -19.128174   1.000000
      4        -19.127059   1.000000
      5        -19.121993   1.000000
      6         -5.514498   1.000000
      7         -2.882333   1.000000
      8          1.992605   1.000000
      9          3.219900   1.000000
     10          3.947643   1.000000
     11          7.768233   0.000000
     12          7.926873   0.000000
     13          9.018893   0.000000
     14         11.447207   0.000000
     15         14.727225   0.000000
     16         15.685596   0.000000
     17         16.961266   0.000000
     18         17.758606   0.000000
     19         18.571696   0.000000
     20         19.605065   0.000000
     21         20.464626   0.000000
     22         21.347591   0.000000
     23         23.635350   0.000000
     24         23.899663   0.000000
     25         24.449221   0.000000
     26         24.604121   0.000000
     27         24.705754   0.000000
     28         25.642275   0.000000
     29         26.325853   0.000000
     30         26.786903   0.000000
     31         27.588411   0.000000
     32         29.929663   0.000000
     33         30.333431   0.000000
     34         31.121349   0.000000
     35         32.962101   0.000000
     36         33.154012   0.000000
 
 -0.2666667E+00  0.2000000E+00  0.2000000E+00  0.1777778E-02
      1        -19.138579   1.000000
      2        -19.134201   1.000000
      3        -19.128403   1.000000
      4        -19.127033   1.000000
      5        -19.122027   1.000000
      6         -5.693847   1.000000
      7         -2.593611   1.000000
      8          2.326577   1.000000
      9          3.078627   1.000000
     10          3.630965   1.000000
     11          7.994472   0.000000
     12          8.322673   0.000000
     13          8.681227   0.000000
     14         10.789552   0.000000
     15         15.801045   0.000000
     16         15.937030   0.000000
     17         16.244351   0.000000
     18         17.149869   0.000000
     19         18.405674   0.000000
     20         19.252023   0.000000
     21         20.658853   0.000000
     22         21.791937   0.000000
     23         22.424753   0.000000
     24         23.292191   0.000000
     25         23.406958   0.000000
     26         25.070709   0.000000
     27         25.856237   0.000000
     28         25.898441   0.000000
     29         26.561111   0.000000
     30         27.924870   0.000000
     31         28.976427   0.000000
     32         30.159734   0.000000
     33         30.513847   0.000000
     34         30.959543   0.000000
     35         32.889951   0.000000
     36         33.493434   0.000000
 
 -0.2000000E+00  0.2000000E+00  0.2000000E+00  0.1777778E-02
      1        -19.138428   1.000000
      2        -19.134183   1.000000
      3        -19.128534   1.000000
      4        -19.127040   1.000000
      5        -19.122217   1.000000
      6         -5.995377   1.000000
      7         -2.100284   1.000000
      8          2.718192   1.000000
      9          3.021048   1.000000
     10          3.423260   1.000000
     11          8.136638   0.000000
     12          8.390490   0.000000
     13          8.747650   0.000000
     14         10.436136   0.000000
     15         14.871302   0.000000
     16         15.254146   0.000000
     17         16.376477   0.000000
     18         17.039283   0.000000
     19         18.525603   0.000000
     20         19.193831   0.000000
     21         20.537467   0.000000
     22         21.631815   0.000000
     23         22.081214   0.000000
     24         22.694153   0.000000
     25         23.706530   0.000000
     26         24.131081   0.000000
     27         26.576542   0.000000
     28         27.015425   0.000000
     29         27.814571   0.000000
     30         29.241946   0.000000
     31         30.015551   0.000000
     32         30.216142   0.000000
     33         30.711338   0.000000
     34         31.864451   0.000000
     35         32.616552   0.000000
     36         33.928580   0.000000
 
  0.2666667E+00  0.2666667E+00  0.2000000E+00  0.1777778E-02
      1        -19.136936   1.000000
      2        -19.136530   1.000000
      3        -19.127230   1.000000
      4        -19.126829   1.000000
      5        -19.123760   1.000000
      6         -6.813594   1.000000
      7         -1.236512   1.000000
      8          3.844147   1.000000
      9          3.853483   1.000000
     10          5.293769   1.000000
     11          6.856431   0.000000
     12          8.123384   0.000000
     13          8.213558   0.000000
     14         11.254938   0.000000
     15         12.549062   0.000000
     16         13.083162   0.000000
     17         15.372221   0.000000
     18         15.607276   0.000000
     19         16.382183   0.000000
     20         17.310558   0.000000
     21         19.932507   0.000000
     22         20.403545   0.000000
     23         21.994134   0.000000
     24         25.868775   0.000000
     25         26.792298   0.000000
     26         27.571695   0.000000
     27         27.846868   0.000000
     28         28.998091   0.000000
     29         29.124031   0.000000
     30         29.654255   0.000000
     31         30.469524   0.000000
     32         30.747055   0.000000
     33         31.617530   0.000000
     34         32.354589   0.000000
     35         32.780539   0.000000
     36         33.728959   0.000000
 
  0.3333333E+00  0.2666667E+00  0.2000000E+00  0.3555556E-02
      1        -19.137110   1.000000
      2        -19.136430   1.000000
      3        -19.127314   1.000000
      4        -19.126728   1.000000
      5        -19.123546   1.000000
      6         -6.658910   1.000000
      7         -1.481940   1.000000
      8          3.087709   1.000000
      9          4.061965   1.000000
     10          5.393622   1.000000
     11          6.780219   0.000000
     12          7.676632   0.000000
     13          8.946486   0.000000
     14         11.216534   0.000000
     15         12.785427   0.000000
     16         13.815703   0.000000
     17         14.882143   0.000000
     18         16.393565   0.000000
     19         17.138992   0.000000
     20         17.853476   0.000000
     21         19.153082   0.000000
     22         20.562614   0.000000
     23         22.221158   0.000000
     24         24.815309   0.000000
     25         25.651289   0.000000
     26         26.853675   0.000000
     27         27.694037   0.000000
     28         28.049281   0.000000
     29         28.926215   0.000000
     30         30.120957   0.000000
     31         30.538024   0.000000
     32         31.215965   0.000000
     33         31.384775   0.000000
     34         32.076759   0.000000
     35         32.814931   0.000000
     36         33.288126   0.000000
 
  0.4000000E+00  0.2666667E+00  0.2000000E+00  0.3555556E-02
      1        -19.137302   1.000000
      2        -19.136235   1.000000
      3        -19.127394   1.000000
      4        -19.126758   1.000000
      5        -19.123218   1.000000
      6         -6.432752   1.000000
      7         -1.759405   1.000000
      8          2.396478   1.000000
      9          3.976636   1.000000
     10          5.355330   1.000000
     11          6.837086   0.000000
     12          7.531332   0.000000
     13          9.583203   0.000000
     14         11.375716   0.000000
     15         13.020192   0.000000
     16         14.500408   0.000000
     17         14.873601   0.000000
     18         16.228356   0.000000
     19         18.064869   0.000000
     20         18.336284   0.000000
     21         19.815348   0.000000
     22         21.016219   0.000000
     23         22.466559   0.000000
     24         23.669851   0.000000
     25         24.249811   0.000000
     26         25.797588   0.000000
     27         26.798447   0.000000
     28         27.904605   0.000000
     29         28.423632   0.000000
     30         29.496179   0.000000
     31         30.469151   0.000000
     32         30.904547   0.000000
     33         31.636725   0.000000
     34         31.828227   0.000000
     35         32.309945   0.000000
     36         33.553276   0.000000
 
  0.4666667E+00  0.2666667E+00  0.2000000E+00  0.3555556E-02
      1        -19.137590   1.000000
      2        -19.135890   1.000000
      3        -19.127466   1.000000
      4        -19.126867   1.000000
      5        -19.122840   1.000000
      6         -6.151046   1.000000
      7         -2.074487   1.000000
      8          1.871723   1.000000
      9          3.643160   1.000000
     10          5.302645   1.000000
     11          6.695417   0.000000
     12          7.856785   0.000000
     13         10.059276   0.000000
     14         11.570334   0.000000
     15         13.390870   0.000000
     16         14.524492   0.000000
     17         15.442038   0.000000
     18         15.764771   0.000000
     19         19.237369   0.000000
     20         19.672884   0.000000
     21         20.726436   0.000000
     22         21.403857   0.000000
     23         22.456683   0.000000
     24         22.699069   0.000000
     25         23.173643   0.000000
     26         24.821542   0.000000
     27         25.743447   0.000000
     28         27.160621   0.000000
     29         28.156325   0.000000
     30         28.666838   0.000000
     31         29.541912   0.000000
     32         30.878421   0.000000
     33         31.252984   0.000000
     34         31.858910   0.000000
     35         32.543505   0.000000
     36         32.973365   0.000000
 
 -0.4666667E+00  0.2666667E+00  0.2000000E+00  0.3555556E-02
      1        -19.137942   1.000000
      2        -19.135445   1.000000
      3        -19.127586   1.000000
      4        -19.126968   1.000000
      5        -19.122474   1.000000
      6         -5.845526   1.000000
      7         -2.411119   1.000000
      8          1.562667   1.000000
      9          3.259117   1.000000
     10          5.073227   1.000000
     11          6.746836   0.000000
     12          8.232254   0.000000
     13         10.249114   0.000000
     14         11.920007   0.000000
     15         13.511619   0.000000
     16         14.002985   0.000000
     17         16.121191   0.000000
     18         16.751875   0.000000
     19         20.041614   0.000000
     20         20.726968   0.000000
     21         21.082638   0.000000
     22         21.562298   0.000000
     23         21.993837   0.000000
     24         22.448383   0.000000
     25         23.022489   0.000000
     26         24.398060   0.000000
     27         25.083758   0.000000
     28         25.752629   0.000000
     29         27.587633   0.000000
     30         28.441058   0.000000
     31         28.669057   0.000000
     32         29.941559   0.000000
     33         31.051645   0.000000
     34         31.510130   0.000000
     35         32.124417   0.000000
     36         32.978690   0.000000
 
 -0.4000000E+00  0.2666667E+00  0.2000000E+00  0.3555556E-02
      1        -19.138289   1.000000
      2        -19.134979   1.000000
      3        -19.127816   1.000000
      4        -19.126983   1.000000
      5        -19.122173   1.000000
      6         -5.579056   1.000000
      7         -2.698072   1.000000
      8          1.475716   1.000000
      9          2.921431   1.000000
     10          4.723241   1.000000
     11          6.966299   0.000000
     12          8.564447   0.000000
     13         10.085082   0.000000
     14         12.396364   0.000000
     15         12.695795   0.000000
     16         14.840209   0.000000
     17         17.067152   0.000000
     18         17.801262   0.000000
     19         19.175304   0.000000
     20         20.352665   0.000000
     21         20.832016   0.000000
     22         21.877400   0.000000
     23         22.629744   0.000000
     24         23.089752   0.000000
     25         23.454041   0.000000
     26         24.075062   0.000000
     27         24.522473   0.000000
     28         25.843245   0.000000
     29         26.492389   0.000000
     30         27.467384   0.000000
     31         28.514480   0.000000
     32         29.302661   0.000000
     33         29.751167   0.000000
     34         31.487638   0.000000
     35         32.250293   0.000000
     36         33.244555   0.000000
 
 -0.3333333E+00  0.2666667E+00  0.2000000E+00  0.3555556E-02
      1        -19.138550   1.000000
      2        -19.134567   1.000000
      3        -19.128105   1.000000
      4        -19.126943   1.000000
      5        -19.121980   1.000000
      6         -5.454513   1.000000
      7         -2.806971   1.000000
      8          1.585471   1.000000
      9          2.667427   1.000000
     10          4.348668   1.000000
     11          7.263089   0.000000
     12          8.837871   0.000000
     13          9.769178   0.000000
     14         11.533486   0.000000
     15         13.678219   0.000000
     16         15.819725   0.000000
     17         17.089407   0.000000
     18         18.608335   0.000000
     19         18.722126   0.000000
     20         19.671418   0.000000
     21         20.081347   0.000000
     22         21.791996   0.000000
     23         22.640067   0.000000
     24         23.404250   0.000000
     25         24.031232   0.000000
     26         24.366883   0.000000
     27         25.151705   0.000000
     28         25.529728   0.000000
     29         26.047456   0.000000
     30         27.273167   0.000000
     31         28.003835   0.000000
     32         28.987926   0.000000
     33         29.419340   0.000000
     34         31.536226   0.000000
     35         32.341729   0.000000
     36         33.372713   0.000000
 
 -0.2666667E+00  0.2666667E+00  0.2000000E+00  0.3555556E-02
      1        -19.138665   1.000000
      2        -19.134277   1.000000
      3        -19.128376   1.000000
      4        -19.126909   1.000000
      5        -19.121932   1.000000
      6         -5.544398   1.000000
      7         -2.643777   1.000000
      8          1.850866   1.000000
      9          2.520494   1.000000
     10          3.987957   1.000000
     11          7.598769   0.000000
     12          9.017338   0.000000
     13          9.419511   0.000000
     14         10.936977   0.000000
     15         14.808979   0.000000
     16         16.067629   0.000000
     17         16.739020   0.000000
     18         17.805795   0.000000
     19         18.455374   0.000000
     20         19.785033   0.000000
     21         20.668123   0.000000
     22         21.324486   0.000000
     23         21.951417   0.000000
     24         23.398747   0.000000
     25         23.965501   0.000000
     26         24.285147   0.000000
     27         25.269901   0.000000
     28         25.915288   0.000000
     29         26.558839   0.000000
     30         27.472248   0.000000
     31         28.743100   0.000000
     32         29.129819   0.000000
     33         29.883614   0.000000
     34         31.775447   0.000000
     35         32.274418   0.000000
     36         33.368613   0.000000
 
 -0.2000000E+00  0.2666667E+00  0.2000000E+00  0.3555556E-02
      1        -19.138602   1.000000
      2        -19.134165   1.000000
      3        -19.128564   1.000000
      4        -19.126901   1.000000
      5        -19.122034   1.000000
      6         -5.793321   1.000000
      7         -2.260297   1.000000
      8          2.183829   1.000000
      9          2.543358   1.000000
     10          3.662047   1.000000
     11          7.937697   0.000000
     12          9.024182   0.000000
     13          9.121402   0.000000
     14         10.687027   0.000000
     15         15.066359   0.000000
     16         15.796314   0.000000
     17         16.257482   0.000000
     18         17.215707   0.000000
     19         18.465492   0.000000
     20         19.508278   0.000000
     21         20.896993   0.000000
     22         21.500780   0.000000
     23         21.908642   0.000000
     24         22.466572   0.000000
     25         23.377902   0.000000
     26         24.862357   0.000000
     27         25.515543   0.000000
     28         26.151829   0.000000
     29         27.276412   0.000000
     30         28.567979   0.000000
     31         29.083455   0.000000
     32         30.335634   0.000000
     33         31.111726   0.000000
     34         31.611966   0.000000
     35         32.696943   0.000000
     36         33.221625   0.000000
 
  0.3333333E+00  0.3333333E+00  0.2000000E+00  0.1777778E-02
      1        -19.137430   1.000000
      2        -19.136231   1.000000
      3        -19.127444   1.000000
      4        -19.126513   1.000000
      5        -19.123409   1.000000
      6         -6.541735   1.000000
      7         -1.654221   1.000000
      8          3.209101   1.000000
      9          3.508560   1.000000
     10          4.904706   1.000000
     11          7.260127   0.000000
     12          8.450663   0.000000
     13          8.548172   0.000000
     14         10.919439   0.000000
     15         13.546914   0.000000
     16         14.188844   0.000000
     17         15.625677   0.000000
     18         15.777539   0.000000
     19         17.568390   0.000000
     20         18.249605   0.000000
     21         18.583542   0.000000
     22         20.454575   0.000000
     23         22.419233   0.000000
     24         23.889344   0.000000
     25         25.473479   0.000000
     26         26.277830   0.000000
     27         27.279194   0.000000
     28         28.262274   0.000000
     29         29.131500   0.000000
     30         29.488202   0.000000
     31         29.866427   0.000000
     32         30.690910   0.000000
     33         30.880587   0.000000
     34         32.511178   0.000000
     35         33.277737   0.000000
     36         33.744185   0.000000
 
  0.4000000E+00  0.3333333E+00  0.2000000E+00  0.3555556E-02
      1        -19.137667   1.000000
      2        -19.136028   1.000000
      3        -19.127571   1.000000
      4        -19.126436   1.000000
      5        -19.123145   1.000000
      6         -6.354495   1.000000
      7         -1.845700   1.000000
      8          2.583375   1.000000
      9          3.417100   1.000000
     10          4.654466   1.000000
     11          7.597800   0.000000
     12          8.303329   0.000000
     13          9.208126   0.000000
     14         10.947958   0.000000
     15         13.965984   0.000000
     16         14.895362   0.000000
     17         15.303443   0.000000
     18         16.202104   0.000000
     19         17.591078   0.000000
     20         18.393086   0.000000
     21         18.935828   0.000000
     22         21.281068   0.000000
     23         22.627220   0.000000
     24         22.946746   0.000000
     25         24.249046   0.000000
     26         26.096488   0.000000
     27         26.786132   0.000000
     28         27.674473   0.000000
     29         28.130442   0.000000
     30         29.037878   0.000000
     31         29.674129   0.000000
     32         30.350354   0.000000
     33         31.063880   0.000000
     34         32.639209   0.000000
     35         33.230021   0.000000
     36         33.898935   0.000000
 
  0.4666667E+00  0.3333333E+00  0.2000000E+00  0.3555556E-02
      1        -19.137857   1.000000
      2        -19.135800   1.000000
      3        -19.127671   1.000000
      4        -19.126489   1.000000
      5        -19.122814   1.000000
      6         -6.110639   1.000000
      7         -2.057465   1.000000
      8          1.976409   1.000000
      9          3.030380   1.000000
     10          4.821436   1.000000
     11          7.283272   0.000000
     12          8.740776   0.000000
     13          9.739156   0.000000
     14         11.240844   0.000000
     15         14.260519   0.000000
     16         14.725418   0.000000
     17         15.568374   0.000000
     18         16.095833   0.000000
     19         18.374548   0.000000
     20         19.169553   0.000000
     21         19.899212   0.000000
     22         21.423866   0.000000
     23         22.368352   0.000000
     24         22.685818   0.000000
     25         23.496495   0.000000
     26         25.687559   0.000000
     27         26.210819   0.000000
     28         26.578478   0.000000
     29         27.235814   0.000000
     30         28.086438   0.000000
     31         29.679728   0.000000
     32         30.508452   0.000000
     33         30.881699   0.000000
     34         32.053498   0.000000
     35         32.826474   0.000000
     36         33.802308   0.000000
 
 -0.4666667E+00  0.3333333E+00  0.2000000E+00  0.3555556E-02
      1        -19.138047   1.000000
      2        -19.135516   1.000000
      3        -19.127751   1.000000
      4        -19.126626   1.000000
      5        -19.122473   1.000000
      6         -5.835219   1.000000
      7         -2.292115   1.000000
      8          1.541361   1.000000
      9          2.581756   1.000000
     10          5.044864   1.000000
     11          6.923757   0.000000
     12          9.211900   0.000000
     13         10.221796   0.000000
     14         11.481337   0.000000
     15         13.737641   0.000000
     16         14.694122   0.000000
     17         15.887284   0.000000
     18         17.094853   0.000000
     19         19.411626   0.000000
     20         19.754315   0.000000
     21         20.528852   0.000000
     22         21.299542   0.000000
     23         21.418519   0.000000
     24         23.221187   0.000000
     25         23.681855   0.000000
     26         24.569207   0.000000
     27         25.362427   0.000000
     28         25.908881   0.000000
     29         26.939145   0.000000
     30         27.796708   0.000000
     31         29.108642   0.000000
     32         29.663224   0.000000
     33         30.800458   0.000000
     34         31.365278   0.000000
     35         32.662685   0.000000
     36         33.336383   0.000000
 
 -0.4000000E+00  0.3333333E+00  0.2000000E+00  0.3555556E-02
      1        -19.138251   1.000000
      2        -19.135177   1.000000
      3        -19.127854   1.000000
      4        -19.126773   1.000000
      5        -19.122170   1.000000
      6         -5.574450   1.000000
      7         -2.522997   1.000000
      8          1.323746   1.000000
      9          2.207437   1.000000
     10          5.088482   1.000000
     11          6.759745   0.000000
     12          9.569776   0.000000
     13         10.548237   0.000000
     14         11.753359   0.000000
     15         12.704402   0.000000
     16         15.422346   0.000000
     17         16.668642   0.000000
     18         18.104303   0.000000
     19         18.996859   0.000000
     20         19.811257   0.000000
     21         20.743543   0.000000
     22         21.242317   0.000000
     23         22.520772   0.000000
     24         23.145686   0.000000
     25         23.459362   0.000000
     26         23.726429   0.000000
     27         24.678187   0.000000
     28         26.358654   0.000000
     29         27.129354   0.000000
     30         27.439670   0.000000
     31         28.011248   0.000000
     32         28.955167   0.000000
     33         29.810702   0.000000
     34         30.836413   0.000000
     35         32.536594   0.000000
     36         32.993399   0.000000
 
 -0.3333333E+00  0.3333333E+00  0.2000000E+00  0.3555556E-02
      1        -19.138439   1.000000
      2        -19.134829   1.000000
      3        -19.128035   1.000000
      4        -19.126857   1.000000
      5        -19.121952   1.000000
      6         -5.404757   1.000000
      7         -2.669518   1.000000
      8          1.322456   1.000000
      9          1.951205   1.000000
     10          4.880305   1.000000
     11          6.860085   0.000000
     12          9.763479   0.000000
     13         10.454733   0.000000
     14         11.858693   0.000000
     15         12.512556   0.000000
     16         16.318682   0.000000
     17         16.997778   0.000000
     18         18.412794   0.000000
     19         18.682557   0.000000
     20         19.680055   0.000000
     21         21.062252   0.000000
     22         21.327628   0.000000
     23         22.057789   0.000000
     24         22.737318   0.000000
     25         23.505352   0.000000
     26         24.374390   0.000000
     27         25.201153   0.000000
     28         26.208318   0.000000
     29         26.587732   0.000000
     30         27.399038   0.000000
     31         27.734554   0.000000
     32         28.714568   0.000000
     33         29.199991   0.000000
     34         30.222112   0.000000
     35         32.240866   0.000000
     36         33.456247   0.000000
 
 -0.2666667E+00  0.3333333E+00  0.2000000E+00  0.3555556E-02
      1        -19.138552   1.000000
      2        -19.134533   1.000000
      3        -19.128274   1.000000
      4        -19.126871   1.000000
      5        -19.121850   1.000000
      6         -5.405151   1.000000
      7         -2.634824   1.000000
      8          1.486023   1.000000
      9          1.858179   1.000000
     10          4.516598   1.000000
     11          7.138997   0.000000
     12          9.716077   0.000000
     13         10.136483   0.000000
     14         11.431441   0.000000
     15         13.519701   0.000000
     16         16.151191   0.000000
     17         16.943357   0.000000
     18         18.291941   0.000000
     19         18.932732   0.000000
     20         20.286587   0.000000
     21         20.483370   0.000000
     22         20.762442   0.000000
     23         21.960324   0.000000
     24         22.897771   0.000000
     25         24.237745   0.000000
     26         24.539319   0.000000
     27         24.893342   0.000000
     28         25.610887   0.000000
     29         26.626683   0.000000
     30         27.347383   0.000000
     31         28.279214   0.000000
     32         28.938659   0.000000
     33         29.680345   0.000000
     34         30.283101   0.000000
     35         32.237061   0.000000
     36         33.483866   0.000000
 
 -0.2000000E+00  0.3333333E+00  0.2000000E+00  0.3555556E-02
      1        -19.138544   1.000000
      2        -19.134366   1.000000
      3        -19.128487   1.000000
      4        -19.126865   1.000000
      5        -19.121877   1.000000
      6         -5.575766   1.000000
      7         -2.408502   1.000000
      8          1.671640   1.000000
      9          2.052398   1.000000
     10          4.094478   1.000000
     11          7.512663   0.000000
     12          9.497717   0.000000
     13          9.738647   0.000000
     14         11.246668   0.000000
     15         14.625380   0.000000
     16         15.303493   0.000000
     17         16.467993   0.000000
     18         18.121485   0.000000
     19         19.065171   0.000000
     20         19.678710   0.000000
     21         20.404891   0.000000
     22         21.120857   0.000000
     23         22.330679   0.000000
     24         22.848801   0.000000
     25         23.953230   0.000000
     26         24.137948   0.000000
     27         25.353577   0.000000
     28         25.717939   0.000000
     29         26.674074   0.000000
     30         27.546905   0.000000
     31         28.535560   0.000000
     32         30.164451   0.000000
     33         30.836640   0.000000
     34         31.206575   0.000000
     35         32.249147   0.000000
     36         33.063083   0.000000
 
  0.4000000E+00  0.4000000E+00  0.2000000E+00  0.1777778E-02
      1        -19.138017   1.000000
      2        -19.135757   1.000000
      3        -19.127746   1.000000
      4        -19.126252   1.000000
      5        -19.122948   1.000000
      6         -6.210396   1.000000
      7         -1.955738   1.000000
      8          2.394705   1.000000
      9          3.174546   1.000000
     10          4.038035   1.000000
     11          8.340164   0.000000
     12          8.848905   0.000000
     13          9.060426   0.000000
     14         10.723269   0.000000
     15         14.853230   0.000000
     16         15.368031   0.000000
     17         15.825108   0.000000
     18         16.075574   0.000000
     19         17.491170   0.000000
     20         17.674823   0.000000
     21         19.064679   0.000000
     22         21.495010   0.000000
     23         22.578585   0.000000
     24         22.975588   0.000000
     25         24.106267   0.000000
     26         24.865347   0.000000
     27         27.077988   0.000000
     28         27.168105   0.000000
     29         28.005407   0.000000
     30         28.595173   0.000000
     31         29.599762   0.000000
     32         29.814811   0.000000
     33         30.103834   0.000000
     34         32.833166   0.000000
     35         33.568939   0.000000
     36         34.003165   0.000000
 
  0.4666667E+00  0.4000000E+00  0.2000000E+00  0.3555556E-02
      1        -19.138258   1.000000
      2        -19.135513   1.000000
      3        -19.127885   1.000000
      4        -19.126220   1.000000
      5        -19.122678   1.000000
      6         -6.012124   1.000000
      7         -2.078964   1.000000
      8          1.906697   1.000000
      9          2.772583   1.000000
     10          4.069232   1.000000
     11          8.155909   0.000000
     12          9.323241   0.000000
     13          9.568118   0.000000
     14         10.925146   0.000000
     15         15.118291   0.000000
     16         15.302836   0.000000
     17         15.942382   0.000000
     18         16.524462   0.000000
     19         17.535837   0.000000
     20         18.070081   0.000000
     21         19.992839   0.000000
     22         20.693131   0.000000
     23         22.523803   0.000000
     24         23.022908   0.000000
     25         23.975384   0.000000
     26         24.830585   0.000000
     27         26.043935   0.000000
     28         26.721577   0.000000
     29         27.323384   0.000000
     30         28.150130   0.000000
     31         28.624582   0.000000
     32         29.782074   0.000000
     33         31.147027   0.000000
     34         31.918295   0.000000
     35         32.767449   0.000000
     36         34.260632   0.000000
 
 -0.4666667E+00  0.4000000E+00  0.2000000E+00  0.3555556E-02
      1        -19.138379   1.000000
      2        -19.135316   1.000000
      3        -19.127971   1.000000
      4        -19.126320   1.000000
      5        -19.122383   1.000000
      6         -5.780023   1.000000
      7         -2.217466   1.000000
      8          1.490664   1.000000
      9          2.193557   1.000000
     10          4.442108   1.000000
     11          7.694566   0.000000
     12          9.715813   0.000000
     13         10.131744   0.000000
     14         11.355289   0.000000
     15         14.130762   0.000000
     16         15.356682   0.000000
     17         16.327334   0.000000
     18         17.438362   0.000000
     19         18.271278   0.000000
     20         18.861224   0.000000
     21         19.885701   0.000000
     22         21.060628   0.000000
     23         21.448292   0.000000
     24         23.285126   0.000000
     25         24.210726   0.000000
     26         24.940411   0.000000
     27         25.094001   0.000000
     28         26.058487   0.000000
     29         27.138896   0.000000
     30         27.395608   0.000000
     31         28.079818   0.000000
     32         30.203215   0.000000
     33         30.733220   0.000000
     34         31.165510   0.000000
     35         32.598661   0.000000
     36         32.852107   0.000000
 
 -0.4000000E+00  0.4000000E+00  0.2000000E+00  0.3555556E-02
      1        -19.138412   1.000000
      2        -19.135147   1.000000
      3        -19.128016   1.000000
      4        -19.126514   1.000000
      5        -19.122111   1.000000
      6         -5.548107   1.000000
      7         -2.371099   1.000000
      8          1.242064   1.000000
      9          1.712452   1.000000
     10          4.796934   1.000000
     11          7.242967   0.000000
     12         10.166489   0.000000
     13         10.541704   0.000000
     14         11.604184   0.000000
     15         13.142663   0.000000
     16         15.786070   0.000000
     17         16.909270   0.000000
     18         18.203836   0.000000
     19         18.659425   0.000000
     20         19.200582   0.000000
     21         19.903892   0.000000
     22         20.581375   0.000000
     23         22.443175   0.000000
     24         22.958804   0.000000
     25         23.675865   0.000000
     26         24.514295   0.000000
     27         25.192521   0.000000
     28         25.649625   0.000000
     29         27.057615   0.000000
     30         27.470626   0.000000
     31         28.046364   0.000000
     32         29.220161   0.000000
     33         30.007800   0.000000
     34         30.641987   0.000000
     35         31.676502   0.000000
     36         32.945086   0.000000
 
 -0.3333333E+00  0.4000000E+00  0.2000000E+00  0.3555556E-02
      1        -19.138404   1.000000
      2        -19.134982   1.000000
      3        -19.128063   1.000000
      4        -19.126727   1.000000
      5        -19.121901   1.000000
      6         -5.368596   1.000000
      7         -2.511554   1.000000
      8          1.197167   1.000000
      9          1.389445   1.000000
     10          4.985322   1.000000
     11          6.920484   0.000000
     12         10.551445   0.000000
     13         10.739921   0.000000
     14         11.722389   0.000000
     15         12.454080   0.000000
     16         16.550128   0.000000
     17         17.110843   0.000000
     18         18.093091   0.000000
     19         18.537768   0.000000
     20         19.723796   0.000000
     21         20.435154   0.000000
     22         21.170742   0.000000
     23         21.600131   0.000000
     24         23.002341   0.000000
     25         23.902603   0.000000
     26         24.479289   0.000000
     27         24.860846   0.000000
     28         25.780613   0.000000
     29         27.278787   0.000000
     30         27.615485   0.000000
     31         27.873986   0.000000
     32         28.389392   0.000000
     33         29.286691   0.000000
     34         30.072391   0.000000
     35         31.158053   0.000000
     36         33.079403   0.000000
 
 -0.2666667E+00  0.4000000E+00  0.2000000E+00  0.3555556E-02
      1        -19.138379   1.000000
      2        -19.134819   1.000000
      3        -19.128176   1.000000
      4        -19.126870   1.000000
      5        -19.121782   1.000000
      6         -5.303414   1.000000
      7         -2.578033   1.000000
      8          1.220772   1.000000
      9          1.382305   1.000000
     10          4.869766   1.000000
     11          6.876228   0.000000
     12         10.375850   0.000000
     13         10.718618   0.000000
     14         11.965412   0.000000
     15         12.420938   0.000000
     16         16.397689   0.000000
     17         17.024684   0.000000
     18         18.205838   0.000000
     19         18.906187   0.000000
     20         19.717747   0.000000
     21         21.041445   0.000000
     22         21.314660   0.000000
     23         21.579768   0.000000
     24         22.800857   0.000000
     25         23.789397   0.000000
     26         24.492000   0.000000
     27         25.443335   0.000000
     28         25.772944   0.000000
     29         26.394078   0.000000
     30         27.137689   0.000000
     31         28.148078   0.000000
     32         28.793504   0.000000
     33         29.500721   0.000000
     34         30.252162   0.000000
     35         30.556303   0.000000
     36         33.226412   0.000000
 
 -0.2000000E+00  0.4000000E+00  0.2000000E+00  0.3555556E-02
      1        -19.138326   1.000000
      2        -19.134689   1.000000
      3        -19.128338   1.000000
      4        -19.126923   1.000000
      5        -19.121765   1.000000
      6         -5.383251   1.000000
      7         -2.527380   1.000000
      8          1.258153   1.000000
      9          1.734580   1.000000
     10          4.477526   1.000000
     11          7.113859   0.000000
     12         10.037731   0.000000
     13         10.368549   0.000000
     14         11.647905   0.000000
     15         13.404479   0.000000
     16         15.777440   0.000000
     17         16.586306   0.000000
     18         18.602786   0.000000
     19         18.849917   0.000000
     20         19.758865   0.000000
     21         20.543699   0.000000
     22         21.453400   0.000000
     23         22.599765   0.000000
     24         23.007645   0.000000
     25         24.058286   0.000000
     26         24.405419   0.000000
     27         24.883277   0.000000
     28         25.354305   0.000000
     29         26.019732   0.000000
     30         27.769464   0.000000
     31         28.280175   0.000000
     32         29.149993   0.000000
     33         30.240583   0.000000
     34         30.547093   0.000000
     35         31.387822   0.000000
     36         32.807352   0.000000
 
  0.4666667E+00  0.4666667E+00  0.2000000E+00  0.1777778E-02
      1        -19.138601   1.000000
      2        -19.135204   1.000000
      3        -19.128069   1.000000
      4        -19.126089   1.000000
      5        -19.122470   1.000000
      6         -5.865604   1.000000
      7         -2.123611   1.000000
      8          1.502724   1.000000
      9          2.900960   1.000000
     10          3.460630   1.000000
     11          8.649930   0.000000
     12          9.240817   0.000000
     13         10.215830   0.000000
     14         10.825933   0.000000
     15         15.458993   0.000000
     16         15.926757   0.000000
     17         16.385046   0.000000
     18         16.616715   0.000000
     19         17.452406   0.000000
     20         17.632116   0.000000
     21         19.802113   0.000000
     22         20.599752   0.000000
     23         22.811425   0.000000
     24         22.821029   0.000000
     25         23.321223   0.000000
     26         25.094658   0.000000
     27         25.946228   0.000000
     28         26.004701   0.000000
     29         26.994534   0.000000
     30         27.532015   0.000000
     31         29.337751   0.000000
     32         29.999554   0.000000
     33         30.199028   0.000000
     34         30.942473   0.000000
     35         33.510942   0.000000
     36         34.563916   0.000000
 
 -0.4666667E+00  0.4666667E+00  0.2000000E+00  0.3555556E-02
      1        -19.138779   1.000000
      2        -19.134975   1.000000
      3        -19.128190   1.000000
      4        -19.126112   1.000000
      5        -19.122236   1.000000
      6         -5.688015   1.000000
      7         -2.186327   1.000000
      8          1.132787   1.000000
      9          2.400411   1.000000
     10          3.710235   1.000000
     11          8.428344   0.000000
     12          9.409894   0.000000
     13         10.813874   0.000000
     14         11.167554   0.000000
     15         14.662622   0.000000
     16         15.998112   0.000000
     17         16.800156   0.000000
     18         17.225421   0.000000
     19         17.939263   0.000000
     20         18.407993   0.000000
     21         19.173523   0.000000
     22         21.210973   0.000000
     23         21.733692   0.000000
     24         23.129838   0.000000
     25         23.328704   0.000000
     26         24.244644   0.000000
     27         25.629612   0.000000
     28         26.311648   0.000000
     29         26.810073   0.000000
     30         27.402402   0.000000
     31         28.819093   0.000000
     32         29.458060   0.000000
     33         30.104190   0.000000
     34         31.445971   0.000000
     35         32.674737   0.000000
     36         33.757370   0.000000
 
 -0.4000000E+00  0.4666667E+00  0.2000000E+00  0.3555556E-02
      1        -19.138770   1.000000
      2        -19.134866   1.000000
      3        -19.128235   1.000000
      4        -19.126280   1.000000
      5        -19.122014   1.000000
      6         -5.504533   1.000000
      7         -2.273047   1.000000
      8          0.918784   1.000000
      9          1.812036   1.000000
     10          4.185814   1.000000
     11          7.967666   0.000000
     12          9.643233   0.000000
     13         11.283219   0.000000
     14         11.555511   0.000000
     15         13.708426   0.000000
     16         16.064980   0.000000
     17         17.347666   0.000000
     18         17.797471   0.000000
     19         18.159532   0.000000
     20         19.283364   0.000000
     21         19.601320   0.000000
     22         20.142780   0.000000
     23         22.190641   0.000000
     24         22.951237   0.000000
     25         23.386063   0.000000
     26         23.893455   0.000000
     27         25.485287   0.000000
     28         26.044897   0.000000
     29         26.945564   0.000000
     30         27.203343   0.000000
     31         28.477419   0.000000
     32         29.032673   0.000000
     33         30.504085   0.000000
     34         30.764214   0.000000
     35         31.980997   0.000000
     36         32.778227   0.000000
 
 -0.3333333E+00  0.4666667E+00  0.2000000E+00  0.3555556E-02
      1        -19.138602   1.000000
      2        -19.134858   1.000000
      3        -19.128216   1.000000
      4        -19.126540   1.000000
      5        -19.121839   1.000000
      6         -5.349071   1.000000
      7         -2.386060   1.000000
      8          0.889861   1.000000
      9          1.389256   1.000000
     10          4.608199   1.000000
     11          7.425295   0.000000
     12         10.116270   0.000000
     13         11.332672   0.000000
     14         11.760589   0.000000
     15         12.983499   0.000000
     16         16.416582   0.000000
     17         17.244619   0.000000
     18         18.127042   0.000000
     19         18.623461   0.000000
     20         19.189430   0.000000
     21         20.442819   0.000000
     22         20.765085   0.000000
     23         21.048642   0.000000
     24         23.271058   0.000000
     25         23.664615   0.000000
     26         24.595516   0.000000
     27         25.125931   0.000000
     28         25.656422   0.000000
     29         26.351605   0.000000
     30         27.540810   0.000000
     31         28.421673   0.000000
     32         29.179601   0.000000
     33         29.407162   0.000000
     34         30.257992   0.000000
     35         31.337022   0.000000
     36         32.785336   0.000000
 
 -0.2666667E+00  0.4666667E+00  0.2000000E+00  0.3555556E-02
      1        -19.138356   1.000000
      2        -19.134905   1.000000
      3        -19.128186   1.000000
      4        -19.126814   1.000000
      5        -19.121734   1.000000
      6         -5.260062   1.000000
      7         -2.506193   1.000000
      8          0.968833   1.000000
      9          1.268284   1.000000
     10          4.845660   1.000000
     11          6.976387   0.000000
     12         10.703465   0.000000
     13         11.053974   0.000000
     14         11.802454   0.000000
     15         12.423561   0.000000
     16         16.876659   0.000000
     17         16.972617   0.000000
     18         17.620786   0.000000
     19         19.106034   0.000000
     20         19.325685   0.000000
     21         20.624162   0.000000
     22         21.565353   0.000000
     23         21.910549   0.000000
     24         23.048531   0.000000
     25         23.555435   0.000000
     26         24.247450   0.000000
     27         24.962937   0.000000
     28         26.066444   0.000000
     29         26.834187   0.000000
     30         27.429164   0.000000
     31         28.010970   0.000000
     32         28.432993   0.000000
     33         28.803799   0.000000
     34         30.697840   0.000000
     35         30.935597   0.000000
     36         32.456359   0.000000
 
 -0.2000000E+00  0.4666667E+00  0.2000000E+00  0.3555556E-02
      1        -19.138119   1.000000
      2        -19.134952   1.000000
      3        -19.128208   1.000000
      4        -19.127004   1.000000
      5        -19.121707   1.000000
      6         -5.266748   1.000000
      7         -2.596271   1.000000
      8          1.028469   1.000000
      9          1.579353   1.000000
     10          4.718101   1.000000
     11          6.858594   0.000000
     12         10.639809   0.000000
     13         10.813737   0.000000
     14         11.808235   0.000000
     15         12.350909   0.000000
     16         16.459349   0.000000
     17         16.973217   0.000000
     18         17.748141   0.000000
     19         18.242454   0.000000
     20         20.370592   0.000000
     21         21.258139   0.000000
     22         22.051170   0.000000
     23         22.396794   0.000000
     24         22.841872   0.000000
     25         23.558049   0.000000
     26         24.319806   0.000000
     27         24.958270   0.000000
     28         25.595500   0.000000
     29         26.611373   0.000000
     30         27.186354   0.000000
     31         28.141360   0.000000
     32         28.771073   0.000000
     33         29.362953   0.000000
     34         30.101910   0.000000
     35         30.884977   0.000000
     36         32.740477   0.000000
 
 -0.4666667E+00 -0.4666667E+00  0.2000000E+00  0.1777778E-02
      1        -19.139066   1.000000
      2        -19.134675   1.000000
      3        -19.128357   1.000000
      4        -19.126047   1.000000
      5        -19.122069   1.000000
      6         -5.572998   1.000000
      7         -2.193689   1.000000
      8          0.802174   1.000000
      9          2.716260   1.000000
     10          3.126425   1.000000
     11          8.621894   0.000000
     12          9.519729   0.000000
     13         10.812500   0.000000
     14         11.579962   0.000000
     15         15.068910   0.000000
     16         15.769749   0.000000
     17         16.813614   0.000000
     18         17.378591   0.000000
     19         18.375144   0.000000
     20         18.661861   0.000000
     21         18.999309   0.000000
     22         21.468433   0.000000
     23         21.653131   0.000000
     24         22.407260   0.000000
     25         23.138482   0.000000
     26         24.056987   0.000000
     27         24.298435   0.000000
     28         26.933110   0.000000
     29         26.964611   0.000000
     30         27.825219   0.000000
     31         28.461200   0.000000
     32         29.618866   0.000000
     33         30.236954   0.000000
     34         30.632026   0.000000
     35         33.115455   0.000000
     36         33.996073   0.000000
 
 -0.4000000E+00 -0.4666667E+00  0.2000000E+00  0.3555556E-02
      1        -19.139125   1.000000
      2        -19.134514   1.000000
      3        -19.128436   1.000000
      4        -19.126137   1.000000
      5        -19.121909   1.000000
      6         -5.453583   1.000000
      7         -2.240391   1.000000
      8          0.645239   1.000000
      9          2.220568   1.000000
     10          3.506058   1.000000
     11          8.472201   0.000000
     12          9.454995   0.000000
     13         11.152395   0.000000
     14         11.872536   0.000000
     15         14.345907   0.000000
     16         16.320038   0.000000
     17         16.656628   0.000000
     18         17.591845   0.000000
     19         18.862325   0.000000
     20         19.067679   0.000000
     21         19.987473   0.000000
     22         20.234479   0.000000
     23         21.837706   0.000000
     24         22.222866   0.000000
     25         23.172419   0.000000
     26         23.671091   0.000000
     27         24.299925   0.000000
     28         26.574298   0.000000
     29         27.172053   0.000000
     30         27.670785   0.000000
     31         28.419177   0.000000
     32         29.418305   0.000000
     33         30.106634   0.000000
     34         31.578533   0.000000
     35         32.339737   0.000000
     36         32.819164   0.000000
 
 -0.3333333E+00 -0.4666667E+00  0.2000000E+00  0.3555556E-02
      1        -19.138945   1.000000
      2        -19.134530   1.000000
      3        -19.128418   1.000000
      4        -19.126367   1.000000
      5        -19.121787   1.000000
      6         -5.350915   1.000000
      7         -2.328454   1.000000
      8          0.689331   1.000000
      9          1.700390   1.000000
     10          4.044457   1.000000
     11          8.004167   0.000000
     12          9.573380   0.000000
     13         11.582391   0.000000
     14         11.808340   0.000000
     15         13.543306   0.000000
     16         16.458395   0.000000
     17         17.061221   0.000000
     18         17.906320   0.000000
     19         18.705791   0.000000
     20         19.714715   0.000000
     21         20.119389   0.000000
     22         20.639854   0.000000
     23         21.175197   0.000000
     24         22.209782   0.000000
     25         23.243836   0.000000
     26         24.529846   0.000000
     27         24.876036   0.000000
     28         25.888537   0.000000
     29         26.796500   0.000000
     30         27.269639   0.000000
     31         27.991608   0.000000
     32         30.001359   0.000000
     33         30.375013   0.000000
     34         30.879241   0.000000
     35         31.838954   0.000000
     36         32.314389   0.000000
 
 -0.2666667E+00 -0.4666667E+00  0.2000000E+00  0.3555556E-02
      1        -19.138571   1.000000
      2        -19.134700   1.000000
      3        -19.128326   1.000000
      4        -19.126684   1.000000
      5        -19.121718   1.000000
      6         -5.284336   1.000000
      7         -2.452299   1.000000
      8          0.889634   1.000000
      9          1.406288   1.000000
     10          4.501732   1.000000
     11          7.358425   0.000000
     12         10.059057   0.000000
     13         11.413031   0.000000
     14         11.789947   0.000000
     15         12.869289   0.000000
     16         16.505338   0.000000
     17         17.300420   0.000000
     18         17.741668   0.000000
     19         18.987197   0.000000
     20         19.200534   0.000000
     21         20.750454   0.000000
     22         21.139190   0.000000
     23         21.921370   0.000000
     24         22.562224   0.000000
     25         23.323268   0.000000
     26         24.820433   0.000000
     27         25.204954   0.000000
     28         25.853471   0.000000
     29         25.985490   0.000000
     30         27.138948   0.000000
     31         28.407676   0.000000
     32         29.115754   0.000000
     33         29.760430   0.000000
     34         30.644121   0.000000
     35         31.090725   0.000000
     36         32.663113   0.000000
 
 -0.4000000E+00 -0.4000000E+00  0.2000000E+00  0.1777778E-02
      1        -19.139304   1.000000
      2        -19.134261   1.000000
      3        -19.128562   1.000000
      4        -19.126135   1.000000
      5        -19.121818   1.000000
      6         -5.407938   1.000000
      7         -2.266257   1.000000
      8          0.571192   1.000000
      9          2.634999   1.000000
     10          2.969440   1.000000
     11          8.531385   0.000000
     12          9.582414   0.000000
     13         10.842622   0.000000
     14         12.010959   0.000000
     15         14.828395   0.000000
     16         15.770159   0.000000
     17         17.102162   0.000000
     18         17.451301   0.000000
     19         18.816388   0.000000
     20         19.817845   0.000000
     21         20.347972   0.000000
     22         20.577329   0.000000
     23         20.913588   0.000000
     24         22.179216   0.000000
     25         22.634576   0.000000
     26         23.435298   0.000000
     27         24.198547   0.000000
     28         26.468630   0.000000
     29         27.034146   0.000000
     30         27.626504   0.000000
     31         29.043142   0.000000
     32         30.183762   0.000000
     33         30.379650   0.000000
     34         30.553898   0.000000
     35         31.969970   0.000000
     36         33.875731   0.000000
 
 -0.3333333E+00 -0.4000000E+00  0.2000000E+00  0.3555556E-02
      1        -19.139215   1.000000
      2        -19.134203   1.000000
      3        -19.128586   1.000000
      4        -19.126289   1.000000
      5        -19.121758   1.000000
      6         -5.378796   1.000000
      7         -2.331143   1.000000
      8          0.706715   1.000000
      9          2.183648   1.000000
     10          3.434366   1.000000
     11          8.380151   0.000000
     12          9.390728   0.000000
     13         11.077469   0.000000
     14         11.717093   0.000000
     15         14.381740   0.000000
     16         16.354351   0.000000
     17         16.949687   0.000000
     18         17.781234   0.000000
     19         19.011360   0.000000
     20         19.453700   0.000000
     21         20.443996   0.000000
     22         20.743612   0.000000
     23         21.261236   0.000000
     24         21.927654   0.000000
     25         22.885905   0.000000
     26         23.401504   0.000000
     27         24.859990   0.000000
     28         25.982781   0.000000
     29         26.725254   0.000000
     30         28.081598   0.000000
     31         28.785811   0.000000
     32         29.677521   0.000000
     33         29.990727   0.000000
     34         31.671999   0.000000
     35         32.133623   0.000000
     36         32.851702   0.000000
 
 -0.2666667E+00 -0.4000000E+00  0.2000000E+00  0.3555556E-02
      1        -19.138863   1.000000
      2        -19.134360   1.000000
      3        -19.128504   1.000000
      4        -19.126572   1.000000
      5        -19.121741   1.000000
      6         -5.371419   1.000000
      7         -2.418509   1.000000
      8          1.011665   1.000000
      9          1.755133   1.000000
     10          4.015648   1.000000
     11          7.818621   0.000000
     12          9.518333   0.000000
     13         11.115538   0.000000
     14         11.476986   0.000000
     15         13.828549   0.000000
     16         16.182858   0.000000
     17         17.183745   0.000000
     18         18.212694   0.000000
     19         18.703891   0.000000
     20         19.582238   0.000000
     21         20.142706   0.000000
     22         20.918023   0.000000
     23         21.882107   0.000000
     24         22.683072   0.000000
     25         23.246124   0.000000
     26         24.084321   0.000000
     27         24.702111   0.000000
     28         25.963298   0.000000
     29         26.787599   0.000000
     30         27.316989   0.000000
     31         28.790950   0.000000
     32         29.085110   0.000000
     33         30.572896   0.000000
     34         30.839533   0.000000
     35         31.837760   0.000000
     36         33.052509   0.000000
 
 -0.3333333E+00 -0.3333333E+00  0.2000000E+00  0.1777778E-02
      1        -19.139260   1.000000
      2        -19.134028   1.000000
      3        -19.128665   1.000000
      4        -19.126353   1.000000
      5        -19.121763   1.000000
      6         -5.432438   1.000000
      7         -2.357489   1.000000
      8          0.922725   1.000000
      9          2.662105   1.000000
     10          2.963394   1.000000
     11          8.439397   0.000000
     12          9.413361   0.000000
     13         10.658800   0.000000
     14         11.218984   0.000000
     15         15.165465   0.000000
     16         16.133130   0.000000
     17         17.154016   0.000000
     18         17.431026   0.000000
     19         19.208159   0.000000
     20         19.239323   0.000000
     21         19.835791   0.000000
     22         21.298111   0.000000
     23         21.633302   0.000000
     24         22.179835   0.000000
     25         23.045131   0.000000
     26         23.059922   0.000000
     27         24.228595   0.000000
     28         26.319782   0.000000
     29         27.193798   0.000000
     30         28.381047   0.000000
     31         28.676446   0.000000
     32         29.543157   0.000000
     33         30.364003   0.000000
     34         30.783875   0.000000
     35         32.872943   0.000000
     36         34.185985   0.000000
 
 -0.2666667E+00 -0.3333333E+00  0.2000000E+00  0.3555556E-02
      1        -19.139025   1.000000
      2        -19.134086   1.000000
      3        -19.128630   1.000000
      4        -19.126558   1.000000
      5        -19.121807   1.000000
      6         -5.503211   1.000000
      7         -2.381794   1.000000
      8          1.298198   1.000000
      9          2.278539   1.000000
     10          3.487081   1.000000
     11          8.198836   0.000000
     12          9.245518   0.000000
     13         10.502032   0.000000
     14         10.884016   0.000000
     15         15.003894   0.000000
     16         16.125654   0.000000
     17         16.951789   0.000000
     18         17.718069   0.000000
     19         18.471943   0.000000
     20         19.674279   0.000000
     21         20.156488   0.000000
     22         20.806957   0.000000
     23         22.281415   0.000000
     24         22.662575   0.000000
     25         23.274257   0.000000
     26         23.562406   0.000000
     27         24.205974   0.000000
     28         26.805816   0.000000
     29         27.257030   0.000000
     30         27.415331   0.000000
     31         29.056610   0.000000
     32         29.348791   0.000000
     33         30.138815   0.000000
     34         31.720372   0.000000
     35         32.571122   0.000000
     36         33.682727   0.000000
 
 -0.2666667E+00 -0.2666667E+00  0.2000000E+00  0.1777778E-02
      1        -19.138944   1.000000
      2        -19.134005   1.000000
      3        -19.128654   1.000000
      4        -19.126671   1.000000
      5        -19.121909   1.000000
      6         -5.652987   1.000000
      7         -2.326602   1.000000
      8          1.716537   1.000000
      9          2.794556   1.000000
     10          3.101385   1.000000
     11          8.335084   0.000000
     12          9.099790   0.000000
     13          9.789130   0.000000
     14         10.488934   0.000000
     15         15.850294   0.000000
     16         16.171454   0.000000
     17         16.322763   0.000000
     18         17.337672   0.000000
     19         18.099640   0.000000
     20         19.154347   0.000000
     21         20.868666   0.000000
     22         21.732916   0.000000
     23         21.927186   0.000000
     24         22.232257   0.000000
     25         22.709618   0.000000
     26         24.378498   0.000000
     27         25.013597   0.000000
     28         26.217327   0.000000
     29         27.434200   0.000000
     30         27.955713   0.000000
     31         29.660751   0.000000
     32         30.206417   0.000000
     33         30.226848   0.000000
     34         30.717381   0.000000
     35         33.672104   0.000000
     36         33.999988   0.000000
 
  0.2666667E+00  0.2666667E+00  0.2666667E+00  0.5925926E-03
      1        -19.136832   1.000000
      2        -19.136832   1.000000
      3        -19.126901   1.000000
      4        -19.126901   1.000000
      5        -19.123813   1.000000
      6         -6.771205   1.000000
      7         -1.453717   1.000000
      8          4.181755   1.000000
      9          4.181755   1.000000
     10          4.938329   1.000000
     11          7.455913   0.000000
     12          7.455913   0.000000
     13          7.694615   0.000000
     14         11.619158   0.000000
     15         12.769998   0.000000
     16         12.769998   0.000000
     17         16.326318   0.000000
     18         16.326318   0.000000
     19         16.372046   0.000000
     20         16.756843   0.000000
     21         20.065276   0.000000
     22         20.065276   0.000000
     23         20.783513   0.000000
     24         26.248941   0.000000
     25         26.248941   0.000000
     26         28.232841   0.000000
     27         28.423006   0.000000
     28         29.236882   0.000000
     29         29.236882   0.000000
     30         29.527570   0.000000
     31         29.527570   0.000000
     32         29.677222   0.000000
     33         31.089969   0.000000
     34         33.140700   0.000000
     35         33.140700   0.000000
     36         34.372787   0.000000
 
  0.3333333E+00  0.2666667E+00  0.2666667E+00  0.1777778E-02
      1        -19.136888   1.000000
      2        -19.136880   1.000000
      3        -19.126967   1.000000
      4        -19.126748   1.000000
      5        -19.123681   1.000000
      6         -6.649774   1.000000
      7         -1.678845   1.000000
      8          3.507046   1.000000
      9          4.401602   1.000000
     10          5.372919   1.000000
     11          6.982216   0.000000
     12          6.992141   0.000000
     13          8.434453   0.000000
     14         11.688791   0.000000
     15         12.613595   0.000000
     16         13.636558   0.000000
     17         15.609986   0.000000
     18         16.962295   0.000000
     19         17.273995   0.000000
     20         17.423344   0.000000
     21         18.985321   0.000000
     22         20.308373   0.000000
     23         20.894409   0.000000
     24         25.121722   0.000000
     25         26.052837   0.000000
     26         27.182201   0.000000
     27         27.998230   0.000000
     28         28.262592   0.000000
     29         29.200753   0.000000
     30         29.205060   0.000000
     31         30.155228   0.000000
     32         30.633123   0.000000
     33         31.877798   0.000000
     34         32.344978   0.000000
     35         32.704407   0.000000
     36         33.732165   0.000000
 
  0.4000000E+00  0.2666667E+00  0.2666667E+00  0.1777778E-02
      1        -19.137100   1.000000
      2        -19.136680   1.000000
      3        -19.127007   1.000000
      4        -19.126782   1.000000
      5        -19.123407   1.000000
      6         -6.455652   1.000000
      7         -1.902815   1.000000
      8          2.694496   1.000000
      9          4.381420   1.000000
     10          5.637494   1.000000
     11          6.724390   0.000000
     12          6.838354   0.000000
     13          9.278269   0.000000
     14         11.844503   0.000000
     15         12.641907   0.000000
     16         14.611951   0.000000
     17         15.108681   0.000000
     18         16.338859   0.000000
     19         18.146418   0.000000
     20         18.625496   0.000000
     21         19.213830   0.000000
     22         20.661295   0.000000
     23         21.251476   0.000000
     24         23.965012   0.000000
     25         25.304132   0.000000
     26         25.626407   0.000000
     27         26.759404   0.000000
     28         27.821219   0.000000
     29         29.272576   0.000000
     30         29.381888   0.000000
     31         30.349366   0.000000
     32         30.454293   0.000000
     33         31.120960   0.000000
     34         32.305545   0.000000
     35         32.784662   0.000000
     36         33.682470   0.000000
 
  0.4666667E+00  0.2666667E+00  0.2666667E+00  0.1777778E-02
      1        -19.137440   1.000000
      2        -19.136273   1.000000
      3        -19.127004   1.000000
      4        -19.126968   1.000000
      5        -19.123053   1.000000
      6         -6.201753   1.000000
      7         -2.132759   1.000000
      8          1.999428   1.000000
      9          4.120842   1.000000
     10          5.274710   1.000000
     11          7.017083   0.000000
     12          7.066685   0.000000
     13          9.991900   0.000000
     14         12.102396   0.000000
     15         12.876258   0.000000
     16         14.513270   0.000000
     17         15.374029   0.000000
     18         15.820154   0.000000
     19         19.360643   0.000000
     20         19.898381   0.000000
     21         20.105766   0.000000
     22         21.126640   0.000000
     23         21.669804   0.000000
     24         22.797685   0.000000
     25         24.114721   0.000000
     26         24.415130   0.000000
     27         25.540478   0.000000
     28         27.390560   0.000000
     29         28.664726   0.000000
     30         29.000921   0.000000
     31         29.698095   0.000000
     32         29.806476   0.000000
     33         31.102212   0.000000
     34         32.478009   0.000000
     35         33.107512   0.000000
     36         33.666140   0.000000
 
 -0.4666667E+00  0.2666667E+00  0.2666667E+00  0.1777778E-02
      1        -19.137864   1.000000
      2        -19.135736   1.000000
      3        -19.127269   1.000000
      4        -19.126954   1.000000
      5        -19.122675   1.000000
      6         -5.913208   1.000000
      7         -2.375131   1.000000
      8          1.501042   1.000000
      9          3.762827   1.000000
     10          4.758259   1.000000
     11          7.366784   0.000000
     12          7.511478   0.000000
     13         10.493414   0.000000
     14         12.385166   0.000000
     15         13.329726   0.000000
     16         13.476263   0.000000
     17         15.630893   0.000000
     18         16.871689   0.000000
     19         20.524362   0.000000
     20         20.996483   0.000000
     21         21.098686   0.000000
     22         21.526312   0.000000
     23         21.853345   0.000000
     24         21.938429   0.000000
     25         22.765651   0.000000
     26         23.717412   0.000000
     27         24.897824   0.000000
     28         26.584915   0.000000
     29         27.056214   0.000000
     30         27.884189   0.000000
     31         29.845757   0.000000
     32         30.076669   0.000000
     33         30.975772   0.000000
     34         31.777768   0.000000
     35         32.650378   0.000000
     36         33.340302   0.000000
 
 -0.4000000E+00  0.2666667E+00  0.2666667E+00  0.1777778E-02
      1        -19.138301   1.000000
      2        -19.135160   1.000000
      3        -19.127647   1.000000
      4        -19.126869   1.000000
      5        -19.122321   1.000000
      6         -5.638352   1.000000
      7         -2.603016   1.000000
      8          1.239340   1.000000
      9          3.414561   1.000000
     10          4.263702   1.000000
     11          7.778956   0.000000
     12          7.878935   0.000000
     13         10.633037   0.000000
     14         12.356247   0.000000
     15         12.925292   0.000000
     16         14.001093   0.000000
     17         16.519153   0.000000
     18         17.957755   0.000000
     19         20.242736   0.000000
     20         20.500754   0.000000
     21         21.349007   0.000000
     22         21.459437   0.000000
     23         22.151324   0.000000
     24         22.610738   0.000000
     25         23.028864   0.000000
     26         23.577925   0.000000
     27         24.866630   0.000000
     28         25.567573   0.000000
     29         25.785212   0.000000
     30         27.496491   0.000000
     31         28.668446   0.000000
     32         30.320431   0.000000
     33         30.615239   0.000000
     34         30.899930   0.000000
     35         32.877463   0.000000
     36         33.405811   0.000000
 
 -0.3333333E+00  0.2666667E+00  0.2666667E+00  0.1777778E-02
      1        -19.138672   1.000000
      2        -19.134627   1.000000
      3        -19.128038   1.000000
      4        -19.126776   1.000000
      5        -19.122044   1.000000
      6         -5.460821   1.000000
      7         -2.727328   1.000000
      8          1.212488   1.000000
      9          3.124875   1.000000
     10          3.817968   1.000000
     11          8.151260   0.000000
     12          8.212262   0.000000
     13         10.456217   0.000000
     14         11.425449   0.000000
     15         13.810022   0.000000
     16         14.870062   0.000000
     17         17.376191   0.000000
     18         18.946628   0.000000
     19         19.001786   0.000000
     20         19.829510   0.000000
     21         20.224804   0.000000
     22         21.383547   0.000000
     23         22.798279   0.000000
     24         22.830556   0.000000
     25         23.681394   0.000000
     26         24.269383   0.000000
     27         24.543971   0.000000
     28         25.059727   0.000000
     29         26.406119   0.000000
     30         26.800565   0.000000
     31         28.052330   0.000000
     32         29.202455   0.000000
     33         30.420574   0.000000
     34         31.051772   0.000000
     35         33.212291   0.000000
     36         33.587958   0.000000
 
 -0.2666667E+00  0.2666667E+00  0.2666667E+00  0.1777778E-02
      1        -19.138902   1.000000
      2        -19.134221   1.000000
      3        -19.128395   1.000000
      4        -19.126704   1.000000
      5        -19.121898   1.000000
      6         -5.467448   1.000000
      7         -2.638657   1.000000
      8          1.387511   1.000000
      9          2.915077   1.000000
     10          3.426337   1.000000
     11          8.311797   0.000000
     12          8.655404   0.000000
     13         10.146184   0.000000
     14         10.777682   0.000000
     15         14.879803   0.000000
     16         15.872133   0.000000
     17         17.220654   0.000000
     18         17.708720   0.000000
     19         19.121501   0.000000
     20         19.542730   0.000000
     21         20.106139   0.000000
     22         21.261350   0.000000
     23         22.467350   0.000000
     24         22.684547   0.000000
     25         23.654239   0.000000
     26         24.203360   0.000000
     27         24.337780   0.000000
     28         25.962104   0.000000
     29         26.809999   0.000000
     30         27.603472   0.000000
     31         28.253340   0.000000
     32         28.793636   0.000000
     33         30.349669   0.000000
     34         30.990257   0.000000
     35         33.345830   0.000000
     36         33.902926   0.000000
 
  0.3333333E+00  0.3333333E+00  0.2666667E+00  0.1777778E-02
      1        -19.137160   1.000000
      2        -19.136758   1.000000
      3        -19.126968   1.000000
      4        -19.126583   1.000000
      5        -19.123635   1.000000
      6         -6.564208   1.000000
      7         -1.877751   1.000000
      8          3.892347   1.000000
      9          3.892919   1.000000
     10          5.389287   1.000000
     11          6.644407   0.000000
     12          7.681766   0.000000
     13          7.990587   0.000000
     14         11.619180   0.000000
     15         13.184968   0.000000
     16         13.759895   0.000000
     17         16.422797   0.000000
     18         16.476130   0.000000
     19         17.628726   0.000000
     20         17.911996   0.000000
     21         18.632684   0.000000
     22         19.765900   0.000000
     23         20.916134   0.000000
     24         24.424427   0.000000
     25         25.922392   0.000000
     26         27.362127   0.000000
     27         27.383201   0.000000
     28         28.088008   0.000000
     29         28.776362   0.000000
     30         29.224630   0.000000
     31         29.952128   0.000000
     32         31.020336   0.000000
     33         31.890068   0.000000
     34         32.103957   0.000000
     35         32.414567   0.000000
     36         34.021464   0.000000
 
  0.4000000E+00  0.3333333E+00  0.2666667E+00  0.3555556E-02
      1        -19.137320   1.000000
      2        -19.136641   1.000000
      3        -19.127048   1.000000
      4        -19.126513   1.000000
      5        -19.123435   1.000000
      6         -6.407160   1.000000
      7         -2.059436   1.000000
      8          3.059966   1.000000
      9          4.034331   1.000000
     10          5.331570   1.000000
     11          6.781502   0.000000
     12          7.435971   0.000000
     13          8.780137   0.000000
     14         11.568711   0.000000
     15         13.378623   0.000000
     16         14.676776   0.000000
     17         15.766976   0.000000
     18         16.476903   0.000000
     19         18.082654   0.000000
     20         18.374132   0.000000
     21         18.766547   0.000000
     22         20.311894   0.000000
     23         21.280690   0.000000
     24         23.384971   0.000000
     25         25.380510   0.000000
     26         26.132632   0.000000
     27         27.059814   0.000000
     28         27.831754   0.000000
     29         28.016724   0.000000
     30         28.863372   0.000000
     31         30.268189   0.000000
     32         31.201167   0.000000
     33         31.435985   0.000000
     34         31.817292   0.000000
     35         32.646741   0.000000
     36         33.399980   0.000000
 
  0.4666667E+00  0.3333333E+00  0.2666667E+00  0.3555556E-02
      1        -19.137524   1.000000
      2        -19.136388   1.000000
      3        -19.127137   1.000000
      4        -19.126578   1.000000
      5        -19.123132   1.000000
      6         -6.189417   1.000000
      7         -2.222285   1.000000
      8          2.269733   1.000000
      9          3.768512   1.000000
     10          5.347882   1.000000
     11          6.670925   0.000000
     12          7.775536   0.000000
     13          9.620705   0.000000
     14         11.737268   0.000000
     15         13.553826   0.000000
     16         14.823488   0.000000
     17         15.651875   0.000000
     18         15.938535   0.000000
     19         18.933732   0.000000
     20         19.244132   0.000000
     21         19.630305   0.000000
     22         21.011369   0.000000
     23         21.756490   0.000000
     24         22.470385   0.000000
     25         24.233481   0.000000
     26         24.981795   0.000000
     27         26.470859   0.000000
     28         26.817142   0.000000
     29         27.950441   0.000000
     30         28.540947   0.000000
     31         29.418877   0.000000
     32         30.270769   0.000000
     33         31.552889   0.000000
     34         31.936620   0.000000
     35         32.815327   0.000000
     36         33.958487   0.000000
 
 -0.4666667E+00  0.3333333E+00  0.2666667E+00  0.3555556E-02
      1        -19.137843   1.000000
      2        -19.135952   1.000000
      3        -19.127281   1.000000
      4        -19.126686   1.000000
      5        -19.122774   1.000000
      6         -5.931167   1.000000
      7         -2.374881   1.000000
      8          1.627253   1.000000
      9          3.341786   1.000000
     10          5.158621   1.000000
     11          6.772417   0.000000
     12          8.312289   0.000000
     13         10.323000   0.000000
     14         12.058629   0.000000
     15         13.566839   0.000000
     16         13.959504   0.000000
     17         15.591917   0.000000
     18         17.032978   0.000000
     19         19.581574   0.000000
     20         20.324670   0.000000
     21         20.753301   0.000000
     22         21.162854   0.000000
     23         21.780383   0.000000
     24         22.460781   0.000000
     25         23.118741   0.000000
     26         24.139575   0.000000
     27         25.410645   0.000000
     28         26.218050   0.000000
     29         26.936244   0.000000
     30         28.434920   0.000000
     31         28.560766   0.000000
     32         30.109224   0.000000
     33         31.186577   0.000000
     34         31.754773   0.000000
     35         32.786953   0.000000
     36         33.612788   0.000000
 
 -0.4000000E+00  0.3333333E+00  0.2666667E+00  0.3555556E-02
      1        -19.138232   1.000000
      2        -19.135406   1.000000
      3        -19.127557   1.000000
      4        -19.126718   1.000000
      5        -19.122411   1.000000
      6         -5.669105   1.000000
      7         -2.518521   1.000000
      8          1.197715   1.000000
      9          2.935211   1.000000
     10          4.758943   1.000000
     11          7.126281   0.000000
     12          8.776602   0.000000
     13         10.837496   0.000000
     14         12.378198   0.000000
     15         12.531086   0.000000
     16         14.416673   0.000000
     17         16.130193   0.000000
     18         18.141237   0.000000
     19         19.891474   0.000000
     20         20.175745   0.000000
     21         21.124404   0.000000
     22         21.526280   0.000000
     23         21.889253   0.000000
     24         22.821477   0.000000
     25         23.057505   0.000000
     26         23.351665   0.000000
     27         24.705767   0.000000
     28         25.716150   0.000000
     29         26.491918   0.000000
     30         27.131542   0.000000
     31         28.586107   0.000000
     32         29.816422   0.000000
     33         30.818367   0.000000
     34         31.335599   0.000000
     35         32.177877   0.000000
     36         33.622002   0.000000
 
 -0.3333333E+00  0.3333333E+00  0.2666667E+00  0.3555556E-02
      1        -19.138612   1.000000
      2        -19.134854   1.000000
      3        -19.127934   1.000000
      4        -19.126672   1.000000
      5        -19.122096   1.000000
      6         -5.465681   1.000000
      7         -2.616217   1.000000
      8          1.013824   1.000000
      9          2.606582   1.000000
     10          4.315737   1.000000
     11          7.533701   0.000000
     12          9.106380   0.000000
     13         10.998133   0.000000
     14         11.572135   0.000000
     15         13.021573   0.000000
     16         15.165594   0.000000
     17         16.967605   0.000000
     18         18.718978   0.000000
     19         19.334131   0.000000
     20         19.920763   0.000000
     21         21.021354   0.000000
     22         21.134769   0.000000
     23         21.933822   0.000000
     24         22.584996   0.000000
     25         23.330789   0.000000
     26         24.047092   0.000000
     27         24.610698   0.000000
     28         25.273618   0.000000
     29         26.699405   0.000000
     30         27.070571   0.000000
     31         27.736505   0.000000
     32         29.041905   0.000000
     33         30.325824   0.000000
     34         31.562224   0.000000
     35         32.042258   0.000000
     36         33.485466   0.000000
 
 -0.2666667E+00  0.3333333E+00  0.2666667E+00  0.3555556E-02
      1        -19.138900   1.000000
      2        -19.134386   1.000000
      3        -19.128321   1.000000
      4        -19.126605   1.000000
      5        -19.121882   1.000000
      6         -5.399325   1.000000
      7         -2.587217   1.000000
      8          1.063833   1.000000
      9          2.380290   1.000000
     10          3.885268   1.000000
     11          7.916120   0.000000
     12          9.246634   0.000000
     13         10.818760   0.000000
     14         11.032067   0.000000
     15         13.938836   0.000000
     16         16.060768   0.000000
     17         17.203973   0.000000
     18         18.093627   0.000000
     19         19.101015   0.000000
     20         19.970304   0.000000
     21         20.344581   0.000000
     22         21.150018   0.000000
     23         21.739696   0.000000
     24         22.429544   0.000000
     25         23.194831   0.000000
     26         24.098533   0.000000
     27         25.155656   0.000000
     28         25.511784   0.000000
     29         26.412135   0.000000
     30         27.705469   0.000000
     31         28.438095   0.000000
     32         28.664780   0.000000
     33         29.514829   0.000000
     34         31.806491   0.000000
     35         32.257392   0.000000
     36         33.481903   0.000000
 
  0.4000000E+00  0.4000000E+00  0.2666667E+00  0.1777778E-02
      1        -19.137604   1.000000
      2        -19.136448   1.000000
      3        -19.127177   1.000000
      4        -19.126330   1.000000
      5        -19.123310   1.000000
      6         -6.290952   1.000000
      7         -2.200147   1.000000
      8          3.132611   1.000000
      9          3.563124   1.000000
     10          4.764904   1.000000
     11          7.412861   0.000000
     12          8.024855   0.000000
     13          8.512041   0.000000
     14         11.292513   0.000000
     15         14.265662   0.000000
     16         14.961216   0.000000
     17         16.114400   0.000000
     18         16.646397   0.000000
     19         17.508251   0.000000
     20         17.956038   0.000000
     21         18.958363   0.000000
     22         20.839633   0.000000
     23         21.679959   0.000000
     24         22.560288   0.000000
     25         25.474628   0.000000
     26         26.165506   0.000000
     27         26.195428   0.000000
     28         26.753174   0.000000
     29         28.143026   0.000000
     30         29.120353   0.000000
     31         30.004712   0.000000
     32         30.165967   0.000000
     33         30.452380   0.000000
     34         32.754573   0.000000
     35         33.436769   0.000000
     36         34.093975   0.000000
 
  0.4666667E+00  0.4000000E+00  0.2666667E+00  0.3555556E-02
      1        -19.137813   1.000000
      2        -19.136223   1.000000
      3        -19.127306   1.000000
      4        -19.126303   1.000000
      5        -19.123069   1.000000
      6         -6.116087   1.000000
      7         -2.311981   1.000000
      8          2.491806   1.000000
      9          3.294349   1.000000
     10          4.720720   1.000000
     11          7.360580   0.000000
     12          8.458657   0.000000
     13          9.182010   0.000000
     14         11.277332   0.000000
     15         14.541273   0.000000
     16         15.311148   0.000000
     17         15.880882   0.000000
     18         16.406841   0.000000
     19         17.692542   0.000000
     20         18.507748   0.000000
     21         19.786297   0.000000
     22         21.087195   0.000000
     23         21.420061   0.000000
     24         22.908679   0.000000
     25         24.405579   0.000000
     26         25.416828   0.000000
     27         26.049446   0.000000
     28         26.506185   0.000000
     29         27.658398   0.000000
     30         28.309462   0.000000
     31         28.786386   0.000000
     32         29.810098   0.000000
     33         31.470595   0.000000
     34         32.138928   0.000000
     35         33.325662   0.000000
     36         33.914796   0.000000
 
 -0.4666667E+00  0.4000000E+00  0.2666667E+00  0.3555556E-02
      1        -19.138004   1.000000
      2        -19.135930   1.000000
      3        -19.127433   1.000000
      4        -19.126395   1.000000
      5        -19.122761   1.000000
      6         -5.898860   1.000000
      7         -2.396067   1.000000
      8          1.837192   1.000000
      9          2.782018   1.000000
     10          5.046009   1.000000
     11          6.942971   0.000000
     12          9.141347   0.000000
     13          9.883194   0.000000
     14         11.563224   0.000000
     15         13.871160   0.000000
     16         15.011994   0.000000
     17         16.016909   0.000000
     18         17.161627   0.000000
     19         18.217527   0.000000
     20         19.509402   0.000000
     21         20.342002   0.000000
     22         20.850606   0.000000
     23         21.809885   0.000000
     24         22.789869   0.000000
     25         23.814346   0.000000
     26         24.837002   0.000000
     27         25.628940   0.000000
     28         26.322810   0.000000
     29         26.625762   0.000000
     30         27.210616   0.000000
     31         29.019218   0.000000
     32         29.616771   0.000000
     33         30.356104   0.000000
     34         32.254596   0.000000
     35         33.191438   0.000000
     36         33.813276   0.000000
 
 -0.4000000E+00  0.4000000E+00  0.2666667E+00  0.3555556E-02
      1        -19.138230   1.000000
      2        -19.135550   1.000000
      3        -19.127599   1.000000
      4        -19.126529   1.000000
      5        -19.122425   1.000000
      6         -5.667003   1.000000
      7         -2.461664   1.000000
      8          1.318712   1.000000
      9          2.309635   1.000000
     10          5.196148   1.000000
     11          6.772537   0.000000
     12          9.673801   0.000000
     13         10.502192   0.000000
     14         11.988552   0.000000
     15         12.793201   0.000000
     16         15.283010   0.000000
     17         16.239753   0.000000
     18         18.189116   0.000000
     19         18.674282   0.000000
     20         19.517109   0.000000
     21         20.770031   0.000000
     22         21.221998   0.000000
     23         22.032172   0.000000
     24         22.724783   0.000000
     25         23.407596   0.000000
     26         24.154450   0.000000
     27         24.930442   0.000000
     28         25.935882   0.000000
     29         26.562278   0.000000
     30         27.070339   0.000000
     31         28.384829   0.000000
     32         29.489681   0.000000
     33         30.122974   0.000000
     34         30.915953   0.000000
     35         32.774277   0.000000
     36         33.648615   0.000000
 
 -0.3333333E+00  0.4000000E+00  0.2666667E+00  0.3555556E-02
      1        -19.138486   1.000000
      2        -19.135108   1.000000
      3        -19.127858   1.000000
      4        -19.126608   1.000000
      5        -19.122111   1.000000
      6         -5.464583   1.000000
      7         -2.509651   1.000000
      8          1.004023   1.000000
      9          1.957384   1.000000
     10          4.958511   1.000000
     11          6.990663   0.000000
     12          9.940032   0.000000
     13         11.054071   0.000000
     14         11.959685   0.000000
     15         12.363837   0.000000
     16         15.828117   0.000000
     17         16.796064   0.000000
     18         18.090400   0.000000
     19         19.317008   0.000000
     20         19.641696   0.000000
     21         20.375041   0.000000
     22         21.656125   0.000000
     23         21.958469   0.000000
     24         22.523850   0.000000
     25         23.386385   0.000000
     26         23.986345   0.000000
     27         24.359452   0.000000
     28         26.171749   0.000000
     29         26.799735   0.000000
     30         27.154080   0.000000
     31         27.697604   0.000000
     32         28.904180   0.000000
     33         29.840946   0.000000
     34         30.629631   0.000000
     35         32.290393   0.000000
     36         32.819556   0.000000
 
 -0.2666667E+00  0.4000000E+00  0.2666667E+00  0.3555556E-02
      1        -19.138718   1.000000
      2        -19.134681   1.000000
      3        -19.128188   1.000000
      4        -19.126606   1.000000
      5        -19.121868   1.000000
      6         -5.350595   1.000000
      7         -2.510522   1.000000
      8          0.915600   1.000000
      9          1.758326   1.000000
     10          4.516614   1.000000
     11          7.388714   0.000000
     12          9.836066   0.000000
     13         11.281402   0.000000
     14         11.579689   0.000000
     15         12.916733   0.000000
     16         16.584187   0.000000
     17         16.957981   0.000000
     18         17.908350   0.000000
     19         18.817245   0.000000
     20         20.301029   0.000000
     21         20.699753   0.000000
     22         21.100958   0.000000
     23         21.470187   0.000000
     24         22.063829   0.000000
     25         23.172795   0.000000
     26         24.598609   0.000000
     27         25.283848   0.000000
     28         25.569720   0.000000
     29         26.607123   0.000000
     30         27.293219   0.000000
     31         27.550263   0.000000
     32         29.188593   0.000000
     33         29.793637   0.000000
     34         30.585846   0.000000
     35         31.942174   0.000000
     36         32.832174   0.000000
 
  0.4666667E+00  0.4666667E+00  0.2666667E+00  0.1777778E-02
      1        -19.138100   1.000000
      2        -19.135960   1.000000
      3        -19.127471   1.000000
      4        -19.126178   1.000000
      5        -19.122898   1.000000
      6         -5.988952   1.000000
      7         -2.379331   1.000000
      8          2.189048   1.000000
      9          3.260177   1.000000
     10          4.095422   1.000000
     11          8.272180   0.000000
     12          8.419001   0.000000
     13          9.431226   0.000000
     14         11.044180   0.000000
     15         15.125157   0.000000
     16         15.762743   0.000000
     17         15.930217   0.000000
     18         16.785915   0.000000
     19         17.335320   0.000000
     20         18.102770   0.000000
     21         20.248828   0.000000
     22         20.363301   0.000000
     23         21.596103   0.000000
     24         23.846704   0.000000
     25         24.391264   0.000000
     26         24.888027   0.000000
     27         25.691379   0.000000
     28         25.808943   0.000000
     29         27.454043   0.000000
     30         27.474322   0.000000
     31         28.657562   0.000000
     32         29.927805   0.000000
     33         30.507097   0.000000
     34         32.673048   0.000000
     35         33.479981   0.000000
     36         33.872133   0.000000
 
 -0.4666667E+00  0.4666667E+00  0.2666667E+00  0.3555556E-02
      1        -19.138300   1.000000
      2        -19.135694   1.000000
      3        -19.127616   1.000000
      4        -19.126203   1.000000
      5        -19.122655   1.000000
      6         -5.821161   1.000000
      7         -2.416622   1.000000
      8          1.705846   1.000000
      9          2.759155   1.000000
     10          4.299427   1.000000
     11          7.801816   0.000000
     12          9.253626   0.000000
     13         10.008681   0.000000
     14         11.154867   0.000000
     15         14.303982   0.000000
     16         15.975799   0.000000
     17         16.353347   0.000000
     18         17.174875   0.000000
     19         17.669844   0.000000
     20         18.751388   0.000000
     21         19.546218   0.000000
     22         21.150984   0.000000
     23         21.924963   0.000000
     24         22.979876   0.000000
     25         24.531804   0.000000
     26         24.837061   0.000000
     27         25.490568   0.000000
     28         25.644868   0.000000
     29         26.163403   0.000000
     30         27.482375   0.000000
     31         28.513954   0.000000
     32         28.930944   0.000000
     33         31.451956   0.000000
     34         31.700186   0.000000
     35         32.432978   0.000000
     36         34.397603   0.000000
 
 -0.4000000E+00  0.4666667E+00  0.2666667E+00  0.3555556E-02
      1        -19.138413   1.000000
      2        -19.135439   1.000000
      3        -19.127741   1.000000
      4        -19.126345   1.000000
      5        -19.122372   1.000000
      6         -5.633283   1.000000
      7         -2.431291   1.000000
      8          1.312477   1.000000
      9          2.095473   1.000000
     10          4.787405   1.000000
     11          7.275007   0.000000
     12          9.941827   0.000000
     13         10.482256   0.000000
     14         11.588748   0.000000
     15         13.251499   0.000000
     16         16.109949   0.000000
     17         16.898150   0.000000
     18         17.348627   0.000000
     19         18.016540   0.000000
     20         19.291099   0.000000
     21         20.138708   0.000000
     22         21.250403   0.000000
     23         22.012720   0.000000
     24         22.714723   0.000000
     25         23.704199   0.000000
     26         24.452623   0.000000
     27         25.166593   0.000000
     28         25.757188   0.000000
     29         26.330874   0.000000
     30         27.294617   0.000000
     31         28.065382   0.000000
     32         29.234733   0.000000
     33         30.207045   0.000000
     34         30.811440   0.000000
     35         32.682967   0.000000
     36         33.367017   0.000000
 
 -0.3333333E+00  0.4666667E+00  0.2666667E+00  0.3555556E-02
      1        -19.138480   1.000000
      2        -19.135185   1.000000
      3        -19.127880   1.000000
      4        -19.126525   1.000000
      5        -19.122092   1.000000
      6         -5.455156   1.000000
      7         -2.440222   1.000000
      8          1.069211   1.000000
      9          1.568866   1.000000
     10          5.111466   1.000000
     11          6.925873   0.000000
     12         10.498088   0.000000
     13         10.706399   0.000000
     14         12.067045   0.000000
     15         12.484308   0.000000
     16         16.290708   0.000000
     17         17.305253   0.000000
     18         17.459459   0.000000
     19         18.275354   0.000000
     20         19.823820   0.000000
     21         20.390326   0.000000
     22         21.296256   0.000000
     23         21.733425   0.000000
     24         22.659736   0.000000
     25         23.631070   0.000000
     26         24.101597   0.000000
     27         25.197786   0.000000
     28         25.723935   0.000000
     29         26.060907   0.000000
     30         27.716956   0.000000
     31         28.210836   0.000000
     32         28.879249   0.000000
     33         29.708231   0.000000
     34         30.198912   0.000000
     35         31.173062   0.000000
     36         33.579610   0.000000
 
 -0.2666667E+00  0.4666667E+00  0.2666667E+00  0.3555556E-02
      1        -19.138534   1.000000
      2        -19.134929   1.000000
      3        -19.128081   1.000000
      4        -19.126649   1.000000
      5        -19.121861   1.000000
      6         -5.325792   1.000000
      7         -2.452611   1.000000
      8          0.960451   1.000000
      9          1.295405   1.000000
     10          4.986626   1.000000
     11          6.984194   0.000000
     12         10.454080   0.000000
     13         11.103044   0.000000
     14         12.085089   0.000000
     15         12.414600   0.000000
     16         16.705626   0.000000
     17         16.900377   0.000000
     18         18.024308   0.000000
     19         18.693529   0.000000
     20         19.401741   0.000000
     21         20.535144   0.000000
     22         21.310000   0.000000
     23         21.925866   0.000000
     24         22.351003   0.000000
     25         23.605399   0.000000
     26         24.204708   0.000000
     27         25.344257   0.000000
     28         25.750608   0.000000
     29         26.696404   0.000000
     30         27.098418   0.000000
     31         28.104952   0.000000
     32         28.503994   0.000000
     33         29.715203   0.000000
     34         30.117679   0.000000
     35         31.277467   0.000000
     36         32.624495   0.000000
 
 -0.4666667E+00 -0.4666667E+00  0.2666667E+00  0.1777778E-02
      1        -19.138562   1.000000
      2        -19.135396   1.000000
      3        -19.127786   1.000000
      4        -19.126146   1.000000
      5        -19.122484   1.000000
      6         -5.707928   1.000000
      7         -2.423349   1.000000
      8          1.304773   1.000000
      9          3.026667   1.000000
     10          3.675467   1.000000
     11          8.632470   0.000000
     12          8.768125   0.000000
     13         10.614566   0.000000
     14         11.022704   0.000000
     15         14.637307   0.000000
     16         15.294604   0.000000
     17         17.064359   0.000000
     18         17.608521   0.000000
     19         18.277419   0.000000
     20         18.304665   0.000000
     21         19.002241   0.000000
     22         21.573891   0.000000
     23         22.194039   0.000000
     24         23.094909   0.000000
     25         23.287370   0.000000
     26         25.020192   0.000000
     27         25.476829   0.000000
     28         25.676793   0.000000
     29         25.732772   0.000000
     30         26.874760   0.000000
     31         28.267719   0.000000
     32         30.148430   0.000000
     33         30.304436   0.000000
     34         31.157376   0.000000
     35         33.335007   0.000000
     36         34.068936   0.000000
 
 -0.4000000E+00 -0.4666667E+00  0.2666667E+00  0.3555556E-02
      1        -19.138692   1.000000
      2        -19.135150   1.000000
      3        -19.127916   1.000000
      4        -19.126229   1.000000
      5        -19.122272   1.000000
      6         -5.573892   1.000000
      7         -2.419800   1.000000
      8          0.995603   1.000000
      9          2.483188   1.000000
     10          4.034087   1.000000
     11          8.080070   0.000000
     12          9.405428   0.000000
     13         11.032805   0.000000
     14         11.287390   0.000000
     15         13.826457   0.000000
     16         15.755235   0.000000
     17         17.057504   0.000000
     18         17.586984   0.000000
     19         18.277032   0.000000
     20         19.438675   0.000000
     21         19.513105   0.000000
     22         21.434077   0.000000
     23         21.908763   0.000000
     24         22.873400   0.000000
     25         23.478620   0.000000
     26         23.968651   0.000000
     27         25.102573   0.000000
     28         25.549018   0.000000
     29         25.907504   0.000000
     30         27.548304   0.000000
     31         28.403527   0.000000
     32         29.311294   0.000000
     33         29.753285   0.000000
     34         31.726531   0.000000
     35         32.344804   0.000000
     36         33.643411   0.000000
 
 -0.3333333E+00 -0.4666667E+00  0.2666667E+00  0.3555556E-02
      1        -19.138669   1.000000
      2        -19.134998   1.000000
      3        -19.128004   1.000000
      4        -19.126422   1.000000
      5        -19.122053   1.000000
      6         -5.438650   1.000000
      7         -2.423705   1.000000
      8          0.869643   1.000000
      9          1.819019   1.000000
     10          4.606107   1.000000
     11          7.457532   0.000000
     12          9.917606   0.000000
     13         11.316722   0.000000
     14         11.646710   0.000000
     15         13.008187   0.000000
     16         16.410759   0.000000
     17         16.957089   0.000000
     18         17.421071   0.000000
     19         18.653665   0.000000
     20         19.929956   0.000000
     21         20.572325   0.000000
     22         20.789908   0.000000
     23         21.606334   0.000000
     24         22.492269   0.000000
     25         23.564263   0.000000
     26         24.207686   0.000000
     27         24.692303   0.000000
     28         25.932631   0.000000
     29         26.290320   0.000000
     30         27.072034   0.000000
     31         28.476637   0.000000
     32         29.099610   0.000000
     33         29.949243   0.000000
     34         30.260123   0.000000
     35         32.006708   0.000000
     36         33.220062   0.000000
 
 -0.4000000E+00 -0.4000000E+00  0.2666667E+00  0.1777778E-02
      1        -19.138893   1.000000
      2        -19.134859   1.000000
      3        -19.128069   1.000000
      4        -19.126230   1.000000
      5        -19.122142   1.000000
      6         -5.498578   1.000000
      7         -2.426818   1.000000
      8          0.763920   1.000000
      9          2.885909   1.000000
     10          3.442470   1.000000
     11          8.685680   0.000000
     12          8.954348   0.000000
     13         10.934587   0.000000
     14         11.601409   0.000000
     15         14.231403   0.000000
     16         15.037909   0.000000
     17         16.990951   0.000000
     18         17.984691   0.000000
     19         19.227617   0.000000
     20         19.313853   0.000000
     21         19.959680   0.000000
     22         21.462715   0.000000
     23         21.767270   0.000000
     24         21.938001   0.000000
     25         23.663422   0.000000
     26         24.052923   0.000000
     27         24.245663   0.000000
     28         25.597504   0.000000
     29         25.819349   0.000000
     30         27.666882   0.000000
     31         28.368769   0.000000
     32         29.462919   0.000000
     33         30.340353   0.000000
     34         31.026448   0.000000
     35         33.013685   0.000000
     36         33.546133   0.000000
 
 -0.3333333E+00 -0.4000000E+00  0.2666667E+00  0.3555556E-02
      1        -19.138909   1.000000
      2        -19.134691   1.000000
      3        -19.128162   1.000000
      4        -19.126370   1.000000
      5        -19.121998   1.000000
      6         -5.419669   1.000000
      7         -2.457400   1.000000
      8          0.731749   1.000000
      9          2.365872   1.000000
     10          3.898782   1.000000
     11          8.111818   0.000000
     12          9.380860   0.000000
     13         11.132591   0.000000
     14         11.624348   0.000000
     15         13.604798   0.000000
     16         15.659592   0.000000
     17         17.057549   0.000000
     18         17.807492   0.000000
     19         19.711476   0.000000
     20         19.831576   0.000000
     21         20.374418   0.000000
     22         21.040566   0.000000
     23         21.509911   0.000000
     24         21.913190   0.000000
     25         22.919750   0.000000
     26         24.385851   0.000000
     27         24.734717   0.000000
     28         25.347225   0.000000
     29         26.324753   0.000000
     30         27.439221   0.000000
     31         28.195093   0.000000
     32         29.001136   0.000000
     33         30.466481   0.000000
     34         31.499813   0.000000
     35         32.119453   0.000000
     36         32.944735   0.000000
 
 -0.3333333E+00 -0.3333333E+00  0.2666667E+00  0.1777778E-02
      1        -19.139017   1.000000
      2        -19.134448   1.000000
      3        -19.128282   1.000000
      4        -19.126426   1.000000
      5        -19.121937   1.000000
      6         -5.404704   1.000000
      7         -2.521596   1.000000
      8          0.797359   1.000000
      9          2.848360   1.000000
     10          3.363619   1.000000
     11          8.555007   0.000000
     12          8.902851   0.000000
     13         10.865330   0.000000
     14         11.395751   0.000000
     15         14.202836   0.000000
     16         15.247121   0.000000
     17         17.345529   0.000000
     18         18.125892   0.000000
     19         19.575132   0.000000
     20         20.073350   0.000000
     21         20.308179   0.000000
     22         20.900303   0.000000
     23         21.759999   0.000000
     24         21.978536   0.000000
     25         23.126758   0.000000
     26         23.294235   0.000000
     27         25.152549   0.000000
     28         25.720841   0.000000
     29         26.527734   0.000000
     30         26.875319   0.000000
     31         28.034943   0.000000
     32         29.855633   0.000000
     33         30.419310   0.000000
     34         30.784262   0.000000
     35         32.848000   0.000000
     36         33.553141   0.000000
 
  0.3333333E+00  0.3333333E+00  0.3333333E+00  0.5925926E-03
      1        -19.137051   1.000000
      2        -19.137051   1.000000
      3        -19.126649   1.000000
      4        -19.126649   1.000000
      5        -19.123688   1.000000
      6         -6.513047   1.000000
      7         -2.088392   1.000000
      8          4.241851   1.000000
      9          4.241851   1.000000
     10          5.159478   1.000000
     11          7.051634   0.000000
     12          7.051634   0.000000
     13          7.430676   0.000000
     14         12.137600   0.000000
     15         13.441936   0.000000
     16         13.441936   0.000000
     17         16.840679   0.000000
     18         17.462693   0.000000
     19         17.462693   0.000000
     20         17.992910   0.000000
     21         18.825650   0.000000
     22         18.825650   0.000000
     23         20.371055   0.000000
     24         24.792988   0.000000
     25         24.792988   0.000000
     26         26.756816   0.000000
     27         27.816049   0.000000
     28         28.449008   0.000000
     29         29.525968   0.000000
     30         29.525968   0.000000
     31         29.796576   0.000000
     32         29.796576   0.000000
     33         31.467047   0.000000
     34         33.083700   0.000000
     35         33.083700   0.000000
     36         33.987735   0.000000
 
  0.4000000E+00  0.3333333E+00  0.3333333E+00  0.1777778E-02
      1        -19.137115   1.000000
      2        -19.137065   1.000000
      3        -19.126697   1.000000
      4        -19.126545   1.000000
      5        -19.123570   1.000000
      6         -6.391699   1.000000
      7         -2.262532   1.000000
      8          3.549231   1.000000
      9          4.402352   1.000000
     10          5.514442   1.000000
     11          6.711796   0.000000
     12          6.728189   0.000000
     13          8.162520   0.000000
     14         12.205441   0.000000
     15         13.269238   0.000000
     16         14.452678   0.000000
     17         16.287900   0.000000
     18         16.901445   0.000000
     19         18.454716   0.000000
     20         18.454884   0.000000
     21         18.669902   0.000000
     22         19.241622   0.000000
     23         20.720551   0.000000
     24         23.633359   0.000000
     25         24.632994   0.000000
     26         26.310373   0.000000
     27         27.432981   0.000000
     28         27.437192   0.000000
     29         28.469441   0.000000
     30         29.462471   0.000000
     31         30.309216   0.000000
     32         30.977594   0.000000
     33         31.798995   0.000000
     34         32.051854   0.000000
     35         32.348151   0.000000
     36         33.502654   0.000000
 
  0.4666667E+00  0.3333333E+00  0.3333333E+00  0.1777778E-02
      1        -19.137341   1.000000
      2        -19.136801   1.000000
      3        -19.126713   1.000000
      4        -19.126649   1.000000
      5        -19.123321   1.000000
      6         -6.208904   1.000000
      7         -2.392513   1.000000
      8          2.669846   1.000000
      9          4.240433   1.000000
     10          5.420590   1.000000
     11          6.842455   0.000000
     12          6.860186   0.000000
     13          9.135283   0.000000
     14         12.300241   0.000000
     15         13.263684   0.000000
     16         15.026667   0.000000
     17         15.722309   0.000000
     18         16.258951   0.000000
     19         18.925193   0.000000
     20         19.172377   0.000000
     21         19.568427   0.000000
     22         20.129201   0.000000
     23         21.424932   0.000000
     24         22.511488   0.000000
     25         23.993194   0.000000
     26         25.888748   0.000000
     27         25.963772   0.000000
     28         26.789163   0.000000
     29         27.977539   0.000000
     30         29.417512   0.000000
     31         29.938351   0.000000
     32         30.048490   0.000000
     33         30.877567   0.000000
     34         32.655349   0.000000
     35         32.922758   0.000000
     36         33.581326   0.000000
 
 -0.4666667E+00  0.3333333E+00  0.3333333E+00  0.1777778E-02
      1        -19.137705   1.000000
      2        -19.136312   1.000000
      3        -19.126930   1.000000
      4        -19.126686   1.000000
      5        -19.122986   1.000000
      6         -5.980956   1.000000
      7         -2.482164   1.000000
      8          1.885574   1.000000
      9          3.875785   1.000000
     10          4.891266   1.000000
     11          7.261448   0.000000
     12          7.454409   0.000000
     13         10.041138   0.000000
     14         12.521952   0.000000
     15         13.446401   0.000000
     16         13.793674   0.000000
     17         15.854608   0.000000
     18         16.994499   0.000000
     19         19.450745   0.000000
     20         19.731938   0.000000
     21         20.717955   0.000000
     22         21.134578   0.000000
     23         21.650287   0.000000
     24         22.060718   0.000000
     25         23.393799   0.000000
     26         24.360688   0.000000
     27         25.498028   0.000000
     28         25.772081   0.000000
     29         27.894362   0.000000
     30         28.069815   0.000000
     31         28.744495   0.000000
     32         30.027213   0.000000
     33         30.954390   0.000000
     34         32.572253   0.000000
     35         33.337273   0.000000
     36         33.473525   0.000000
 
 -0.4000000E+00  0.3333333E+00  0.3333333E+00  0.1777778E-02
      1        -19.138158   1.000000
      2        -19.135688   1.000000
      3        -19.127337   1.000000
      4        -19.126620   1.000000
      5        -19.122607   1.000000
      6         -5.736423   1.000000
      7         -2.540574   1.000000
      8          1.279231   1.000000
      9          3.477657   1.000000
     10          4.337250   1.000000
     11          7.798014   0.000000
     12          8.014120   0.000000
     13         10.794516   0.000000
     14         12.352509   0.000000
     15         13.131475   0.000000
     16         13.835897   0.000000
     17         15.973262   0.000000
     18         18.174067   0.000000
     19         19.955720   0.000000
     20         20.197854   0.000000
     21         20.411031   0.000000
     22         21.395222   0.000000
     23         22.555725   0.000000
     24         22.752328   0.000000
     25         22.934346   0.000000
     26         22.964387   0.000000
     27         25.125514   0.000000
     28         25.636364   0.000000
     29         26.196336   0.000000
     30         26.616921   0.000000
     31         29.315201   0.000000
     32         30.238964   0.000000
     33         30.503880   0.000000
     34         31.643395   0.000000
     35         32.840343   0.000000
     36         33.459378   0.000000
 
 -0.3333333E+00  0.3333333E+00  0.3333333E+00  0.1777778E-02
      1        -19.138622   1.000000
      2        -19.135031   1.000000
      3        -19.127811   1.000000
      4        -19.126524   1.000000
      5        -19.122238   1.000000
      6         -5.522662   1.000000
      7         -2.565607   1.000000
      8          0.908220   1.000000
      9          3.124724   1.000000
     10          3.824435   1.000000
     11          8.358268   0.000000
     12          8.407198   0.000000
     13         11.279477   0.000000
     14         11.489744   0.000000
     15         13.480817   0.000000
     16         14.440724   0.000000
     17         16.578173   0.000000
     18         19.198459   0.000000
     19         19.237519   0.000000
     20         20.308474   0.000000
     21         20.892103   0.000000
     22         20.974537   0.000000
     23         21.618182   0.000000
     24         22.109459   0.000000
     25         23.913863   0.000000
     26         24.240876   0.000000
     27         24.529822   0.000000
     28         24.623576   0.000000
     29         25.910427   0.000000
     30         26.651542   0.000000
     31         28.436125   0.000000
     32         30.277534   0.000000
     33         30.385857   0.000000
     34         31.021304   0.000000
     35         32.824251   0.000000
     36         33.532489   0.000000
 
  0.4000000E+00  0.4000000E+00  0.3333333E+00  0.1777778E-02
      1        -19.137329   1.000000
      2        -19.136967   1.000000
      3        -19.126715   1.000000
      4        -19.126401   1.000000
      5        -19.123536   1.000000
      6         -6.309949   1.000000
      7         -2.424751   1.000000
      8          3.895917   1.000000
      9          3.974906   1.000000
     10          5.376066   1.000000
     11          6.590770   0.000000
     12          7.279963   0.000000
     13          7.792047   0.000000
     14         12.196349   0.000000
     15         13.926841   0.000000
     16         14.545652   0.000000
     17         16.349299   0.000000
     18         17.097091   0.000000
     19         18.039776   0.000000
     20         18.172483   0.000000
     21         19.057124   0.000000
     22         19.529972   0.000000
     23         21.045351   0.000000
     24         22.940225   0.000000
     25         24.492194   0.000000
     26         25.648062   0.000000
     27         26.794025   0.000000
     28         27.568488   0.000000
     29         28.560167   0.000000
     30         29.458589   0.000000
     31         30.291143   0.000000
     32         31.249728   0.000000
     33         31.525873   0.000000
     34         31.635943   0.000000
     35         32.628213   0.000000
     36         33.529662   0.000000
 
  0.4666667E+00  0.4000000E+00  0.3333333E+00  0.3555556E-02
      1        -19.137473   1.000000
      2        -19.136817   1.000000
      3        -19.126797   1.000000
      4        -19.126380   1.000000
      5        -19.123356   1.000000
      6         -6.168798   1.000000
      7         -2.531358   1.000000
      8          3.082328   1.000000
      9          3.933123   1.000000
     10          5.316081   1.000000
     11          6.653929   0.000000
     12          7.434397   0.000000
     13          8.576726   0.000000
     14         12.124785   0.000000
     15         14.056645   0.000000
     16         15.306745   0.000000
     17         15.640317   0.000000
     18         16.811799   0.000000
     19         17.924957   0.000000
     20         18.842268   0.000000
     21         19.724450   0.000000
     22         20.221432   0.000000
     23         21.521541   0.000000
     24         22.264293   0.000000
     25         24.063262   0.000000
     26         25.254647   0.000000
     27         26.216771   0.000000
     28         26.844297   0.000000
     29         28.198010   0.000000
     30         28.583571   0.000000
     31         29.733160   0.000000
     32         31.084814   0.000000
     33         31.394787   0.000000
     34         31.881531   0.000000
     35         32.277764   0.000000
     36         33.827749   0.000000
 
 -0.4666667E+00  0.4000000E+00  0.3333333E+00  0.3555556E-02
      1        -19.137707   1.000000
      2        -19.136476   1.000000
      3        -19.126940   1.000000
      4        -19.126459   1.000000
      5        -19.123073   1.000000
      6         -5.981253   1.000000
      7         -2.579393   1.000000
      8          2.248429   1.000000
      9          3.528556   1.000000
     10          5.269545   1.000000
     11          6.630414   0.000000
     12          8.077110   0.000000
     13          9.530008   0.000000
     14         12.215874   0.000000
     15         13.779456   0.000000
     16         14.466915   0.000000
     17         16.346862   0.000000
     18         17.005722   0.000000
     19         18.225844   0.000000
     20         19.514112   0.000000
     21         20.539611   0.000000
     22         20.820922   0.000000
     23         21.255517   0.000000
     24         22.702735   0.000000
     25         23.545211   0.000000
     26         24.850457   0.000000
     27         24.980218   0.000000
     28         26.612316   0.000000
     29         27.432543   0.000000
     30         27.824386   0.000000
     31         28.924447   0.000000
     32         29.692207   0.000000
     33         31.308094   0.000000
     34         32.079780   0.000000
     35         33.274850   0.000000
     36         33.930894   0.000000
 
 -0.4000000E+00  0.4000000E+00  0.3333333E+00  0.3555556E-02
      1        -19.138068   1.000000
      2        -19.135936   1.000000
      3        -19.127240   1.000000
      4        -19.126493   1.000000
      5        -19.122718   1.000000
      6         -5.769018   1.000000
      7         -2.575809   1.000000
      8          1.534084   1.000000
      9          3.066860   1.000000
     10          4.885330   1.000000
     11          7.050112   0.000000
     12          8.725623   0.000000
     13         10.405416   0.000000
     14         12.311264   0.000000
     15         12.930826   0.000000
     16         14.602831   0.000000
     17         16.284222   0.000000
     18         18.038420   0.000000
     19         18.770444   0.000000
     20         19.792611   0.000000
     21         20.115481   0.000000
     22         21.528995   0.000000
     23         22.331585   0.000000
     24         22.534963   0.000000
     25         23.154826   0.000000
     26         24.251999   0.000000
     27         24.762039   0.000000
     28         25.704315   0.000000
     29         26.179318   0.000000
     30         27.849845   0.000000
     31         28.142699   0.000000
     32         29.368419   0.000000
     33         31.201550   0.000000
     34         31.626287   0.000000
     35         32.704309   0.000000
     36         34.227722   0.000000
 
 -0.3333333E+00  0.4000000E+00  0.3333333E+00  0.3555556E-02
      1        -19.138498   1.000000
      2        -19.135302   1.000000
      3        -19.127681   1.000000
      4        -19.126450   1.000000
      5        -19.122340   1.000000
      6         -5.565991   1.000000
      7         -2.533341   1.000000
      8          1.010848   1.000000
      9          2.667283   1.000000
     10          4.391957   1.000000
     11          7.606713   0.000000
     12          9.205864   0.000000
     13         11.131690   0.000000
     14         11.640858   0.000000
     15         13.100992   0.000000
     16         15.018890   0.000000
     17         16.519958   0.000000
     18         18.557884   0.000000
     19         18.992037   0.000000
     20         19.849325   0.000000
     21         20.548291   0.000000
     22         21.204116   0.000000
     23         21.664442   0.000000
     24         23.027601   0.000000
     25         23.708760   0.000000
     26         23.903778   0.000000
     27         24.303972   0.000000
     28         25.123016   0.000000
     29         26.066011   0.000000
     30         26.966279   0.000000
     31         28.466802   0.000000
     32         29.679319   0.000000
     33         29.990109   0.000000
     34         31.514979   0.000000
     35         32.322035   0.000000
     36         33.625628   0.000000
 
  0.4666667E+00  0.4666667E+00  0.3333333E+00  0.1777778E-02
      1        -19.137687   1.000000
      2        -19.136643   1.000000
      3        -19.126919   1.000000
      4        -19.126257   1.000000
      5        -19.123253   1.000000
      6         -6.073890   1.000000
      7         -2.616347   1.000000
      8          2.998868   1.000000
      9          3.677453   1.000000
     10          4.773295   1.000000
     11          7.409842   0.000000
     12          7.623360   0.000000
     13          8.561850   0.000000
     14         11.888311   0.000000
     15         14.797296   0.000000
     16         15.564200   0.000000
     17         15.722582   0.000000
     18         16.382335   0.000000
     19         18.214481   0.000000
     20         18.446587   0.000000
     21         20.028325   0.000000
     22         20.632687   0.000000
     23         20.788063   0.000000
     24         23.034963   0.000000
     25         24.261832   0.000000
     26         24.665229   0.000000
     27         25.936695   0.000000
     28         26.163326   0.000000
     29         27.455989   0.000000
     30         28.968530   0.000000
     31         29.615471   0.000000
     32         30.038199   0.000000
     33         30.678219   0.000000
     34         32.867883   0.000000
     35         33.102076   0.000000
     36         33.929187   0.000000
 
 -0.4666667E+00  0.4666667E+00  0.3333333E+00  0.3555556E-02
      1        -19.137867   1.000000
      2        -19.136382   1.000000
      3        -19.127059   1.000000
      4        -19.126281   1.000000
      5        -19.123036   1.000000
      6         -5.934014   1.000000
      7         -2.638257   1.000000
      8          2.399603   1.000000
      9          3.251365   1.000000
     10          4.888513   1.000000
     11          7.047226   0.000000
     12          8.504963   0.000000
     13          9.211969   0.000000
     14         11.837338   0.000000
     15         14.123095   0.000000
     16         15.618157   0.000000
     17         15.977411   0.000000
     18         17.231766   0.000000
     19         17.831712   0.000000
     20         19.152392   0.000000
     21         19.873223   0.000000
     22         20.578396   0.000000
     23         21.442242   0.000000
     24         23.540420   0.000000
     25         24.079646   0.000000
     26         24.440050   0.000000
     27         24.978755   0.000000
     28         26.082299   0.000000
     29         27.222768   0.000000
     30         27.703332   0.000000
     31         28.764485   0.000000
     32         29.411120   0.000000
     33         31.449175   0.000000
     34         32.014609   0.000000
     35         33.409503   0.000000
     36         33.903713   0.000000
 
 -0.4000000E+00  0.4666667E+00  0.3333333E+00  0.3555556E-02
      1        -19.138080   1.000000
      2        -19.136007   1.000000
      3        -19.127265   1.000000
      4        -19.126376   1.000000
      5        -19.122735   1.000000
      6         -5.764829   1.000000
      7         -2.600664   1.000000
      8          1.783353   1.000000
      9          2.635055   1.000000
     10          5.211951   1.000000
     11          6.720519   0.000000
     12          9.404757   0.000000
     13          9.914217   0.000000
     14         12.005223   0.000000
     15         13.030506   0.000000
     16         15.764653   0.000000
     17         16.494495   0.000000
     18         17.495356   0.000000
     19         18.195483   0.000000
     20         19.181367   0.000000
     21         20.030785   0.000000
     22         21.313647   0.000000
     23         22.398803   0.000000
     24         22.711861   0.000000
     25         23.416656   0.000000
     26         24.325497   0.000000
     27         25.146582   0.000000
     28         25.859170   0.000000
     29         26.591491   0.000000
     30         27.104401   0.000000
     31         28.351739   0.000000
     32         29.255889   0.000000
     33         29.946166   0.000000
     34         32.220103   0.000000
     35         33.477161   0.000000
     36         33.944380   0.000000
 
 -0.3333333E+00  0.4666667E+00  0.3333333E+00  0.3555556E-02
      1        -19.138358   1.000000
      2        -19.135523   1.000000
      3        -19.127588   1.000000
      4        -19.126436   1.000000
      5        -19.122389   1.000000
      6         -5.589179   1.000000
      7         -2.520419   1.000000
      8          1.249148   1.000000
      9          2.138756   1.000000
     10          5.079595   1.000000
     11          6.925043   0.000000
     12          9.945744   0.000000
     13         10.627125   0.000000
     14         11.979778   0.000000
     15         12.581554   0.000000
     16         16.020124   0.000000
     17         16.871413   0.000000
     18         17.717141   0.000000
     19         17.867888   0.000000
     20         19.971475   0.000000
     21         20.507940   0.000000
     22         21.257388   0.000000
     23         21.820802   0.000000
     24         23.186930   0.000000
     25         23.372175   0.000000
     26         24.029755   0.000000
     27         24.765418   0.000000
     28         25.180670   0.000000
     29         26.867494   0.000000
     30         27.232030   0.000000
     31         28.000883   0.000000
     32         29.100300   0.000000
     33         29.804567   0.000000
     34         30.758093   0.000000
     35         32.659931   0.000000
     36         33.780865   0.000000
 
 -0.4666667E+00 -0.4666667E+00  0.3333333E+00  0.1777778E-02
      1        -19.138067   1.000000
      2        -19.136141   1.000000
      3        -19.127205   1.000000
      4        -19.126236   1.000000
      5        -19.122897   1.000000
      6         -5.845499   1.000000
      7         -2.644229   1.000000
      8          2.008202   1.000000
      9          3.413950   1.000000
     10          4.277897   1.000000
     11          7.994403   0.000000
     12          8.075882   0.000000
     13          9.726036   0.000000
     14         11.638603   0.000000
     15         14.359149   0.000000
     16         15.011444   0.000000
     17         16.601716   0.000000
     18         17.567040   0.000000
     19         18.511183   0.000000
     20         18.581409   0.000000
     21         19.292736   0.000000
     22         20.694709   0.000000
     23         22.002169   0.000000
     24         23.926422   0.000000
     25         24.090188   0.000000
     26         24.620151   0.000000
     27         24.741637   0.000000
     28         25.188392   0.000000
     29         27.017465   0.000000
     30         27.204427   0.000000
     31         27.930392   0.000000
     32         30.083284   0.000000
     33         30.825956   0.000000
     34         32.635693   0.000000
     35         33.220354   0.000000
     36         33.522300   0.000000
 
 -0.4000000E+00 -0.4666667E+00  0.3333333E+00  0.3555556E-02
      1        -19.138231   1.000000
      2        -19.135845   1.000000
      3        -19.127374   1.000000
      4        -19.126310   1.000000
      5        -19.122673   1.000000
      6         -5.725803   1.000000
      7         -2.598840   1.000000
      8          1.570110   1.000000
      9          2.863649   1.000000
     10          4.581812   1.000000
     11          7.415036   0.000000
     12          9.052084   0.000000
     13         10.297155   0.000000
     14         11.679940   0.000000
     15         13.459544   0.000000
     16         15.377117   0.000000
     17         16.825580   0.000000
     18         17.897160   0.000000
     19         18.210200   0.000000
     20         18.987637   0.000000
     21         19.736357   0.000000
     22         21.081153   0.000000
     23         22.593361   0.000000
     24         23.088628   0.000000
     25         23.807621   0.000000
     26         24.134772   0.000000
     27         24.763788   0.000000
     28         25.486880   0.000000
     29         26.309472   0.000000
     30         27.428292   0.000000
     31         27.800729   0.000000
     32         29.083019   0.000000
     33         31.342065   0.000000
     34         31.583817   0.000000
     35         32.554042   0.000000
     36         34.370742   0.000000
 
 -0.4000000E+00 -0.4000000E+00  0.3333333E+00  0.1777778E-02
      1        -19.138403   1.000000
      2        -19.135568   1.000000
      3        -19.127521   1.000000
      4        -19.126333   1.000000
      5        -19.122538   1.000000
      6         -5.656887   1.000000
      7         -2.570745   1.000000
      8          1.220916   1.000000
      9          3.223219   1.000000
     10          3.972832   1.000000
     11          8.277254   0.000000
     12          8.405936   0.000000
     13         10.842122   0.000000
     14         11.542038   0.000000
     15         13.820482   0.000000
     16         14.500389   0.000000
     17         16.692821   0.000000
     18         18.656766   0.000000
     19         18.884142   0.000000
     20         19.301977   0.000000
     21         19.449565   0.000000
     22         21.065208   0.000000
     23         22.760079   0.000000
     24         23.113731   0.000000
     25         23.546811   0.000000
     26         24.170261   0.000000
     27         24.313672   0.000000
     28         25.499985   0.000000
     29         25.652104   0.000000
     30         26.721487   0.000000
     31         28.349384   0.000000
     32         30.258075   0.000000
     33         30.328146   0.000000
     34         31.473823   0.000000
     35         33.065742   0.000000
     36         33.662738   0.000000
 
  0.4000000E+00  0.4000000E+00  0.4000000E+00  0.5925926E-03
      1        -19.137224   1.000000
      2        -19.137224   1.000000
      3        -19.126454   1.000000
      4        -19.126454   1.000000
      5        -19.123596   1.000000
      6         -6.267103   1.000000
      7         -2.597008   1.000000
      8          4.301995   1.000000
      9          4.301995   1.000000
     10          5.307277   1.000000
     11          6.748645   0.000000
     12          6.748645   0.000000
     13          7.213096   0.000000
     14         12.799288   0.000000
     15         14.235151   0.000000
     16         14.235151   0.000000
     17         16.416936   0.000000
     18         17.366234   0.000000
     19         17.366234   0.000000
     20         19.007862   0.000000
     21         19.007862   0.000000
     22         19.499666   0.000000
     23         20.949694   0.000000
     24         23.293127   0.000000
     25         23.293127   0.000000
     26         24.938419   0.000000
     27         26.095501   0.000000
     28         28.643222   0.000000
     29         29.794140   0.000000
     30         29.794140   0.000000
     31         30.103223   0.000000
     32         30.103223   0.000000
     33         31.858378   0.000000
     34         32.671493   0.000000
     35         32.671493   0.000000
     36         33.531828   0.000000
 
  0.4666667E+00  0.4000000E+00  0.4000000E+00  0.1777778E-02
      1        -19.137300   1.000000
      2        -19.137178   1.000000
      3        -19.126478   1.000000
      4        -19.126428   1.000000
      5        -19.123495   1.000000
      6         -6.167190   1.000000
      7         -2.699546   1.000000
      8          3.633174   1.000000
      9          4.338141   1.000000
     10          5.517921   1.000000
     11          6.583058   0.000000
     12          6.644673   0.000000
     13          7.910871   0.000000
     14         12.840980   0.000000
     15         14.056052   0.000000
     16         15.263624   0.000000
     17         15.579765   0.000000
     18         17.023472   0.000000
     19         17.685235   0.000000
     20         18.691074   0.000000
     21         20.136526   0.000000
     22         20.166271   0.000000
     23         21.489991   0.000000
     24         22.144591   0.000000
     25         23.216077   0.000000
     26         24.464169   0.000000
     27         25.880327   0.000000
     28         27.664760   0.000000
     29         28.708104   0.000000
     30         29.689698   0.000000
     31         30.487475   0.000000
     32         31.045409   0.000000
     33         31.517869   0.000000
     34         31.571253   0.000000
     35         32.621231   0.000000
     36         33.277638   0.000000
 
 -0.4666667E+00  0.4000000E+00  0.4000000E+00  0.1777778E-02
      1        -19.137541   1.000000
      2        -19.136835   1.000000
      3        -19.126626   1.000000
      4        -19.126466   1.000000
      5        -19.123265   1.000000
      6         -6.020128   1.000000
      7         -2.725587   1.000000
      8          2.728088   1.000000
      9          4.043090   1.000000
     10          5.143732   1.000000
     11          7.003377   0.000000
     12          7.071288   0.000000
     13          8.927883   0.000000
     14         12.773621   0.000000
     15         14.027339   0.000000
     16         14.281859   0.000000
     17         16.421091   0.000000
     18         17.185531   0.000000
     19         18.099565   0.000000
     20         18.590781   0.000000
     21         20.898875   0.000000
     22         21.034580   0.000000
     23         21.522586   0.000000
     24         21.821588   0.000000
     25         23.207829   0.000000
     26         24.144344   0.000000
     27         26.138281   0.000000
     28         26.138536   0.000000
     29         27.420907   0.000000
     30         29.082496   0.000000
     31         29.501524   0.000000
     32         30.061839   0.000000
     33         30.932017   0.000000
     34         32.792370   0.000000
     35         32.817981   0.000000
     36         33.545620   0.000000
 
 -0.4000000E+00  0.4000000E+00  0.4000000E+00  0.1777778E-02
      1        -19.137927   1.000000
      2        -19.136266   1.000000
      3        -19.127012   1.000000
      4        -19.126416   1.000000
      5        -19.122933   1.000000
      6         -5.842022   1.000000
      7         -2.678078   1.000000
      8          1.896619   1.000000
      9          3.626186   1.000000
     10          4.550272   1.000000
     11          7.600540   0.000000
     12          7.795970   0.000000
     13          9.938078   0.000000
     14         12.359013   0.000000
     15         13.655828   0.000000
     16         14.168652   0.000000
     17         16.663207   0.000000
     18         17.923840   0.000000
     19         18.610713   0.000000
     20         18.957753   0.000000
     21         19.944504   0.000000
     22         21.300852   0.000000
     23         22.163068   0.000000
     24         22.757100   0.000000
     25         23.735650   0.000000
     26         24.010998   0.000000
     27         24.612200   0.000000
     28         25.705086   0.000000
     29         27.333066   0.000000
     30         27.357637   0.000000
     31         27.919068   0.000000
     32         30.136509   0.000000
     33         30.951011   0.000000
     34         32.626268   0.000000
     35         33.205036   0.000000
     36         33.311881   0.000000
 
  0.4666667E+00  0.4666667E+00  0.4000000E+00  0.1777778E-02
      1        -19.137415   1.000000
      2        -19.137123   1.000000
      3        -19.126519   1.000000
      4        -19.126315   1.000000
      5        -19.123475   1.000000
      6         -6.113451   1.000000
      7         -2.794864   1.000000
      8          3.840464   1.000000
      9          4.091350   1.000000
     10          5.375440   1.000000
     11          6.590252   0.000000
     12          6.952199   0.000000
     13          7.690828   0.000000
     14         12.868201   0.000000
     15         14.656429   0.000000
     16         15.326254   0.000000
     17         15.708730   0.000000
     18         16.245181   0.000000
     19         17.608509   0.000000
     20         19.224900   0.000000
     21         20.103674   0.000000
     22         20.772912   0.000000
     23         21.253628   0.000000
     24         22.265053   0.000000
     25         23.017367   0.000000
     26         23.840122   0.000000
     27         25.319412   0.000000
     28         27.749205   0.000000
     29         28.786534   0.000000
     30         29.677935   0.000000
     31         30.512494   0.000000
     32         31.049799   0.000000
     33         31.337100   0.000000
     34         31.504718   0.000000
     35         32.782861   0.000000
     36         33.252375   0.000000
 
 -0.4666667E+00  0.4666667E+00  0.4000000E+00  0.3555556E-02
      1        -19.137554   1.000000
      2        -19.136918   1.000000
      3        -19.126630   1.000000
      4        -19.126335   1.000000
      5        -19.123318   1.000000
      6         -6.014109   1.000000
      7         -2.807287   1.000000
      8          3.118472   1.000000
      9          3.837402   1.000000
     10          5.340396   1.000000
     11          6.518843   0.000000
     12          7.518453   0.000000
     13          8.423724   0.000000
     14         12.735853   0.000000
     15         14.231833   0.000000
     16         15.173915   0.000000
     17         15.889725   0.000000
     18         16.933907   0.000000
     19         17.825893   0.000000
     20         19.038753   0.000000
     21         20.260276   0.000000
     22         20.958594   0.000000
     23         21.542743   0.000000
     24         22.381365   0.000000
     25         23.357846   0.000000
     26         23.535496   0.000000
     27         25.371546   0.000000
     28         26.566117   0.000000
     29         28.397080   0.000000
     30         28.635898   0.000000
     31         29.437087   0.000000
     32         30.797569   0.000000
     33         31.309253   0.000000
     34         32.013495   0.000000
     35         32.214586   0.000000
     36         34.081304   0.000000
 
 -0.4000000E+00  0.4666667E+00  0.4000000E+00  0.3555556E-02
      1        -19.137828   1.000000
      2        -19.136474   1.000000
      3        -19.126913   1.000000
      4        -19.126354   1.000000
      5        -19.123041   1.000000
      6         -5.879796   1.000000
      7         -2.737528   1.000000
      8          2.304885   1.000000
      9          3.338352   1.000000
     10          5.093287   1.000000
     11          6.779418   0.000000
     12          8.343002   0.000000
     13          9.362079   0.000000
     14         12.423089   0.000000
     15         13.466681   0.000000
     16         15.168626   0.000000
     17         16.375963   0.000000
     18         17.890184   0.000000
     19         18.049148   0.000000
     20         18.985874   0.000000
     21         19.473825   0.000000
     22         21.421587   0.000000
     23         22.173069   0.000000
     24         22.557143   0.000000
     25         23.384971   0.000000
     26         24.338046   0.000000
     27         24.935960   0.000000
     28         25.994987   0.000000
     29         27.221171   0.000000
     30         27.475537   0.000000
     31         28.856677   0.000000
     32         29.372219   0.000000
     33         31.245765   0.000000
     34         32.115754   0.000000
     35         33.433587   0.000000
     36         33.908910   0.000000
 
 -0.4666667E+00 -0.4666667E+00  0.4000000E+00  0.1777778E-02
      1        -19.137663   1.000000
      2        -19.136779   1.000000
      3        -19.126722   1.000000
      4        -19.126305   1.000000
      5        -19.123240   1.000000
      6         -5.965602   1.000000
      7         -2.811231   1.000000
      8          2.848425   1.000000
      9          3.843601   1.000000
     10          4.912517   1.000000
     11          7.272205   0.000000
     12          7.274674   0.000000
     13          8.717393   0.000000
     14         12.569375   0.000000
     15         14.353885   0.000000
     16         14.898488   0.000000
     17         16.176240   0.000000
     18         17.044643   0.000000
     19         18.020911   0.000000
     20         19.375199   0.000000
     21         19.557162   0.000000
     22         20.800144   0.000000
     23         22.029849   0.000000
     24         22.833884   0.000000
     25         23.042384   0.000000
     26         23.830766   0.000000
     27         25.200503   0.000000
     28         26.249635   0.000000
     29         27.465143   0.000000
     30         28.880272   0.000000
     31         29.352392   0.000000
     32         30.085072   0.000000
     33         30.898070   0.000000
     34         32.843778   0.000000
     35         32.845331   0.000000
     36         33.665196   0.000000
 
  0.4666667E+00  0.4666667E+00  0.4666667E+00  0.5925926E-03
      1        -19.137319   1.000000
      2        -19.137319   1.000000
      3        -19.126345   1.000000
      4        -19.126345   1.000000
      5        -19.123543   1.000000
      6         -6.106397   1.000000
      7         -2.892209   1.000000
      8          4.341514   1.000000
      9          4.341514   1.000000
     10          5.384259   1.000000
     11          6.584049   0.000000
     12          6.584049   0.000000
     13          7.088564   0.000000
     14         13.387099   0.000000
     15         15.089514   0.000000
     16         15.089514   0.000000
     17         15.801439   0.000000
     18         16.353434   0.000000
     19         16.353434   0.000000
     20         20.317183   0.000000
     21         20.317183   0.000000
     22         21.113539   0.000000
     23         21.826410   0.000000
     24         21.826410   0.000000
     25         21.836778   0.000000
     26         23.195282   0.000000
     27         24.750958   0.000000
     28         28.762208   0.000000
     29         29.973875   0.000000
     30         29.973875   0.000000
     31         30.323514   0.000000
     32         30.323514   0.000000
     33         32.134800   0.000000
     34         32.386095   0.000000
     35         32.386095   0.000000
     36         33.208326   0.000000
 
 -0.4666667E+00  0.4666667E+00  0.4666667E+00  0.1777778E-02
      1        -19.137404   1.000000
      2        -19.137197   1.000000
      3        -19.126418   1.000000
      4        -19.126343   1.000000
      5        -19.123462   1.000000
      6         -6.055325   1.000000
      7         -2.897723   1.000000
      8          3.740769   1.000000
      9          4.223024   1.000000
     10          5.438629   1.000000
     11          6.574578   0.000000
     12          6.729127   0.000000
     13          7.735826   0.000000
     14         13.246988   0.000000
     15         14.912639   0.000000
     16         14.932973   0.000000
     17         15.760137   0.000000
     18         16.632136   0.000000
     19         16.817781   0.000000
     20         19.872444   0.000000
     21         20.590752   0.000000
     22         21.374400   0.000000
     23         21.603744   0.000000
     24         21.732753   0.000000
     25         22.606353   0.000000
     26         22.947584   0.000000
     27         24.771358   0.000000
     28         27.791667   0.000000
     29         28.863358   0.000000
     30         29.779153   0.000000
     31         30.553181   0.000000
     32         30.920467   0.000000
     33         31.325303   0.000000
     34         31.558412   0.000000
     35         32.695619   0.000000
     36         33.260464   0.000000
