Generated by VASPKIT code               
   1.00000000000000     
     2.0944933972334852    1.2092563267086462    3.6790257847600398
    -2.0944933972334852    1.2092563267086462    3.6790257847600398
     0.0000000000000000   -2.4185126534172925    3.6790257847600398
  Ge_d/944b26c40  Te/e13b0861f25
               1               1
Direct
  0.9947419246179212  0.9947419246179212  0.9947419246179212
  0.5262580753820725  0.5262580753820725  0.5262580753820725
 
  0.00000000E+00  0.00000000E+00  0.00000000E+00
  0.00000000E+00  0.00000000E+00  0.00000000E+00
