  PAW_PBE Ge_d 03Jul2007                 
   14.0000000000000     
 parameters from PSCTR are:
   SHA256 =  944b26c40d2d7c4f4eb1ff3a2e8dbfdd7129146276cd341854bfd5c0e57780ed Ge_d/POTCAR
   COPYR  = (c) Copyright 03Jul2007 Georg Kresse
   COPYR  = This file is part of the software VASP. Any use, copying, and all other rights are regulated by the VASP license agreement.
   COPYR  = If you do not have a valid VASP license, you may not use, copy or distribute this file.
   VRHFIN =Ge: 3d4s4p
   LEXCH  = PE
   EATOM  =  2596.2402 eV,  190.8183 Ry

   TITEL  = PAW_PBE Ge_d 03Jul2007
   LULTRA =        F    use ultrasoft PP ?
   IUNSCR =        1    unscreen: 0-lin 1-nonlin 2-no
   RPACOR =    2.000    partial core radius
   POMASS =   72.610; ZVAL   =   14.000    mass and valenz
   RCORE  =    2.300    outmost cutoff radius
   RWIGS  =    2.300; RWIGS  =    1.217    wigner-seitz radius (au A)
   ENMAX  =  310.294; ENMIN  =  232.720 eV
   ICORE  =        3    local potential
   LCOR   =        T    correct aug charges
   LPAW   =        T    paw PP
   EAUG   =  531.356
   DEXC   =    0.000
   RMAX   =    2.342    core radius for proj-oper
   RAUG   =    1.300    factor for augmentation sphere
   RDEP   =    2.318    radius for radial grids
   RDEPT  =    1.783    core radius for aug-charge
 
   Atomic configuration
    9 entries
     n  l   j            E        occ.
     1  0  0.50    -10959.8463   2.0000
     2  0  0.50     -1371.6056   2.0000
     2  1  1.50     -1198.4791   6.0000
     3  0  0.50      -168.4733   2.0000
     3  1  1.50      -115.6019   6.0000
     3  2  2.50       -29.3106  10.0000
     4  0  0.50       -11.7309   2.0000
     4  1  0.50        -3.8952   2.0000
     4  3  2.50        -4.0817   0.0000
   Description
     l       E           TYP  RCUT    TYP  RCUT
     2    -29.3105938     23  2.200
     2    -13.6058260     23  2.200
     0    -11.7309493     23  2.300
     0     -7.4578696     23  2.300
     1     -3.8952261     23  2.300
     1      6.1178114     23  2.300
     3     -1.3605826     23  2.300
   Error from kinetic energy argument (eV)
   NDATA  =      100
   STEP   =   20.000   1.050
  74.3      72.9      72.2      70.8      70.1      68.8      67.5      66.9
  65.6      64.4      63.8      62.6      61.4      60.1      58.9      57.7
  56.4      55.1      53.8      51.8      50.4      49.0      46.8      45.4
  43.9      41.6      39.2      37.7      35.3      33.0      30.6      28.3
  26.1      23.9      21.7      19.7      17.1      15.3      13.1      11.5
  9.63      7.96      6.49      5.22      4.14      3.23      2.48      1.74
  1.28     0.845     0.537     0.363     0.215     0.123     0.629E-01 0.391E-01
 0.289E-01 0.253E-01 0.250E-01 0.243E-01 0.222E-01 0.188E-01 0.148E-01 0.103E-01
 0.715E-02 0.463E-02 0.327E-02 0.273E-02 0.259E-02 0.255E-02 0.236E-02 0.197E-02
 0.150E-02 0.107E-02 0.735E-03 0.586E-03 0.532E-03 0.520E-03 0.482E-03 0.408E-03
 0.305E-03 0.219E-03 0.171E-03 0.154E-03 0.149E-03 0.135E-03 0.109E-03 0.795E-04
 0.618E-04 0.562E-04 0.538E-04 0.476E-04 0.362E-04 0.278E-04 0.242E-04 0.232E-04
 0.203E-04 0.159E-04 0.124E-04 0.115E-04
END of PSCTR-controll parameters
 local part
   81.2582175088937     
  0.10463595E+03  0.10463083E+03  0.10460682E+03  0.10456683E+03  0.10451091E+03
  0.10443912E+03  0.10435151E+03  0.10424818E+03  0.10412918E+03  0.10399461E+03
  0.10384454E+03  0.10367905E+03  0.10349820E+03  0.10330207E+03  0.10309073E+03
  0.10286425E+03  0.10262269E+03  0.10236613E+03  0.10209464E+03  0.10180830E+03
  0.10150718E+03  0.10119136E+03  0.10086091E+03  0.10051589E+03  0.10015636E+03
  0.99782388E+02  0.99394007E+02  0.98991259E+02  0.98574173E+02  0.98142770E+02
  0.97697066E+02  0.97237065E+02  0.96762770E+02  0.96274173E+02  0.95771263E+02
  0.95254022E+02  0.94722428E+02  0.94176452E+02  0.93616063E+02  0.93041228E+02
  0.92451909E+02  0.91848070E+02  0.91229674E+02  0.90596690E+02  0.89949088E+02
  0.89286846E+02  0.88609949E+02  0.87918393E+02  0.87212184E+02  0.86491342E+02
  0.85755901E+02  0.85005911E+02  0.84241442E+02  0.83462581E+02  0.82669441E+02
  0.81862155E+02  0.81040883E+02  0.80205812E+02  0.79357158E+02  0.78495166E+02
  0.77620114E+02  0.76732310E+02  0.75832097E+02  0.74919850E+02  0.73995981E+02
  0.73060935E+02  0.72115191E+02  0.71159265E+02  0.70193708E+02  0.69219105E+02
  0.68236076E+02  0.67245275E+02  0.66247388E+02  0.65243132E+02  0.64233255E+02
  0.63218535E+02  0.62199773E+02  0.61177798E+02  0.60153460E+02  0.59127630E+02
  0.58101196E+02  0.57075062E+02  0.56050144E+02  0.55027370E+02  0.54007671E+02
  0.52991985E+02  0.51981249E+02  0.50976398E+02  0.49978362E+02  0.48988059E+02
  0.48006397E+02  0.47034268E+02  0.46072544E+02  0.45122075E+02  0.44183687E+02
  0.43258176E+02  0.42346307E+02  0.41448814E+02  0.40566391E+02  0.39699695E+02
  0.38849339E+02  0.38015896E+02  0.37199889E+02  0.36401798E+02  0.35622050E+02
  0.34861025E+02  0.34119048E+02  0.33396394E+02  0.32693284E+02  0.32009888E+02
  0.31346320E+02  0.30702640E+02  0.30078859E+02  0.29474932E+02  0.28890765E+02
  0.28326210E+02  0.27781073E+02  0.27255113E+02  0.26748039E+02  0.26259521E+02
  0.25789183E+02  0.25336612E+02  0.24901359E+02  0.24482938E+02  0.24080834E+02
  0.23694500E+02  0.23323368E+02  0.22966844E+02  0.22624314E+02  0.22295150E+02
  0.21978709E+02  0.21674339E+02  0.21381380E+02  0.21099170E+02  0.20827045E+02
  0.20564345E+02  0.20310415E+02  0.20064607E+02  0.19826287E+02  0.19594833E+02
  0.19369640E+02  0.19150121E+02  0.18935711E+02  0.18725869E+02  0.18520076E+02
  0.18317842E+02  0.18118704E+02  0.17922230E+02  0.17728016E+02  0.17535693E+02
  0.17344920E+02  0.17155391E+02  0.16966834E+02  0.16779007E+02  0.16591702E+02
  0.16404745E+02  0.16217991E+02  0.16031329E+02  0.15844678E+02  0.15657984E+02
  0.15471224E+02  0.15284402E+02  0.15097545E+02  0.14910707E+02  0.14723962E+02
  0.14537406E+02  0.14351152E+02  0.14165333E+02  0.13980094E+02  0.13795593E+02
  0.13612001E+02  0.13429496E+02  0.13248263E+02  0.13068493E+02  0.12890379E+02
  0.12714117E+02  0.12539899E+02  0.12367917E+02  0.12198359E+02  0.12031404E+02
  0.11867226E+02  0.11705991E+02  0.11547852E+02  0.11392954E+02  0.11241426E+02
  0.11093386E+02  0.10948937E+02  0.10808168E+02  0.10671152E+02  0.10537946E+02
  0.10408591E+02  0.10283113E+02  0.10161518E+02  0.10043801E+02  0.99299375E+01
  0.98198881E+01  0.97135989E+01  0.96110010E+01  0.95120117E+01  0.94165353E+01
  0.93244638E+01  0.92356776E+01  0.91500469E+01  0.90674324E+01  0.89876864E+01
  0.89106543E+01  0.88361752E+01  0.87640832E+01  0.86942091E+01  0.86263808E+01
  0.85604251E+01  0.84961686E+01  0.84334387E+01  0.83720650E+01  0.83118801E+01
  0.82527209E+01  0.81944291E+01  0.81368525E+01  0.80798457E+01  0.80232706E+01
  0.79669977E+01  0.79109060E+01  0.78548842E+01  0.77988306E+01  0.77426537E+01
  0.76862728E+01  0.76296177E+01  0.75726288E+01  0.75152576E+01  0.74574664E+01
  0.73992278E+01  0.73405252E+01  0.72813521E+01  0.72217116E+01  0.71616165E+01
  0.71010884E+01  0.70401575E+01  0.69788618E+01  0.69172466E+01  0.68553638E+01
  0.67932715E+01  0.67310326E+01  0.66687150E+01  0.66063899E+01  0.65441320E+01
  0.64820180E+01  0.64201262E+01  0.63585358E+01  0.62973261E+01  0.62365760E+01
  0.61763628E+01  0.61167624E+01  0.60578478E+01  0.59996892E+01  0.59423533E+01
  0.58859025E+01  0.58303948E+01  0.57758834E+01  0.57224161E+01  0.56700355E+01
  0.56187783E+01  0.55686753E+01  0.55197513E+01  0.54720250E+01  0.54255090E+01
  0.53802100E+01  0.53361283E+01  0.52932586E+01  0.52515897E+01  0.52111049E+01
  0.51717824E+01  0.51335951E+01  0.50965113E+01  0.50604951E+01  0.50255065E+01
  0.49915020E+01  0.49584348E+01  0.49262554E+01  0.48949121E+01  0.48643510E+01
  0.48345170E+01  0.48053538E+01  0.47768046E+01  0.47488123E+01  0.47213202E+01
  0.46942721E+01  0.46676129E+01  0.46412888E+01  0.46152479E+01  0.45894400E+01
  0.45638177E+01  0.45383359E+01  0.45129522E+01  0.44876275E+01  0.44623258E+01
  0.44370143E+01  0.44116638E+01  0.43862486E+01  0.43607465E+01  0.43351389E+01
  0.43094110E+01  0.42835513E+01  0.42575519E+01  0.42314084E+01  0.42051194E+01
  0.41786870E+01  0.41521160E+01  0.41254140E+01  0.40985914E+01  0.40716610E+01
  0.40446375E+01  0.40175379E+01  0.39903808E+01  0.39631864E+01  0.39359760E+01
  0.39087721E+01  0.38815978E+01  0.38544768E+01  0.38274332E+01  0.38004912E+01
  0.37736746E+01  0.37470071E+01  0.37205118E+01  0.36942110E+01  0.36681264E+01
  0.36422783E+01  0.36166861E+01  0.35913679E+01  0.35663404E+01  0.35416187E+01
  0.35172166E+01  0.34931462E+01  0.34694178E+01  0.34460403E+01  0.34230208E+01
  0.34003648E+01  0.33780762E+01  0.33561574E+01  0.33346091E+01  0.33134306E+01
  0.32926200E+01  0.32721738E+01  0.32520875E+01  0.32323554E+01  0.32129708E+01
  0.31939259E+01  0.31752123E+01  0.31568208E+01  0.31387415E+01  0.31209643E+01
  0.31034783E+01  0.30862727E+01  0.30693362E+01  0.30526577E+01  0.30362260E+01
  0.30200298E+01  0.30040582E+01  0.29883003E+01  0.29727457E+01  0.29573842E+01
  0.29422059E+01  0.29272016E+01  0.29123621E+01  0.28976792E+01  0.28831447E+01
  0.28687513E+01  0.28544918E+01  0.28403598E+01  0.28263492E+01  0.28124543E+01
  0.27986699E+01  0.27849913E+01  0.27714137E+01  0.27579332E+01  0.27445458E+01
  0.27312478E+01  0.27180359E+01  0.27049066E+01  0.26918570E+01  0.26788839E+01
  0.26659842E+01  0.26531551E+01  0.26403935E+01  0.26276964E+01  0.26150607E+01
  0.26024831E+01  0.25899604E+01  0.25774892E+01  0.25650661E+01  0.25526874E+01
  0.25403496E+01  0.25280489E+01  0.25157816E+01  0.25035438E+01  0.24913317E+01
  0.24791415E+01  0.24669694E+01  0.24548117E+01  0.24426649E+01  0.24305256E+01
  0.24183907E+01  0.24062572E+01  0.23941225E+01  0.23819844E+01  0.23698411E+01
  0.23576911E+01  0.23455336E+01  0.23333680E+01  0.23211945E+01  0.23090138E+01
  0.22968271E+01  0.22846364E+01  0.22724442E+01  0.22602536E+01  0.22480685E+01
  0.22358933E+01  0.22237332E+01  0.22115940E+01  0.21994819E+01  0.21874038E+01
  0.21753672E+01  0.21633801E+01  0.21514507E+01  0.21395878E+01  0.21278005E+01
  0.21160981E+01  0.21044902E+01  0.20929865E+01  0.20815967E+01  0.20703306E+01
  0.20591977E+01  0.20482075E+01  0.20373692E+01  0.20266915E+01  0.20161828E+01
  0.20058511E+01  0.19957036E+01  0.19857469E+01  0.19759870E+01  0.19664290E+01
  0.19570771E+01  0.19479347E+01  0.19390043E+01  0.19302872E+01  0.19217840E+01
  0.19134940E+01  0.19054155E+01  0.18975457E+01  0.18898808E+01  0.18824159E+01
  0.18751449E+01  0.18680610E+01  0.18611561E+01  0.18544214E+01  0.18478470E+01
  0.18414224E+01  0.18351361E+01  0.18289761E+01  0.18229297E+01  0.18169836E+01
  0.18111241E+01  0.18053372E+01  0.17996087E+01  0.17939240E+01  0.17882688E+01
  0.17826286E+01  0.17769891E+01  0.17713364E+01  0.17656569E+01  0.17599374E+01
  0.17541654E+01  0.17483290E+01  0.17424169E+01  0.17364188E+01  0.17303254E+01
  0.17241280E+01  0.17178194E+01  0.17113933E+01  0.17048443E+01  0.16981687E+01
  0.16913636E+01  0.16844275E+01  0.16773601E+01  0.16701625E+01  0.16628368E+01
  0.16553865E+01  0.16478161E+01  0.16401315E+01  0.16323396E+01  0.16244483E+01
  0.16164666E+01  0.16084044E+01  0.16002724E+01  0.15920822E+01  0.15838460E+01
  0.15755765E+01  0.15672871E+01  0.15589913E+01  0.15507033E+01  0.15424370E+01
  0.15342066E+01  0.15260264E+01  0.15179104E+01  0.15098722E+01  0.15019253E+01
  0.14940828E+01  0.14863569E+01  0.14787595E+01  0.14713016E+01  0.14639935E+01
  0.14568445E+01  0.14498630E+01  0.14430564E+01  0.14364310E+01  0.14299921E+01
  0.14237438E+01  0.14176889E+01  0.14118293E+01  0.14061656E+01  0.14006971E+01
  0.13954221E+01  0.13903377E+01  0.13854398E+01  0.13807232E+01  0.13761819E+01
  0.13718085E+01  0.13675951E+01  0.13635327E+01  0.13596115E+01  0.13558210E+01
  0.13521502E+01  0.13485875E+01  0.13451206E+01  0.13417373E+01  0.13384247E+01
  0.13351701E+01  0.13319603E+01  0.13287824E+01  0.13256236E+01  0.13224713E+01
  0.13193131E+01  0.13161369E+01  0.13129314E+01  0.13096856E+01  0.13063890E+01
  0.13030321E+01  0.12996060E+01  0.12961025E+01  0.12925143E+01  0.12888351E+01
  0.12850594E+01  0.12811826E+01  0.12772014E+01  0.12731130E+01  0.12689159E+01
  0.12646095E+01  0.12601942E+01  0.12556714E+01  0.12510433E+01  0.12463131E+01
  0.12414847E+01  0.12365630E+01  0.12315536E+01  0.12264629E+01  0.12212976E+01
  0.12160654E+01  0.12107743E+01  0.12054328E+01  0.12000499E+01  0.11946346E+01
  0.11891965E+01  0.11837451E+01  0.11782901E+01  0.11728411E+01  0.11674078E+01
  0.11619997E+01  0.11566259E+01  0.11512955E+01  0.11460172E+01  0.11407992E+01
  0.11356493E+01  0.11305750E+01  0.11255829E+01  0.11206793E+01  0.11158699E+01
  0.11111595E+01  0.11065525E+01  0.11020524E+01  0.10976622E+01  0.10933840E+01
  0.10892193E+01  0.10851689E+01  0.10812328E+01  0.10774106E+01  0.10737008E+01
  0.10701016E+01  0.10666104E+01  0.10632243E+01  0.10599396E+01  0.10567521E+01
  0.10536572E+01  0.10506499E+01  0.10477249E+01  0.10448763E+01  0.10420983E+01
  0.10393845E+01  0.10367287E+01  0.10341243E+01  0.10315647E+01  0.10290434E+01
  0.10265537E+01  0.10240892E+01  0.10216435E+01  0.10192104E+01  0.10167837E+01
  0.10143578E+01  0.10119270E+01  0.10094861E+01  0.10070303E+01  0.10045550E+01
  0.10020560E+01  0.99952952E+00  0.99697221E+00  0.99438111E+00  0.99175368E+00
  0.98908780E+00  0.98638179E+00  0.98363437E+00  0.98084470E+00  0.97801234E+00
  0.97513724E+00  0.97221974E+00  0.96926054E+00  0.96626070E+00  0.96322157E+00
  0.96014484E+00  0.95703245E+00  0.95388660E+00  0.95070971E+00  0.94750440E+00
  0.94427345E+00  0.94101981E+00  0.93774653E+00  0.93445676E+00  0.93115371E+00
  0.92784063E+00  0.92452080E+00  0.92119749E+00  0.91787392E+00  0.91455329E+00
  0.91123868E+00  0.90793314E+00  0.90463956E+00  0.90136076E+00  0.89809939E+00
  0.89485799E+00  0.89163893E+00  0.88844444E+00  0.88527659E+00  0.88213726E+00
  0.87902819E+00  0.87595092E+00  0.87290685E+00  0.86989717E+00  0.86692294E+00
  0.86398504E+00  0.86108420E+00  0.85822099E+00  0.85539584E+00  0.85260904E+00
  0.84986078E+00  0.84715108E+00  0.84447988E+00  0.84184700E+00  0.83925216E+00
  0.83669500E+00  0.83417504E+00  0.83169175E+00  0.82924453E+00  0.82683269E+00
  0.82445551E+00  0.82211220E+00  0.81980194E+00  0.81752384E+00  0.81527700E+00
  0.81306046E+00  0.81087324E+00  0.80871430E+00  0.80658259E+00  0.80447702E+00
  0.80239646E+00  0.80033977E+00  0.79830575E+00  0.79629319E+00  0.79430086E+00
  0.79232747E+00  0.79037174E+00  0.78843233E+00  0.78650787E+00  0.78459698E+00
  0.78269823E+00  0.78081018E+00  0.77893134E+00  0.77706021E+00  0.77519527E+00
  0.77333498E+00  0.77147778E+00  0.76962213E+00  0.76776645E+00  0.76590920E+00
  0.76404884E+00  0.76218382E+00  0.76031266E+00  0.75843389E+00  0.75654606E+00
  0.75464781E+00  0.75273781E+00  0.75081482E+00  0.74887766E+00  0.74692527E+00
  0.74495666E+00  0.74297098E+00  0.74096747E+00  0.73894554E+00  0.73690468E+00
  0.73484458E+00  0.73276503E+00  0.73066600E+00  0.72854763E+00  0.72641021E+00
  0.72425420E+00  0.72208024E+00  0.71988915E+00  0.71768191E+00  0.71545967E+00
  0.71322377E+00  0.71097568E+00  0.70871706E+00  0.70644968E+00  0.70417548E+00
  0.70189652E+00  0.69961497E+00  0.69733311E+00  0.69505332E+00  0.69277803E+00
  0.69050978E+00  0.68825110E+00  0.68600460E+00  0.68377286E+00  0.68155847E+00
  0.67936398E+00  0.67719190E+00  0.67504466E+00  0.67292461E+00  0.67083400E+00
  0.66877494E+00  0.66674941E+00  0.66475923E+00  0.66280605E+00  0.66089134E+00
  0.65901635E+00  0.65718213E+00  0.65538949E+00  0.65363903E+00  0.65193109E+00
  0.65026575E+00  0.64864285E+00  0.64706198E+00  0.64552247E+00  0.64402340E+00
  0.64256361E+00  0.64114169E+00  0.63975599E+00  0.63840466E+00  0.63708562E+00
  0.63579659E+00  0.63453512E+00  0.63329857E+00  0.63208417E+00  0.63088900E+00
  0.62971005E+00  0.62854421E+00  0.62738831E+00  0.62623913E+00  0.62509344E+00
  0.62394804E+00  0.62279971E+00  0.62164534E+00  0.62048184E+00  0.61930627E+00
  0.61811579E+00  0.61690769E+00  0.61567945E+00  0.61442873E+00  0.61315338E+00
  0.61185148E+00  0.61052135E+00  0.60916156E+00  0.60777094E+00  0.60634857E+00
  0.60489383E+00  0.60340638E+00  0.60188615E+00  0.60033335E+00  0.59874849E+00
  0.59713235E+00  0.59548598E+00  0.59381070E+00  0.59210808E+00  0.59037994E+00
  0.58862834E+00  0.58685553E+00  0.58506398E+00  0.58325631E+00  0.58143531E+00
  0.57960391E+00  0.57776512E+00  0.57592208E+00  0.57407796E+00  0.57223597E+00
  0.57039935E+00  0.56857132E+00  0.56675507E+00  0.56495372E+00  0.56317032E+00
  0.56140779E+00  0.55966894E+00  0.55795643E+00  0.55627271E+00  0.55462008E+00
  0.55300062E+00  0.55141617E+00  0.54986835E+00  0.54835853E+00  0.54688782E+00
  0.54545707E+00  0.54406686E+00  0.54271749E+00  0.54140899E+00  0.54014112E+00
  0.53891335E+00  0.53772492E+00  0.53657477E+00  0.53546162E+00  0.53438394E+00
  0.53333998E+00  0.53232779E+00  0.53134521E+00  0.53038993E+00  0.52945947E+00
  0.52855122E+00  0.52766246E+00  0.52679036E+00  0.52593204E+00  0.52508456E+00
  0.52424496E+00  0.52341028E+00  0.52257758E+00  0.52174396E+00  0.52090659E+00
  0.52006274E+00  0.51920977E+00  0.51834518E+00  0.51746662E+00  0.51657189E+00
  0.51565896E+00  0.51472602E+00  0.51377143E+00  0.51279378E+00  0.51179187E+00
  0.51076475E+00  0.50971169E+00  0.50863219E+00  0.50752600E+00  0.50639312E+00
  0.50523375E+00  0.50404835E+00  0.50283759E+00  0.50160235E+00  0.50034373E+00
  0.49906301E+00  0.49776165E+00  0.49644128E+00  0.49510369E+00  0.49375079E+00
  0.49238463E+00  0.49100735E+00  0.48962118E+00  0.48822840E+00  0.48683137E+00
  0.48543243E+00  0.48403397E+00  0.48263834E+00  0.48124786E+00  0.47986482E+00
  0.47849143E+00  0.47712982E+00  0.47578204E+00  0.47445001E+00  0.47313554E+00
  0.47184028E+00  0.47056578E+00  0.46931338E+00  0.46808428E+00  0.46687950E+00
  0.46569990E+00  0.46454612E+00  0.46341866E+00  0.46231781E+00  0.46124368E+00
  0.46019620E+00  0.45917514E+00  0.45818008E+00  0.45721045E+00  0.45626551E+00
  0.45534438E+00  0.45444604E+00  0.45356933E+00  0.45271299E+00  0.45187564E+00
  0.45105581E+00  0.45025197E+00  0.44946249E+00  0.44868574E+00  0.44792000E+00
  0.44716357E+00  0.44641472E+00  0.44567174E+00  0.44493293E+00  0.44419660E+00
  0.44346115E+00  0.44272499E+00  0.44198662E+00  0.44124460E+00  0.44049759E+00
  0.43974434E+00  0.43898370E+00  0.43821464E+00  0.43743622E+00  0.43664763E+00
  0.43584819E+00  0.43503734E+00  0.43421461E+00  0.43337970E+00  0.43253240E+00
  0.43167263E+00  0.43080043E+00  0.42991595E+00  0.42901944E+00  0.42811127E+00
  0.42719191E+00  0.42626191E+00  0.42532190E+00  0.42437260E+00  0.42341477E+00
  0.42244927E+00  0.42147696E+00  0.42049879E+00  0.41951569E+00  0.41852867E+00
  0.41753870E+00  0.41654680E+00  0.41555397E+00  0.41456120E+00  0.41356946E+00
  0.41257972E+00  0.41159288E+00  0.41060983E+00  0.40963141E+00  0.40865841E+00
  0.40769156E+00  0.40673154E+00  0.40577898E+00  0.40483443E+00  0.40389840E+00
  0.40297132E+00  0.40205356E+00  0.40114543E+00  0.40024718E+00  0.39935899E+00
  0.39848096E+00  0.39761318E+00  0.39675563E+00  0.39590827E+00  0.39507100E+00
  0.39424367E+00  0.39342611E+00  0.39261808E+00  0.39181933E+00  0.39102957E+00
  0.39024850E+00  0.38947579E+00  0.38871108E+00  0.38795401E+00  0.38720421E+00
  0.38646130E+00  0.38572490E+00  0.38499462E+00  0.38427011E+00  0.38355098E+00
 gradient corrections used for XC
           5
 core charge-density (partial)
  0.31151766E+00  0.31140004E+00  0.31104744E+00  0.31046059E+00  0.30964069E+00
  0.30858945E+00  0.30730904E+00  0.30580210E+00  0.30407173E+00  0.30212148E+00
  0.29995533E+00  0.29757770E+00  0.29499341E+00  0.29220768E+00  0.28922612E+00
  0.28605467E+00  0.28269965E+00  0.27916767E+00  0.27546567E+00  0.27160086E+00
  0.26758071E+00  0.26341291E+00  0.25910539E+00  0.25466625E+00  0.25010377E+00
  0.24542636E+00  0.24064256E+00  0.23576098E+00  0.23079032E+00  0.22573932E+00
  0.22061674E+00  0.21543132E+00  0.21019180E+00  0.20490686E+00  0.19958511E+00
  0.19423506E+00  0.18886511E+00  0.18348353E+00  0.17809844E+00  0.17271778E+00
  0.16734931E+00  0.16200058E+00  0.15667892E+00  0.15139143E+00  0.14614495E+00
  0.14094608E+00  0.13580112E+00  0.13071613E+00  0.12569683E+00  0.12074869E+00
  0.11587684E+00  0.11108611E+00  0.10638103E+00  0.10176581E+00  0.97244322E-01
  0.92820136E-01  0.88496496E-01  0.84276330E-01  0.80162247E-01  0.76156544E-01
  0.72261208E-01  0.68477920E-01  0.64808063E-01  0.61252726E-01  0.57812715E-01
  0.54488553E-01  0.51280499E-01  0.48188546E-01  0.45212440E-01  0.42351682E-01
  0.39605546E-01  0.36973081E-01  0.34453131E-01  0.32044340E-01  0.29745166E-01
  0.27553891E-01  0.25468636E-01  0.23487369E-01  0.21607919E-01  0.19827990E-01
  0.18145166E-01  0.16556929E-01  0.15060669E-01  0.13653695E-01  0.12333244E-01
  0.11096495E-01  0.99405779E-02  0.88625856E-02  0.78595814E-02  0.69286105E-02
  0.60667086E-02  0.52709109E-02  0.45382607E-02  0.38658175E-02  0.32506644E-02
  0.26899154E-02  0.21807225E-02  0.17202815E-02  0.13058383E-02  0.93469403E-03
  0.60421027E-03  0.31181342E-03  0.54998845E-04 -0.16866551E-03 -0.36153586E-03
 -0.52588983E-03 -0.66392403E-03 -0.77775212E-03 -0.86940315E-03 -0.94082042E-03
 -0.99386056E-03 -0.10302930E-02 -0.10518000E-02 -0.10599764E-02 -0.10563303E-02
 -0.10422840E-02 -0.10191744E-02 -0.98825487E-03 -0.95069612E-03 -0.90758829E-03
 -0.85994267E-03 -0.80869371E-03 -0.75470126E-03 -0.69875291E-03 -0.64156643E-03
 -0.58379237E-03 -0.52601673E-03 -0.46876367E-03 -0.41249837E-03 -0.35762982E-03
 -0.30451376E-03 -0.25345555E-03 -0.20471309E-03 -0.15849974E-03 -0.11498720E-03
 -0.74308333E-04 -0.36560053E-04 -0.18060505E-05  0.29920476E-04  0.58614166E-04
  0.84294917E-04  0.10700538E-03  0.12680855E-03  0.14378542E-03  0.15803276E-03
  0.16966097E-03  0.17879205E-03  0.18555768E-03  0.19009734E-03  0.19255665E-03
  0.19308573E-03  0.19183769E-03  0.18896724E-03  0.18462940E-03  0.17897829E-03
  0.17216610E-03  0.16434206E-03  0.15565159E-03  0.14623551E-03  0.13622936E-03
  0.12576278E-03  0.11495906E-03  0.10393462E-03  0.92798773E-04  0.81653383E-04
  0.70592702E-04  0.59703232E-04  0.49063668E-04  0.38744889E-04  0.28810009E-04
  0.19314482E-04  0.10306243E-04  0.18259038E-05 -0.60930241E-05 -0.13423868E-04
 -0.20146506E-04 -0.26247046E-04 -0.31717497E-04 -0.36555408E-04 -0.40763504E-04
 -0.44349300E-04 -0.47324721E-04 -0.49705705E-04 -0.51511809E-04 -0.52765821E-04
 -0.53493367E-04 -0.53722530E-04 -0.53483475E-04 -0.52808085E-04 -0.51729604E-04
 -0.50282306E-04 -0.48501161E-04 -0.46421536E-04 -0.44078894E-04 -0.41508531E-04
 -0.38745313E-04 -0.35823446E-04 -0.32776256E-04 -0.29635998E-04 -0.26433678E-04
 -0.23198896E-04 -0.19959710E-04 -0.16742521E-04 -0.13571976E-04 -0.10470884E-04
 -0.74601603E-05 -0.45587805E-05 -0.17837533E-05  0.84989072E-06  0.33290952E-05
  0.56427607E-05  0.77817137E-05  0.97386641E-05  0.11508151E-04  0.13086480E-04
  0.14471646E-04  0.15663258E-04  0.16662446E-04  0.17471770E-04  0.18095119E-04
  0.18537608E-04  0.18805471E-04  0.18905954E-04  0.18847206E-04  0.18638164E-04
  0.18288447E-04  0.17808247E-04  0.17208220E-04  0.16499381E-04  0.15693004E-04
  0.14800522E-04  0.13833435E-04  0.12803219E-04  0.11721239E-04  0.10598676E-04
  0.94464454E-05  0.82751341E-05  0.70949362E-05  0.59155970E-05  0.47463631E-05
  0.35959385E-05  0.24724470E-05  0.13834003E-05  0.33567298E-06 -0.66451764E-06
 -0.16116249E-05 -0.25007812E-05 -0.33278011E-05 -0.40891789E-05 -0.47820817E-05
 -0.54043379E-05 -0.59544213E-05 -0.64314314E-05 -0.68350697E-05 -0.71656139E-05
 -0.74238874E-05 -0.76112280E-05 -0.77294529E-05 -0.77808232E-05 -0.77680058E-05
 -0.76940344E-05 -0.75622701E-05 -0.73763609E-05 -0.71402014E-05 -0.68578922E-05
 -0.65336997E-05 -0.61720171E-05 -0.57773258E-05 -0.53541573E-05 -0.49070582E-05
 -0.44405544E-05 -0.39591195E-05 -0.34671426E-05 -0.29689002E-05 -0.24685287E-05
 -0.19700001E-05 -0.14770993E-05 -0.99340432E-06 -0.52226854E-06 -0.66805393E-07
  0.37012438E-06  0.78592319E-06  0.11782647E-05  0.15450993E-05  0.18846582E-05
  0.21954538E-05  0.24762796E-05  0.27262071E-05  0.29445808E-05  0.31310120E-05
  0.32853704E-05  0.34077743E-05  0.34985794E-05  0.35583664E-05  0.35879275E-05
  0.35882517E-05  0.35605094E-05  0.35060364E-05  0.34263171E-05  0.33229676E-05
  0.31977182E-05  0.30523961E-05  0.28889078E-05  0.27092218E-05  0.25153515E-05
  0.23093384E-05  0.20932359E-05  0.18690934E-05  0.16389412E-05  0.14047766E-05
  0.11685495E-05  0.93215058E-06  0.69739900E-06  0.46603184E-06  0.23969429E-06
  0.19930951E-07 -0.19182180E-06 -0.39424237E-06 -0.58612942E-06 -0.76640625E-06
 -0.93412405E-06 -0.10884642E-05 -0.12287396E-05 -0.13543944E-05 -0.14650038E-05
 -0.15602721E-05 -0.16400300E-05 -0.17042314E-05 -0.17529491E-05 -0.17863699E-05
 -0.18047891E-05 -0.18086043E-05 -0.17983089E-05 -0.17744845E-05 -0.17377939E-05
 -0.16889732E-05 -0.16288234E-05 -0.15582023E-05 -0.14780161E-05 -0.13892112E-05
 -0.12927651E-05 -0.11896789E-05 -0.10809682E-05 -0.96765573E-06 -0.85076304E-06
 -0.73130323E-06 -0.61027362E-06 -0.48864890E-06 -0.36737473E-06 -0.24736166E-06
 -0.12947962E-06 -0.14552872E-07  0.96644587E-07  0.20339301E-06  0.30503041E-06
  0.40095551E-06  0.49063016E-06  0.57358117E-06  0.64940166E-06  0.71775184E-06
  0.77835931E-06  0.83101878E-06  0.87559143E-06  0.91200367E-06  0.94024556E-06
  0.96036880E-06  0.97248427E-06  0.97675933E-06  0.97341465E-06  0.96272094E-06
  0.94499520E-06  0.92059697E-06  0.88992422E-06  0.85340920E-06  0.81151411E-06
  0.76472671E-06  0.71355592E-06  0.65852734E-06  0.60017882E-06  0.53905613E-06
  0.47570861E-06  0.41068502E-06  0.34452949E-06  0.27777762E-06  0.21095279E-06
  0.14456265E-06  0.79095880E-07  0.15019118E-07 -0.47225779E-07 -0.10722426E-06
 -0.16459130E-06 -0.21897336E-06 -0.27005001E-06 -0.31753532E-06 -0.36117891E-06
 -0.40076671E-06 -0.43612148E-06 -0.46710296E-06 -0.49360782E-06 -0.51556933E-06
 -0.53295671E-06 -0.54577429E-06 -0.55406046E-06 -0.55788635E-06 -0.55735432E-06
 -0.55259627E-06 -0.54377182E-06 -0.53106629E-06 -0.51468856E-06 -0.49486885E-06
 -0.47185640E-06 -0.44591701E-06 -0.41733068E-06 -0.38638904E-06 -0.35339291E-06
 -0.31864977E-06 -0.28247131E-06 -0.24517102E-06 -0.20706178E-06 -0.16845359E-06
 -0.12965132E-06 -0.90952667E-07 -0.52646096E-07 -0.15008991E-07  0.21694085E-07
  0.57212984E-07  0.91313422E-07  0.12377826E-06  0.15440865E-06  0.18302495E-06
  0.20946756E-06  0.23359752E-06  0.25529700E-06  0.27446951E-06  0.29104011E-06
  0.30495532E-06  0.31618293E-06  0.32471166E-06  0.33055067E-06  0.33372892E-06
  0.33429444E-06  0.33231345E-06  0.32786933E-06  0.32106162E-06  0.31200478E-06
  0.30082695E-06  0.28766868E-06  0.27268149E-06  0.25602651E-06  0.23787301E-06
  0.21839692E-06  0.19777937E-06  0.17620520E-06  0.15386152E-06  0.13093620E-06
  0.10761657E-06  0.84087927E-07  0.60532316E-07  0.37127213E-07  0.14044354E-07
 -0.85513900E-08 -0.30503055E-07 -0.51662535E-07 -0.71891451E-07 -0.91061919E-07
 -0.10905723E-06 -0.12577242E-06 -0.14111474E-06 -0.15500404E-06 -0.16737303E-06
 -0.17816747E-06 -0.18734618E-06 -0.19488110E-06 -0.20075709E-06 -0.20497174E-06
 -0.20753507E-06 -0.20846917E-06 -0.20780765E-06 -0.20559521E-06 -0.20188695E-06
 -0.19674772E-06 -0.19025143E-06 -0.18248025E-06 -0.17352380E-06 -0.16347831E-06
 -0.15244573E-06 -0.14053287E-06 -0.12785043E-06 -0.11451217E-06 -0.10063391E-06
 -0.86332684E-07 -0.71725806E-07 -0.56930025E-07 -0.42060659E-07 -0.27230784E-07
 -0.12550450E-07  0.18740576E-08  0.15940913E-07  0.29553396E-07  0.42620480E-07
  0.55057373E-07  0.66785994E-07  0.77735386E-07  0.87842073E-07  0.97050352E-07
  0.10531252E-06  0.11258903E-06  0.11884860E-06  0.12406824E-06  0.12823324E-06
  0.13133708E-06  0.13338124E-06  0.13437510E-06  0.13433560E-06  0.13328695E-06
  0.13126033E-06  0.12829345E-06  0.12443014E-06  0.11971987E-06  0.11421729E-06
  0.10798165E-06  0.10107632E-06  0.93568162E-07  0.85527012E-07  0.77025066E-07
  0.68136300E-07  0.58935881E-07  0.49499589E-07  0.39903239E-07  0.30222122E-07
  0.20530459E-07  0.10900881E-07  0.14039239E-08 -0.78924441E-08 -0.16923266E-07
 -0.25627008E-07 -0.33945939E-07 -0.41826471E-07 -0.49219464E-07 -0.56080488E-07
 -0.62370046E-07 -0.68053761E-07 -0.73102510E-07 -0.77492530E-07 -0.81205469E-07
 -0.84228407E-07 -0.86553829E-07 -0.88179566E-07 -0.89108689E-07 -0.89349375E-07
 -0.88914735E-07 -0.87822610E-07 -0.86095334E-07 -0.83759477E-07 -0.80845549E-07
 -0.77387699E-07 -0.73423375E-07 -0.68992984E-07 -0.64139526E-07 -0.58908221E-07
 -0.53346130E-07 -0.47501764E-07 -0.41424698E-07 -0.35165184E-07 -0.28773758E-07
 -0.22300870E-07 -0.15796506E-07 -0.93098346E-08 -0.28888549E-08  0.34199279E-08
  0.95718173E-08  0.15524217E-07  0.21236901E-07  0.26672261E-07  0.31795530E-07
  0.36574982E-07  0.40982096E-07  0.44991708E-07  0.48582123E-07  0.51735204E-07
  0.54436431E-07  0.56674938E-07  0.58443513E-07  0.59738578E-07  0.60560142E-07
  0.60911725E-07  0.60800264E-07  0.60235987E-07  0.59232274E-07  0.57805494E-07
  0.55974820E-07  0.53762034E-07  0.51191315E-07  0.48289005E-07  0.45083377E-07
  0.41604386E-07  0.37883414E-07  0.33953007E-07  0.29846615E-07  0.25598326E-07
  0.21242601E-07  0.16814009E-07  0.12346978E-07  0.78755344E-08  0.34330655E-08
 -0.94791625E-09 -0.52359960E-08 -0.94010664E-08 -0.13414524E-07 -0.17249452E-07
 -0.20880783E-07 -0.24285452E-07 -0.27442524E-07 -0.30333307E-07 -0.32941449E-07
 -0.35253010E-07 -0.37256521E-07 -0.38943016E-07 -0.40306057E-07 -0.41341724E-07
 -0.42048602E-07 -0.42427739E-07 -0.42482595E-07 -0.42218964E-07 -0.41644891E-07
 -0.40770571E-07 -0.39608226E-07 -0.38171981E-07 -0.36477724E-07 -0.34542951E-07
 -0.32386611E-07 -0.30028934E-07 -0.27491260E-07 -0.24795861E-07 -0.21965758E-07
 -0.19024535E-07 -0.15996158E-07 -0.12904789E-07 -0.97746024E-08 -0.66296097E-08
 -0.34934828E-08 -0.38938632E-09  0.26601837E-08  0.56335536E-08  0.85100170E-08
  0.11269969E-07  0.13895032E-07  0.16368166E-07  0.18673772E-07  0.20797780E-07
  0.22727724E-07  0.24452804E-07  0.25963939E-07  0.27253795E-07  0.28316815E-07
  0.29149223E-07  0.29749020E-07  0.30115968E-07  0.30251557E-07  0.30158965E-07
  0.29843002E-07  0.29310047E-07  0.28567970E-07  0.27626049E-07  0.26494876E-07
  0.25186254E-07  0.23713089E-07  0.22089272E-07  0.20329566E-07  0.18449473E-07
  0.16465111E-07  0.14393083E-07  0.12250348E-07  0.10054086E-07  0.78215666E-08
  0.55700254E-08  0.33165324E-08  0.10778706E-08 -0.11295826E-08 -0.32899693E-08
 -0.53880592E-08 -0.74093508E-08 -0.93401657E-08 -0.11167735E-07 -0.12880277E-07
 -0.14467070E-07 -0.15918507E-07 -0.17226153E-07 -0.18382784E-07 -0.19382420E-07
 -0.20220346E-07 -0.20893127E-07 -0.21398612E-07 -0.21735924E-07 -0.21905445E-07
 -0.21908798E-07 -0.21748803E-07 -0.21429445E-07 -0.20955819E-07 -0.20334076E-07
 -0.19571359E-07 -0.18675732E-07 -0.17656106E-07 -0.16522160E-07 -0.15284252E-07
 -0.13953339E-07 -0.12540875E-07 -0.11058730E-07 -0.95190844E-08 -0.79343426E-08
 -0.63170322E-08 -0.46797116E-08 -0.30348765E-08 -0.13948685E-08  0.22821303E-09
  0.18225965E-08  0.33769194E-08  0.48803054E-08  0.63224361E-08  0.76936186E-08
  0.89848460E-08  0.10187853E-07  0.11295164E-07  0.12300135E-07  0.13196990E-07
  0.13980850E-07  0.14647750E-07  0.15194658E-07  0.15619480E-07  0.15921059E-07
  0.16099170E-07  0.16154506E-07  0.16088657E-07  0.15904084E-07  0.15604087E-07
  0.15192767E-07  0.14674983E-07  0.14056300E-07  0.13342944E-07  0.12541739E-07
  0.11660047E-07  0.10705711E-07  0.96869829E-08  0.86124580E-08  0.74910074E-08
  0.63317071E-08  0.51437673E-08  0.39364630E-08  0.27190643E-08  0.15007678E-08
  0.29063013E-09 -0.90249652E-09 -0.20700268E-08 -0.32037011E-08 -0.42956414E-08
 -0.53384033E-08 -0.63250241E-08 -0.72490668E-08 -0.81046589E-08 -0.88865269E-08
 -0.95900263E-08 -0.10211165E-07 -0.10746624E-07 -0.11193769E-07 -0.11550661E-07
 -0.11816061E-07 -0.11989424E-07 -0.12070896E-07 -0.12061299E-07 -0.11962119E-07
 -0.11775479E-07 -0.11504118E-07 -0.11151360E-07 -0.10721077E-07 -0.10217658E-07
 -0.96459647E-08 -0.90112877E-08 -0.83193035E-08 -0.75760252E-08 -0.67877528E-08
 -0.59610229E-08 -0.51025566E-08 -0.42192070E-08 -0.33179064E-08 -0.24056145E-08
 -0.14892661E-08 -0.57572065E-09  0.32828754E-09  0.12161969E-08  0.20816643E-08
  0.29186090E-08  0.37212529E-08  0.44841591E-08  0.52022668E-08  0.58709228E-08
  0.64859098E-08  0.70434709E-08  0.75403306E-08  0.79737114E-08  0.83413472E-08
  0.86414921E-08  0.88729258E-08  0.90349543E-08  0.91274076E-08  0.91506328E-08
  0.91054842E-08  0.89933093E-08  0.88159313E-08  0.85756289E-08  0.82751128E-08
  0.79174988E-08  0.75062795E-08  0.70452925E-08  0.65386869E-08  0.59908888E-08
  0.54065636E-08  0.47905788E-08  0.41479649E-08  0.34838756E-08  0.28035484E-08
  0.21122645E-08  0.14153092E-08  0.71793267E-09  0.25312191E-10 -0.65748547E-09
 -0.13255396E-08 -0.19741099E-08 -0.25986687E-08 -0.31949314E-08 -0.37588843E-08
 -0.42868110E-08 -0.47753146E-08 -0.52213391E-08 -0.56221863E-08 -0.59755309E-08
 -0.62794326E-08 -0.65323441E-08 -0.67331178E-08 -0.68810080E-08 -0.69756707E-08
 -0.70171608E-08 -0.70059254E-08 -0.69427955E-08 -0.68289740E-08 -0.66660218E-08
 -0.64558410E-08 -0.62006564E-08 -0.59029939E-08 -0.55656582E-08 -0.51917079E-08
 -0.47844294E-08 -0.43473092E-08 -0.38840059E-08 -0.33983203E-08 -0.28941654E-08
 -0.23755362E-08 -0.18464790E-08 -0.13110605E-08 -0.77333799E-09 -0.23732920E-09
  0.29301670E-09  0.81384727E-09  0.13214339E-08  0.18121977E-08  0.22827336E-08
  0.27298333E-08  0.31505063E-08  0.35419985E-08  0.39018099E-08  0.42277089E-08
  0.45177458E-08  0.47702624E-08  0.49839013E-08  0.51576107E-08  0.52906488E-08
  0.53825848E-08  0.54332976E-08  0.54429726E-08  0.54120963E-08  0.53414484E-08
  0.52320922E-08  0.50853628E-08  0.49028534E-08  0.46864006E-08  0.44380668E-08
  0.41601226E-08  0.38550267E-08  0.35254056E-08  0.31740316E-08  0.28038008E-08
  0.24177096E-08  0.20188316E-08  0.16102936E-08  0.11952522E-08  0.77686956E-09
  0.35829050E-09 -0.57380805E-10 -0.46710305E-09 -0.86791944E-09 -0.12569784E-08
 -0.16315532E-08 -0.19890604E-08 -0.23270771E-08 -0.26433566E-08 -0.29358425E-08
 -0.32026819E-08 -0.34422358E-08 -0.36530884E-08 -0.38340553E-08 -0.39841881E-08
 -0.41027794E-08 -0.41893639E-08 -0.42437194E-08 -0.42658647E-08 -0.42560568E-08
 -0.42147853E-08 -0.41427663E-08 -0.40409338E-08 -0.39104302E-08 -0.37525950E-08
 -0.35689522E-08 -0.33611971E-08 -0.31311812E-08 -0.28808965E-08 -0.26124593E-08
 -0.23280925E-08 -0.20301082E-08 -0.17208895E-08 -0.14028715E-08 -0.10785233E-08
 -0.75032891E-09 -0.42076891E-09 -0.92302090E-10  0.23265235E-09  0.55173216E-09
  0.86264878E-09  0.11632033E-08  0.14513013E-08  0.17249675E-08  0.19823582E-08
  0.22217738E-08  0.24416689E-08  0.26406623E-08  0.28175448E-08  0.29712860E-08
  0.31010395E-08  0.32061473E-08  0.32861417E-08  0.33407466E-08  0.33698773E-08
  0.33736381E-08  0.33523201E-08  0.33063957E-08  0.32365136E-08  0.31434914E-08
  0.30283076E-08  0.28920921E-08  0.27361165E-08  0.25617824E-08  0.23706096E-08
  0.21642237E-08  0.19443423E-08  0.17127616E-08  0.14713418E-08  0.12219928E-08
  0.96665969E-09  0.70730734E-09  0.44590626E-09  0.18441768E-09 -0.75220739E-10
 -0.33110891E-09 -0.58139788E-09 -0.82430287E-09 -0.10581156E-08 -0.12812161E-08
 -0.14920834E-08 -0.16893056E-08 -0.18715890E-08 -0.20377661E-08 -0.21868030E-08
 -0.23178049E-08 -0.24300212E-08 -0.25228497E-08 -0.25958384E-08 -0.26486877E-08
 -0.26812507E-08 -0.26935320E-08 -0.26856861E-08 -0.26580146E-08 -0.26109618E-08
 -0.25451103E-08 -0.24611741E-08 -0.23599928E-08 -0.22425230E-08 -0.21098305E-08
 -0.19630806E-08 -0.18035286E-08 -0.16325094E-08 -0.14514267E-08 -0.12617416E-08
 kinetic energy density (partial)
  0.50462793E+02  0.50443851E+02  0.50387064E+02  0.50292548E+02  0.50160497E+02
  0.49991184E+02  0.49784955E+02  0.49542232E+02  0.49263510E+02  0.48949357E+02
  0.48600411E+02  0.48217377E+02  0.47801026E+02  0.47352193E+02  0.46871774E+02
  0.46360722E+02  0.45820045E+02  0.45250805E+02  0.44654109E+02  0.44031112E+02
  0.43383010E+02  0.42711036E+02  0.42016460E+02  0.41300580E+02  0.40564722E+02
  0.39810235E+02  0.39038487E+02  0.38250861E+02  0.37448753E+02  0.36633565E+02
  0.35806702E+02  0.34969572E+02  0.34123577E+02  0.33270111E+02  0.32410559E+02
  0.31546292E+02  0.30678660E+02  0.29808996E+02  0.28938608E+02  0.28068775E+02
  0.27200748E+02  0.26335747E+02  0.25474954E+02  0.24619516E+02  0.23770540E+02
  0.22929092E+02  0.22096194E+02  0.21272824E+02  0.20459914E+02  0.19658349E+02
  0.18868963E+02  0.18092544E+02  0.17329826E+02  0.16581497E+02  0.15848189E+02
  0.15130486E+02  0.14428920E+02  0.13743971E+02  0.13076069E+02  0.12425595E+02
  0.11792876E+02  0.11178194E+02  0.10581781E+02  0.10003821E+02  0.94444546E+01
  0.89037744E+01  0.83818310E+01  0.78786325E+01  0.73941461E+01  0.69283000E+01
  0.64809847E+01  0.60520553E+01  0.56413322E+01  0.52486042E+01  0.48736290E+01
  0.45161363E+01  0.41758287E+01  0.38523842E+01  0.35454578E+01  0.32546836E+01
  0.29796764E+01  0.27200338E+01  0.24753383E+01  0.22451586E+01  0.20290515E+01
  0.18265641E+01  0.16372351E+01  0.14605965E+01  0.12961756E+01  0.11434960E+01
  0.10020795E+01  0.87144737E+00  0.75112199E+00  0.64062782E+00  0.53949288E+00
  0.44724985E+00  0.36343723E+00  0.28760033E+00  0.21929227E+00  0.15807487E+00
  0.10351949E+00  0.55207735E-01  0.12732179E-01 -0.24303039E-01 -0.56281678E-01
 -0.83574920E-01 -0.10654097E+00 -0.12552470E+00 -0.14085740E+00 -0.15285655E+00
 -0.16182565E+00 -0.16805413E+00 -0.17181732E+00 -0.17337645E+00 -0.17297867E+00
 -0.17085721E+00 -0.16723149E+00 -0.16230732E+00 -0.15627710E+00 -0.14932011E+00
 -0.14160280E+00 -0.13327910E+00 -0.12449075E+00 -0.11536772E+00 -0.10602856E+00
 -0.96580839E-01 -0.87121553E-01 -0.77737580E-01 -0.68506123E-01 -0.59495177E-01
 -0.50763988E-01 -0.42363530E-01 -0.34336970E-01 -0.26720143E-01 -0.19542022E-01
 -0.12825177E-01 -0.65862442E-02 -0.83636889E-03  0.44183460E-02  0.91764083E-02
  0.13440514E-01  0.17217138E-01  0.20516138E-01  0.23350372E-01  0.25735331E-01
  0.27688788E-01  0.29230463E-01  0.30381707E-01  0.31165196E-01  0.31604649E-01
  0.31724565E-01  0.31549968E-01  0.31106180E-01  0.30418603E-01  0.29512529E-01
  0.28412951E-01  0.27144409E-01  0.25730838E-01  0.24195437E-01  0.22560558E-01
  0.20847603E-01  0.19076939E-01  0.17267827E-01  0.15438360E-01  0.13605424E-01
  0.11784656E-01  0.99904273E-02  0.82358281E-02  0.65326663E-02  0.48914742E-02
  0.33215237E-02  0.18308489E-02  0.42627633E-03 -0.88653890E-03 -0.21030713E-02
 -0.32198783E-02 -0.42345489E-02 -0.51456493E-02 -0.59526647E-02 -0.66559396E-02
 -0.72566151E-02 -0.77565659E-02 -0.81583357E-02 -0.84650728E-02 -0.86804654E-02
 -0.88086774E-02 -0.88542856E-02 -0.88222176E-02 -0.87176918E-02 -0.85461588E-02
 -0.83132453E-02 -0.80247006E-02 -0.76863450E-02 -0.73040218E-02 -0.68835517E-02
 -0.64306905E-02 -0.59510897E-02 -0.54502610E-02 -0.49335430E-02 -0.44060721E-02
 -0.38727561E-02 -0.33382518E-02 -0.28069445E-02 -0.22829323E-02 -0.17700119E-02
 -0.12716689E-02 -0.79106938E-03 -0.33105565E-03  0.10585624E-03  0.51747616E-03
  0.90193732E-03  0.12576915E-02  0.15835022E-02  0.18784360E-02  0.21418523E-02
  0.23733912E-02  0.25729606E-02  0.27407214E-02  0.28770725E-02  0.29826341E-02
  0.30582310E-02  0.31048749E-02  0.31237468E-02  0.31161784E-02  0.30836344E-02
  0.30276938E-02  0.29500321E-02  0.28524037E-02  0.27366243E-02  0.26045540E-02
  0.24580809E-02  0.22991060E-02  0.21295276E-02  0.19512275E-02  0.17660578E-02
  0.15758286E-02  0.13822964E-02  0.11871537E-02  0.99201990E-03  0.79843257E-03
  0.60784021E-03  0.42159588E-03  0.24095190E-03  0.67055457E-04 -0.99054697E-04
 -0.25645066E-03 -0.40431683E-03 -0.54195050E-03 -0.66876159E-03 -0.78427152E-03
 -0.88811144E-03 -0.98001961E-03 -0.10598382E-02 -0.11275097E-02 -0.11830720E-02
 -0.12266542E-02 -0.12584711E-02 -0.12788172E-02 -0.12880614E-02 -0.12866400E-02
 -0.12750509E-02 -0.12538470E-02 -0.12236289E-02 -0.11850390E-02 -0.11387542E-02
 -0.10854796E-02 -0.10259418E-02 -0.96088237E-03 -0.89105204E-03 -0.81720427E-03
 -0.74008970E-03 -0.66045062E-03 -0.57901580E-03 -0.49649567E-03 -0.41357780E-03
 -0.33092278E-03 -0.24916049E-03 -0.16888672E-03 -0.90660236E-04 -0.15000166E-04
  0.57616110E-04  0.12675475E-03  0.19202681E-03  0.25308924E-03  0.30964545E-03
  0.36144562E-03  0.40828650E-03  0.45001104E-03  0.48650757E-03  0.51770877E-03
  0.54359029E-03  0.56416917E-03  0.57950199E-03  0.58968284E-03  0.59484102E-03
  0.59513872E-03  0.59076838E-03  0.58195009E-03  0.56892880E-03  0.55197150E-03
  0.53136434E-03  0.50740973E-03  0.48042345E-03  0.45073174E-03  0.41866847E-03
  0.38457236E-03  0.34878426E-03  0.31164452E-03  0.27349048E-03  0.23465408E-03
  0.19545961E-03  0.15622155E-03  0.11724268E-03  0.78812198E-04  0.41204156E-04
  0.46759603E-05 -0.30532894E-04 -0.64201923E-04 -0.96130579E-04 -0.12613898E-03
 -0.15406849E-03 -0.17978206E-03 -0.20316449E-03 -0.22412243E-03 -0.24258427E-03
 -0.25849991E-03 -0.27184025E-03 -0.28259671E-03 -0.29078052E-03 -0.29642188E-03
 -0.29956908E-03 -0.30028747E-03 -0.29865834E-03 -0.29477777E-03 -0.28875535E-03
 -0.28071290E-03 -0.27078313E-03 -0.25910825E-03 -0.24583856E-03 -0.23113110E-03
 -0.21514819E-03 -0.19805606E-03 -0.18002348E-03 -0.16122040E-03 -0.14181668E-03
 -0.12198079E-03 -0.10187864E-03 -0.81672422E-04 -0.61519524E-04 -0.41571550E-04
 -0.21973380E-04 -0.28623220E-05  0.15632640E-04  0.33391527E-04  0.50303946E-04
  0.66269585E-04  0.81198620E-04  0.95012022E-04  0.10764179E-03  0.11903107E-03
  0.12913424E-03  0.13791681E-03  0.14535539E-03  0.15143742E-03  0.15616096E-03
  0.15953432E-03  0.16157569E-03  0.16231265E-03  0.16178167E-03  0.16002758E-03
  0.15710292E-03  0.15306731E-03  0.14798681E-03  0.14193320E-03  0.13498325E-03
  0.12721801E-03  0.11872208E-03  0.10958283E-03  0.99889713E-04  0.89733508E-04
  0.79205605E-04  0.68397314E-04  0.57399189E-04  0.46300381E-04  0.35188018E-04
  0.24146626E-04  0.13257581E-04  0.25986028E-05 -0.77567068E-05 -0.17739282E-04
 -0.27284966E-04 -0.36334836E-04 -0.44835478E-04 -0.52739217E-04 -0.60004293E-04
 -0.66594991E-04 -0.72481722E-04 -0.77641060E-04 -0.82055724E-04 -0.85714528E-04
 -0.88612272E-04 -0.90749611E-04 -0.92132867E-04 -0.92773818E-04 -0.92689447E-04
 -0.91901661E-04 -0.90436984E-04 -0.88326225E-04 -0.85604121E-04 -0.82308968E-04
 -0.78482228E-04 -0.74168134E-04 -0.69413279E-04 -0.64266205E-04 -0.58776980E-04
 -0.52996793E-04 -0.46977534E-04 -0.40771393E-04 -0.34430465E-04 -0.28006367E-04
 -0.21549867E-04 -0.15110535E-04 -0.87364079E-05 -0.24736794E-05  0.36335919E-05
  0.95437474E-05  0.15217770E-04  0.20619497E-04  0.25715812E-04  0.30476799E-04
  0.34875879E-04  0.38889913E-04  0.42499276E-04  0.45687907E-04  0.48443327E-04
  0.50756637E-04  0.52622478E-04  0.54038982E-04  0.55007682E-04  0.55533414E-04
  0.55624188E-04  0.55291042E-04  0.54547880E-04  0.53411291E-04  0.51900352E-04
  0.50036420E-04  0.47842914E-04  0.45345087E-04  0.42569786E-04  0.39545215E-04
  0.36300688E-04  0.32866382E-04  0.29273093E-04  0.25551988E-04  0.21734369E-04
  0.17851435E-04  0.13934054E-04  0.10012543E-04  0.61164606E-05  0.22744047E-05
 -0.14861717E-05 -0.51391350E-05 -0.86598296E-05 -0.12025222E-04 -0.15214030E-04
 -0.18206833E-04 -0.20986172E-04 -0.23536622E-04 -0.25844860E-04 -0.27899707E-04
 -0.29692156E-04 -0.31215383E-04 -0.32464743E-04 -0.33437750E-04 -0.34134037E-04
 -0.34555310E-04 -0.34705279E-04 -0.34589584E-04 -0.34215701E-04 -0.33592844E-04
 -0.32731849E-04 -0.31645061E-04 -0.30346196E-04 -0.28850212E-04 -0.27173166E-04
 -0.25332067E-04 -0.23344727E-04 -0.21229611E-04 -0.19005681E-04 -0.16692248E-04
 -0.14308817E-04 -0.11874940E-04 -0.94100693E-05 -0.69334167E-05 -0.44638169E-05
 -0.20195973E-05  0.38154509E-06  0.27226592E-05  0.49876477E-05  0.71613650E-05
  0.92297070E-05  0.11179690E-04  0.12999520E-04  0.14678651E-04  0.16207835E-04
  0.17579159E-04  0.18786070E-04  0.19823392E-04  0.20687334E-04  0.21375484E-04
  0.21886792E-04  0.22221551E-04  0.22381358E-04  0.22369075E-04  0.22188777E-04
  0.21845696E-04  0.21346150E-04  0.20697478E-04  0.19907957E-04  0.18986720E-04
  0.17943673E-04  0.16789396E-04  0.15535057E-04  0.14192313E-04  0.12773210E-04
  0.11290091E-04  0.97554903E-05  0.81820445E-05  0.65823912E-05  0.49690777E-05
  0.33544698E-05  0.17506650E-05  0.16940833E-06 -0.13779858E-05 -0.28807081E-05
 -0.43285224E-05 -0.57118293E-05 -0.70217221E-05 -0.82500376E-05 -0.93894001E-05
 -0.10433258E-04 -0.11375914E-04 -0.12212548E-04 -0.12939235E-04 -0.13552953E-04
 -0.14051585E-04 -0.14433915E-04 -0.14699619E-04 -0.14849246E-04 -0.14884196E-04
 -0.14806689E-04 -0.14619733E-04 -0.14327086E-04 -0.13933207E-04 -0.13443212E-04
 -0.12862822E-04 -0.12198305E-04 -0.11456418E-04 -0.10644353E-04 -0.97696637E-05
 -0.88402116E-05 -0.78640960E-05 -0.68495907E-05 -0.58050792E-05 -0.47389900E-05
 -0.36597336E-05 -0.25756409E-05 -0.14949029E-05 -0.42551354E-06  0.62478561E-06
  0.16485569E-05  0.26387153E-05  0.35885735E-05  0.44918828E-05  0.53428703E-05
  0.61362714E-05  0.68673584E-05  0.75319641E-05  0.81265011E-05  0.86479761E-05
  0.90940000E-05  0.94627928E-05  0.97531847E-05  0.99646114E-05  0.10097107E-04
  0.10151289E-04  0.10128347E-04  0.10030015E-04  0.98585543E-05  0.96167213E-05
  0.93077398E-05  0.89352663E-05  0.85033550E-05  0.80164194E-05  0.74791925E-05
  0.68966856E-05  0.62741455E-05  0.56170109E-05  0.49308687E-05  0.42214095E-05
  0.34943837E-05  0.27555576E-05  0.20106705E-05  0.12653931E-05  0.52528666E-06
 -0.20423570E-06 -0.91794621E-06 -0.16108373E-05 -0.22781544E-05 -0.29154258E-05
 -0.35184905E-05 -0.40835225E-05 -0.46070528E-05 -0.50859880E-05 -0.55176254E-05
 -0.58996661E-05 -0.62302235E-05 -0.65078294E-05 -0.67314370E-05 -0.69004200E-05
 -0.70145697E-05 -0.70740877E-05 -0.70795773E-05 -0.70320308E-05 -0.69328151E-05
 -0.67836538E-05 -0.65866084E-05 -0.63440560E-05 -0.60586661E-05 -0.57333752E-05
 -0.53713599E-05 -0.49760091E-05 -0.45508947E-05 -0.40997419E-05 -0.36263990E-05
 -0.31348061E-05 -0.26289648E-05 -0.21129071E-05 -0.15906655E-05 -0.10662427E-05
 -0.54358283E-06 -0.26543502E-07  0.48113122E-06  0.97583631E-06  0.14541298E-05
  0.19127552E-05  0.23486620E-05  0.27590247E-05  0.31412592E-05  0.34930375E-05
  0.38123001E-05  0.40972667E-05  0.43464436E-05  0.45586299E-05  0.47329209E-05
  0.48687092E-05  0.49656842E-05  0.50238283E-05  0.50434124E-05  0.50249882E-05
  0.49693790E-05  0.48776691E-05  0.47511907E-05  0.45915098E-05  0.44004103E-05
  0.41798768E-05  0.39320765E-05  0.36593399E-05  0.33641408E-05  0.30490749E-05
  0.27168392E-05  0.23702097E-05  0.20120199E-05  0.16451383E-05  0.12724474E-05
  0.89682133E-06  0.52110538E-06  0.14809518E-06 -0.21948299E-06 -0.57899105E-06
 -0.92789716E-06 -0.12637924E-05 -0.15844067E-05 -0.18876227E-05 -0.21714890E-05
 -0.24342319E-05 -0.26742649E-05 -0.28901975E-05 -0.30808418E-05 -0.32452181E-05
 -0.33825582E-05 -0.34923075E-05 -0.35741255E-05 -0.36278845E-05 -0.36536669E-05
 -0.36517610E-05 -0.36226552E-05 -0.35670313E-05 -0.34857556E-05 -0.33798698E-05
 -0.32505801E-05 -0.30992457E-05 -0.29273657E-05 -0.27365662E-05 -0.25285857E-05
 -0.23052604E-05 -0.20685094E-05 -0.18203185E-05 -0.15627249E-05 -0.12978012E-05
 -0.10276391E-05 -0.75433428E-06 -0.47997023E-06 -0.20660351E-06  0.63751179E-07
  0.32913513E-06  0.58765917E-06  0.83751643E-06  0.10769943E-05  0.13044857E-05
  0.15184987E-05  0.17176662E-05  0.19007537E-05  0.20666661E-05  0.22144537E-05
  0.23433167E-05  0.24526085E-05  0.25418383E-05  0.26106718E-05  0.26589314E-05
  0.26865947E-05  0.26937923E-05  0.26808040E-05  0.26480549E-05  0.25961093E-05
  0.25256645E-05  0.24375436E-05  0.23326872E-05  0.22121447E-05  0.20770644E-05
  0.19286841E-05  0.17683199E-05  0.15973554E-05  0.14172307E-05  0.12294303E-05
  0.10354719E-05  0.83689448E-06  0.63524649E-06  0.43207445E-06  0.22891145E-06
  0.27266086E-07 -0.17138831E-06 -0.36562397E-06 -0.55406852E-06 -0.73541424E-06
 -0.90842668E-06 -0.10719526E-05 -0.12249273E-05 -0.13663809E-05 -0.14954441E-05
 -0.16113532E-05 -0.17134537E-05 -0.18012038E-05 -0.18741762E-05 -0.19320599E-05
 -0.19746605E-05 -0.20018997E-05 -0.20138142E-05 -0.20105536E-05 -0.19923775E-05
 -0.19596519E-05 -0.19128450E-05 -0.18525219E-05 -0.17793388E-05 -0.16940375E-05
 -0.15974376E-05 -0.14904299E-05 -0.13739686E-05 -0.12490632E-05 -0.11167701E-05
 -0.97818446E-06 -0.83443099E-06 -0.68665560E-06 -0.53601647E-06 -0.38367529E-06
 -0.23078866E-06 -0.78499651E-07  0.72070493E-07  0.21983025E-06  0.36372544E-06
  0.50274646E-06  0.63593506E-06  0.76239060E-06  0.88127590E-06  0.99182242E-06
  0.10933349E-05  0.11851954E-05  0.12668667E-05  0.13378951E-05  0.13979125E-05
  0.14466376E-05  0.14838771E-05  0.15095257E-05  0.15235651E-05  0.15260635E-05
  0.15171734E-05  0.14971296E-05  0.14662455E-05  0.14249104E-05  0.13735853E-05
  0.13127982E-05  0.12431393E-05  0.11652559E-05  0.10798465E-05  0.98765520E-06
  0.88946538E-06  0.78609323E-06  0.67838144E-06  0.56719245E-06  0.45340188E-06
  0.33789181E-06  0.22154422E-06  0.10523445E-06 -0.10175163E-07 -0.12384145E-06
 -0.23494638E-06 -0.34270271E-06 -0.44635937E-06 -0.54520648E-06 -0.63858000E-06
 -0.72586596E-06 -0.80650428E-06 -0.87999215E-06 -0.94588688E-06 -0.10038083E-05
 -0.10534408E-05 -0.10945345E-05 -0.11269064E-05 -0.11504405E-05 -0.11650880E-05
 -0.11708666E-05 -0.11678592E-05 -0.11562127E-05 -0.11361359E-05 -0.11078968E-05
 -0.10718202E-05 -0.10282843E-05 -0.97771712E-06 -0.92059264E-06 -0.85742676E-06
 -0.78877279E-06 -0.71521692E-06 -0.63737334E-06 -0.55587938E-06 -0.47139047E-06
 -0.38457502E-06 -0.29610933E-06 -0.20667245E-06 -0.11694118E-06 -0.27585058E-07
  0.60738449E-07  0.14738866E-06  0.23174617E-06  0.31321711E-06  0.39123719E-06
  0.46527548E-06  0.53483783E-06  0.59947002E-06  0.65876060E-06  0.71234327E-06
  0.75989903E-06  0.80115786E-06  0.83590001E-06  0.86395700E-06  0.88521209E-06
  0.89960048E-06  0.90710907E-06  0.90777584E-06  0.90168887E-06  0.88898504E-06
  0.86984830E-06  0.84450771E-06  0.81323516E-06  0.77634270E-06  0.73417977E-06
  0.68713009E-06  0.63560834E-06  0.58005671E-06  0.52094125E-06  0.45874809E-06
  0.39397964E-06  0.32715059E-06  0.25878397E-06  0.18940720E-06  0.11954811E-06
  0.49731049E-07 -0.19526949E-07 -0.87719881E-07 -0.15435636E-06 -0.21896306E-06
 -0.28108795E-06 -0.34030338E-06 -0.39620888E-06 -0.44843378E-06 -0.49663956E-06
 -0.54052188E-06 -0.57981242E-06 -0.61428039E-06 -0.64373370E-06 -0.66801988E-06
 -0.68702672E-06 -0.70068252E-06 -0.70895611E-06 -0.71185657E-06 -0.70943259E-06
 -0.70177164E-06 -0.68899875E-06 -0.67127519E-06 -0.64879672E-06 -0.62179174E-06
 -0.59051918E-06 -0.55526617E-06 -0.51634555E-06 -0.47409326E-06 -0.42886554E-06
 -0.38103601E-06 -0.33099274E-06 -0.27913515E-06 -0.22587096E-06 -0.17161302E-06
 -0.11677622E-06 -0.61774433E-07 -0.70174082E-08  0.47092154E-07  0.10016150E-06
  0.15181061E-06  0.20167481E-06  0.24940729E-06  0.29468144E-06  0.33719299E-06
  0.37666199E-06  0.41283453E-06  0.44548435E-06  0.47441409E-06  0.49945642E-06
  0.52047489E-06  0.53736452E-06  0.55005224E-06  0.55849695E-06  0.56268948E-06
  0.56265221E-06  0.55843854E-06  0.55013210E-06  0.53784573E-06  0.52172031E-06
  0.50192334E-06  0.47864741E-06  0.45210841E-06  0.42254368E-06  0.39021000E-06
  0.35538140E-06  0.31834699E-06  0.27940857E-06  0.23887829E-06  0.19707621E-06
  0.15432781E-06  0.11096157E-06  0.67306433E-07  0.23689454E-07 -0.19566653E-07
 -0.62145818E-07 -0.10374087E-06 -0.14405571E-06 -0.18280733E-06 -0.21972778E-06
 -0.25456592E-06 -0.28708912E-06 -0.31708471E-06 -0.34436131E-06 -0.36874999E-06
 -0.39010525E-06 -0.40830582E-06 -0.42325521E-06 -0.43488217E-06 -0.44314089E-06
 -0.44801103E-06 -0.44949756E-06 -0.44763042E-06 -0.44246400E-06 -0.43407641E-06
 -0.42256868E-06 -0.40806368E-06 -0.39070495E-06 -0.37065544E-06 -0.34809603E-06
 -0.32322399E-06 -0.29625131E-06 -0.26740299E-06 -0.23691522E-06 -0.20503346E-06
 atomic pseudo charge-density
  0.14000000E+02  0.13987486E+02  0.13950116E+02  0.13888396E+02  0.13803146E+02
  0.13695473E+02  0.13566727E+02  0.13418457E+02  0.13252360E+02  0.13070230E+02
  0.12873909E+02  0.12665244E+02  0.12446045E+02  0.12218055E+02  0.11982922E+02
  0.11742181E+02  0.11497243E+02  0.11249385E+02  0.10999750E+02  0.10749349E+02
  0.10499063E+02  0.10249656E+02  0.10001778E+02  0.97559742E+01  0.95127005E+01
  0.92723277E+01  0.90351535E+01  0.88014113E+01  0.85712784E+01  0.83448842E+01
  0.81223168E+01  0.79036299E+01  0.76888485E+01  0.74779737E+01  0.72709876E+01
  0.70678567E+01  0.68685361E+01  0.66729717E+01  0.64811033E+01  0.62928665E+01
  0.61081947E+01  0.59270205E+01  0.57492773E+01  0.55748996E+01  0.54038248E+01
  0.52359930E+01  0.50713480E+01  0.49098373E+01  0.47514126E+01  0.45960295E+01
  0.44436479E+01  0.42942318E+01  0.41477491E+01  0.40041712E+01  0.38634733E+01
  0.37256336E+01  0.35906336E+01  0.34584570E+01  0.33290901E+01  0.32025212E+01
  0.30787400E+01  0.29577379E+01  0.28395072E+01  0.27240408E+01  0.26113322E+01
  0.25013750E+01  0.23941629E+01  0.22896888E+01  0.21879456E+01  0.20889250E+01
  0.19926179E+01  0.18990140E+01  0.18081018E+01  0.17198683E+01  0.16342990E+01
  0.15513778E+01  0.14710866E+01  0.13934059E+01  0.13183142E+01  0.12457879E+01
  0.11758019E+01  0.11083288E+01  0.10433396E+01  0.98080327E+00  0.92068690E+00
  0.86295581E+00  0.80757352E+00  0.75450181E+00  0.70370082E+00  0.65512910E+00
  0.60874366E+00  0.56450009E+00  0.52235264E+00  0.48225430E+00  0.44415688E+00
  0.40801116E+00  0.37376692E+00  0.34137310E+00  0.31077790E+00  0.28192882E+00
  0.25477287E+00  0.22925657E+00  0.20532612E+00  0.18292751E+00  0.16200655E+00
  0.14250907E+00  0.12438093E+00  0.10756817E+00  0.92017101E-01  0.77674369E-01
  0.64487066E-01  0.52402808E-01  0.41369818E-01  0.31337005E-01  0.22254035E-01
  0.14071407E-01  0.67405142E-02  0.21371183E-03 -0.55556287E-02 -0.10613063E-01
 -0.15003026E-01 -0.18768783E-01 -0.21952391E-01 -0.24594660E-01 -0.26735122E-01
 -0.28411999E-01 -0.29662182E-01 -0.30521210E-01 -0.31023250E-01 -0.31201091E-01
 -0.31086129E-01 -0.30708368E-01 -0.30096414E-01 -0.29277481E-01 -0.28277396E-01
 -0.27120608E-01 -0.25830200E-01 -0.24427906E-01 -0.22934126E-01 -0.21367952E-01
 -0.19747187E-01 -0.18088372E-01 -0.16406817E-01 -0.14716627E-01 -0.13030738E-01
 -0.11360947E-01 -0.97179520E-02 -0.81113852E-02 -0.65498529E-02 -0.50409744E-02
 -0.35914221E-02 -0.22069628E-02 -0.89249885E-03  0.34788933E-03  0.15109011E-02
  0.25939727E-02  0.35952351E-02  0.45134709E-02  0.53480721E-02  0.60989982E-02
  0.67667345E-02  0.73522510E-02  0.78569620E-02  0.82826869E-02  0.86316109E-02
  0.89062473E-02  0.91094012E-02  0.92441333E-02  0.93137253E-02  0.93216474E-02
  0.92715254E-02  0.91671105E-02  0.90122502E-02  0.88108598E-02  0.85668968E-02
  0.82843350E-02  0.79671420E-02  0.76192565E-02  0.72445682E-02  0.68468985E-02
  0.64299834E-02  0.59974574E-02  0.55528388E-02  0.50995170E-02  0.46407403E-02
  0.41796065E-02  0.37190534E-02  0.32618515E-02  0.28105978E-02  0.23677109E-02
  0.19354274E-02  0.15157987E-02  0.11106905E-02  0.72178140E-03  0.35056435E-03
 -0.16523526E-05 -0.33374237E-03 -0.64475810E-03 -0.93392662E-03 -0.12006449E-02
 -0.14444743E-02 -0.16651347E-02 -0.18624977E-02 -0.20365798E-02 -0.21875348E-02
 -0.23156459E-02 -0.24213178E-02 -0.25050679E-02 -0.25675183E-02 -0.26093865E-02
 -0.26314768E-02 -0.26346715E-02 -0.26199221E-02 -0.25882403E-02 -0.25406891E-02
 -0.24783748E-02 -0.24024380E-02 -0.23140457E-02 -0.22143834E-02 -0.21046469E-02
 -0.19860354E-02 -0.18597443E-02 -0.17269583E-02 -0.15888450E-02 -0.14465492E-02
 -0.13011871E-02 -0.11538410E-02 -0.10055548E-02 -0.85732933E-03 -0.71011882E-03
 -0.56482712E-03 -0.42230476E-03 -0.28334637E-03 -0.14868844E-03 -0.19007588E-04
  0.10508082E-03  0.22302357E-03  0.33433021E-03  0.43857318E-03  0.53538763E-03
  0.62447091E-03  0.70558168E-03  0.77853872E-03  0.84321947E-03  0.89955825E-03
  0.94754429E-03  0.98721946E-03  0.10186758E-02  0.10420531E-02  0.10575355E-02
  0.10653494E-02  0.10657595E-02  0.10590663E-02  0.10456026E-02  0.10257300E-02
  0.99983565E-03  0.96832918E-03  0.93163889E-03  0.89020862E-03  0.84449441E-03
  0.79496122E-03  0.74207976E-03  0.68632342E-03  0.62816522E-03  0.56807496E-03
  0.50651651E-03  0.44394511E-03  0.38080499E-03  0.31752703E-03  0.25452662E-03
  0.19220168E-03  0.13093088E-03  0.71072064E-04  0.12960744E-04 -0.43091080E-04
 -0.96796002E-04 -0.14789208E-03 -0.19614351E-03 -0.24134116E-03 -0.28330288E-03
 -0.32187363E-03 -0.35692553E-03 -0.38835761E-03 -0.41609552E-03 -0.44009105E-03
 -0.46032148E-03 -0.47678880E-03 -0.48951892E-03 -0.49856057E-03 -0.50398427E-03
 -0.50588109E-03 -0.50436141E-03 -0.49955355E-03 -0.49160233E-03 -0.48066766E-03
 -0.46692295E-03 -0.45055364E-03 -0.43175559E-03 -0.41073352E-03 -0.38769942E-03
 -0.36287100E-03 -0.33647011E-03 -0.30872123E-03 -0.27984996E-03 -0.25008158E-03
 -0.21963965E-03 -0.18874464E-03 -0.15761268E-03 -0.12645431E-03 -0.95473357E-04
 -0.64865867E-04 -0.34819120E-04 -0.55107347E-05  0.22892138E-04  0.50233538E-04
  0.76369317E-04  0.10116767E-03  0.12450959E-03  0.14628920E-03  0.16641399E-03
  0.18480502E-03  0.20139698E-03  0.21613816E-03  0.22899035E-03  0.23992870E-03
  0.24894141E-03  0.25602947E-03  0.26120616E-03  0.26449669E-03  0.26593762E-03
  0.26557626E-03  0.26347012E-03  0.25968614E-03  0.25430006E-03  0.24739560E-03
  0.23906376E-03  0.22940196E-03  0.21851327E-03  0.20650557E-03  0.19349070E-03
  0.17958367E-03  0.16490180E-03  0.14956394E-03  0.13368962E-03  0.11739832E-03
  0.10080866E-03  0.84037711E-04  0.67200283E-04  0.50408242E-04  0.33769904E-04
  0.17389434E-04  0.13663081E-05 -0.14205185E-04 -0.29236399E-04 -0.43644731E-04
 -0.57353976E-04 -0.70294629E-04 -0.82404140E-04 -0.93627109E-04 -0.10391544E-03
 -0.11322845E-03 -0.12153290E-03 -0.12880300E-03 -0.13502038E-03 -0.14017399E-03
 -0.14425995E-03 -0.14728141E-03 -0.14924828E-03 -0.15017703E-03 -0.15009037E-03
 -0.14901695E-03 -0.14699099E-03 -0.14405193E-03 -0.14024401E-03 -0.13561588E-03
 -0.13022015E-03 -0.12411296E-03 -0.11735349E-03 -0.11000355E-03 -0.10212707E-03
 -0.93789630E-04 -0.85058047E-04 -0.75999856E-04 -0.66682888E-04 -0.57174822E-04
 -0.47542753E-04 -0.37852780E-04 -0.28169610E-04 -0.18556180E-04 -0.90733017E-05
  0.22067174E-06  0.92701535E-05  0.18022606E-04  0.26428795E-04  0.34443022E-04
  0.42023317E-04  0.49131614E-04  0.55733890E-04  0.61800278E-04  0.67305148E-04
  0.72227162E-04  0.76549298E-04  0.80258846E-04  0.83347378E-04  0.85810690E-04
  0.87648724E-04  0.88865454E-04  0.89468763E-04  0.89470290E-04  0.88885258E-04
  0.87732285E-04  0.86033182E-04  0.83812727E-04  0.81098432E-04  0.77920302E-04
  0.74310573E-04  0.70303454E-04  0.65934860E-04  0.61242135E-04  0.56263778E-04
  0.51039171E-04  0.45608303E-04  0.40011499E-04  0.34289157E-04  0.28481482E-04
  0.22628240E-04  0.16768513E-04  0.10940465E-04  0.51811218E-05 -0.47383777E-06
 -0.59902752E-05 -0.11335774E-04 -0.16479803E-04 -0.21393867E-04 -0.26051636E-04
 -0.30429066E-04 -0.34504490E-04 -0.38258702E-04 -0.41675022E-04 -0.44739338E-04
 -0.47440137E-04 -0.49768512E-04 -0.51718161E-04 -0.53285363E-04 -0.54468938E-04
 -0.55270198E-04 -0.55692877E-04 -0.55743049E-04 -0.55429038E-04 -0.54761307E-04
 -0.53752344E-04 -0.52416536E-04 -0.50770028E-04 -0.48830587E-04 -0.46617443E-04
 -0.44151138E-04 -0.41453364E-04 -0.38546798E-04 -0.35454933E-04 -0.32201914E-04
 -0.28812367E-04 -0.25311233E-04 -0.21723599E-04 -0.18074540E-04 -0.14388959E-04
 -0.10691428E-04 -0.70060473E-05 -0.33562968E-05  0.23509543E-06  0.37462817E-05
  0.71564132E-05  0.10445750E-04  0.13595760E-04  0.16589214E-04  0.19410259E-04
  0.22044494E-04  0.24479026E-04  0.26702520E-04  0.28705236E-04  0.30479054E-04
  0.32017494E-04  0.33315716E-04  0.34370519E-04  0.35180324E-04  0.35745148E-04
  0.36066572E-04  0.36147695E-04  0.35993082E-04  0.35608704E-04  0.35001869E-04
  0.34181152E-04  0.33156307E-04  0.31938185E-04  0.30538639E-04  0.28970431E-04
  0.27247132E-04  0.25383016E-04  0.23392957E-04  0.21292325E-04  0.19096874E-04
  0.16822637E-04  0.14485819E-04  0.12102693E-04  0.96894891E-05  0.72623012E-05
  0.48369827E-05  0.24290535E-05  0.53608228E-07 -0.22747701E-05 -0.45420921E-05
 -0.67350380E-05 -0.88410285E-05 -0.10848289E-04 -0.12745908E-04 -0.14523888E-04
 -0.16173191E-04 -0.17685778E-04 -0.19054637E-04 -0.20273808E-04 -0.21338400E-04
 -0.22244603E-04 -0.22989685E-04 -0.23571997E-04 -0.23990952E-04 -0.24247019E-04
 -0.24341688E-04 -0.24277451E-04 -0.24057762E-04 -0.23686996E-04 -0.23170408E-04
 -0.22514076E-04 -0.21724857E-04 -0.20810318E-04 -0.19778683E-04 -0.18638765E-04
 -0.17399899E-04 -0.16071877E-04 -0.14664872E-04 -0.13189371E-04 -0.11656103E-04
 -0.10075962E-04 -0.84599415E-05 -0.68190594E-05 -0.51642891E-05 -0.35064906E-05
 -0.18563445E-05 -0.22428750E-06  0.13795488E-05  0.29453965E-05  0.44639067E-05
  0.59262007E-05  0.73239177E-05  0.86492585E-05  0.98950245E-05  0.11054652E-04
  0.12122245E-04  0.13092596E-04  0.13961211E-04  0.14724322E-04  0.15378903E-04
  0.15922668E-04  0.16354081E-04  0.16672348E-04  0.16877409E-04  0.16969928E-04
  0.16951273E-04  0.16823499E-04  0.16589321E-04  0.16252084E-04  0.15815733E-04
  0.15284780E-04  0.14664259E-04  0.13959693E-04  0.13177045E-04  0.12322675E-04
  0.11403293E-04  0.10425910E-04  0.93977890E-05  0.83263950E-05  0.72193428E-05
  0.60843474E-05  0.49291730E-05  0.37615830E-05  0.25892905E-05  0.14199105E-05
  0.26091251E-06 -0.88042377E-06 -0.19970521E-05 -0.30822006E-05 -0.41294101E-05
 -0.51325703E-05 -0.60859531E-05 -0.69842426E-05 -0.78225622E-05 -0.85964989E-05
 -0.93021234E-05 -0.99360080E-05 -0.10495240E-04 -0.10977431E-04 -0.11380726E-04
 -0.11703806E-04 -0.11945885E-04 -0.12106710E-04 -0.12186555E-04 -0.12186206E-04
 -0.12106952E-04 -0.11950567E-04 -0.11719293E-04 -0.11415817E-04 -0.11043246E-04
 -0.10605080E-04 -0.10105189E-04 -0.95477738E-05 -0.89373425E-05 -0.82786709E-05
 -0.75767704E-05 -0.68368518E-05 -0.60642890E-05 -0.52645820E-05 -0.44433195E-05
 -0.36061423E-05 -0.27587057E-05 -0.19066436E-05 -0.10555326E-05 -0.21085695E-06
  0.62202510E-06  0.14379136E-05  0.22317980E-05  0.29988864E-05  0.37346328E-05
  0.44347627E-05  0.50952965E-05  0.57125703E-05  0.62832549E-05  0.68043722E-05
  0.72733086E-05  0.76878271E-05  0.80460749E-05  0.83465908E-05  0.85883076E-05
  0.87705540E-05  0.88930521E-05  0.89559142E-05  0.89596357E-05  0.89050861E-05
  0.87934985E-05  0.86264554E-05  0.84058740E-05  0.81339887E-05  0.78133317E-05
  0.74467127E-05  0.70371966E-05  0.65880796E-05  0.61028651E-05  0.55852377E-05
  0.50390369E-05  0.44682299E-05  0.38768845E-05  0.32691409E-05  0.26491843E-05
  0.20212171E-05  0.13894315E-05  0.75798268E-06  0.13096237E-06 -0.48762650E-06
 -0.10938944E-05 -0.16840887E-05 -0.22546159E-05 -0.28020624E-05 -0.33232141E-05
 -0.38150743E-05 -0.42748796E-05 -0.47001149E-05 -0.50885253E-05 -0.54381278E-05
 -0.57472193E-05 -0.60143843E-05 -0.62384993E-05 -0.64187362E-05 -0.65545633E-05
 -0.66457445E-05 -0.66923363E-05 -0.66946836E-05 -0.66534129E-05 -0.65694245E-05
 -0.64438827E-05 -0.62782043E-05 -0.60740459E-05 -0.58332896E-05 -0.55580278E-05
 -0.52505464E-05 -0.49133076E-05 -0.45489308E-05 -0.41601739E-05 -0.37499133E-05
 -0.33211236E-05 -0.28768569E-05 -0.24202218E-05 -0.19543628E-05 -0.14824391E-05
 -0.10076039E-05 -0.53298448E-06 -0.61661807E-07  0.40334843E-06  0.85911455E-06
  0.13028066E-05  0.17317134E-05  0.21432582E-05  0.25350135E-05  0.29047148E-05
  0.32502728E-05  0.35697845E-05  0.38615430E-05  0.41240453E-05  0.43559999E-05
  0.45563314E-05  0.47241849E-05  0.48589282E-05  0.49601529E-05  0.50276737E-05
  0.50615263E-05  0.50619646E-05  0.50294553E-05  0.49646725E-05  0.48684897E-05
  0.47419720E-05  0.45863661E-05  0.44030898E-05  0.41937204E-05  0.39599820E-05
  0.37037329E-05  0.34269509E-05  0.31317193E-05  0.28202119E-05  0.24946774E-05
  0.21574242E-05  0.18108041E-05  0.14571970E-05  0.10989948E-05  0.73858570E-06
  0.37833912E-06  0.20590332E-07 -0.33237404E-06 -0.67833013E-06 -0.10151304E-05
 -0.13407162E-05 -0.16531304E-05 -0.19505280E-05 -0.22311869E-05 -0.24935170E-05
 -0.27360691E-05 -0.29575417E-05 -0.31567880E-05 -0.33328206E-05 -0.34848160E-05
 -0.36121176E-05 -0.37142375E-05 -0.37908573E-05 -0.38418282E-05 -0.38671690E-05
 -0.38670642E-05 -0.38418600E-05 -0.37920605E-05 -0.37183216E-05 -0.36214452E-05
 -0.35023715E-05 -0.33621717E-05 -0.32020386E-05 -0.30232777E-05 -0.28272971E-05
 -0.26155968E-05 -0.23897584E-05 -0.21514329E-05 -0.19023298E-05 -0.16442052E-05
 -0.13788495E-05 -0.11080757E-05 -0.83370727E-06 -0.55756645E-06 -0.28146232E-06
 -0.71794671E-08  0.26353323E-06  0.52897336E-06  0.78749527E-06  0.10375199E-05
  0.12775442E-05  0.15061495E-05  0.17220095E-05  0.19238980E-05  0.21106948E-05
  0.22813922E-05  0.24350990E-05  0.25710459E-05  0.26885876E-05  0.27872061E-05
  0.28665121E-05  0.29262456E-05  0.29662762E-05  0.29866019E-05  0.29873475E-05
  0.29687623E-05  0.29312167E-05  0.28751981E-05  0.28013064E-05  0.27102488E-05
  0.26028335E-05  0.24799636E-05  0.23426296E-05  0.21919023E-05  0.20289247E-05
  0.18549039E-05  0.16711023E-05  0.14788289E-05  0.12794303E-05  0.10742817E-05
  0.86477751E-06  0.65232239E-06  0.43832194E-06  0.22417381E-06  0.11258799E-07
 -0.19906774E-06 -0.40548425E-06 -0.60671100E-06 -0.80151777E-06 -0.98873100E-06
 -0.11672407E-05 -0.13360066E-05 -0.14940641E-05 -0.16405292E-05 -0.17746035E-05
 -0.18955780E-05 -0.20028364E-05 -0.20958581E-05 -0.21742204E-05 -0.22375996E-05
 -0.22857721E-05 -0.23186147E-05 -0.23361038E-05 -0.23383146E-05 -0.23254192E-05
 -0.22976845E-05 -0.22554690E-05 -0.21992201E-05 -0.21294690E-05 -0.20468275E-05
 -0.19519823E-05 -0.18456898E-05 -0.17287710E-05 -0.16021048E-05 -0.14666218E-05
 -0.13232981E-05 -0.11731482E-05 -0.10172183E-05 -0.85657895E-06 -0.69231814E-06
 -0.52553410E-06 -0.35732818E-06 -0.18879774E-06 -0.21029280E-07  0.14490845E-06
  0.30797101E-06  0.46714464E-06  0.62145237E-06  0.76995985E-06  0.91178076E-06
  0.10460819E-05  0.11720881E-05  0.12890859E-05  0.13964282E-05  0.14935369E-05
  0.15799063E-05  0.16551051E-05  0.17187786E-05  0.17706498E-05  0.18105206E-05
  0.18382718E-05  0.18538634E-05  0.18573333E-05  0.18487970E-05  0.18284454E-05
  0.17965426E-05  0.17534241E-05  0.16994933E-05  0.16352180E-05  0.15611275E-05
  0.14778075E-05  0.13858967E-05  0.12860813E-05  0.11790908E-05  0.10656924E-05
  0.94668577E-06  0.82289778E-06  0.69517674E-06  0.56438682E-06  0.43140232E-06
  0.29710204E-06  0.16236354E-06  0.28057634E-07 -0.10495716E-06 -0.23583993E-06
 -0.36377259E-06 -0.48796482E-06 -0.60765881E-06 -0.72213382E-06 -0.83071029E-06
 -0.93275381E-06 -0.10276787E-05 -0.11149511E-05 -0.11940921E-05 -0.12646798E-05
 -0.13263520E-05 -0.13788073E-05 -0.14218066E-05 -0.14551742E-05 -0.14787978E-05
 -0.14926290E-05 -0.14966827E-05 -0.14910364E-05 -0.14758289E-05 -0.14512592E-05
 -0.14175840E-05 -0.13751159E-05 -0.13242209E-05 -0.12653150E-05 -0.11988614E-05
 -0.11253671E-05 -0.10453788E-05 -0.95947956E-06 -0.86828420E-06 -0.77243527E-06
 -0.67259860E-06 -0.56945881E-06 -0.46371470E-06 -0.35607464E-06 -0.24725195E-06
 -0.13796023E-06 -0.28908843E-07  0.79201668E-07  0.18568393E-06  0.28986804E-06
  0.39110569E-06  0.48877410E-06  0.58227978E-06  0.67106203E-06  0.75459624E-06
  0.83239684E-06  0.90402012E-06  0.96906659E-06  0.10271831E-05  0.10780648E-05
  0.11214564E-05  0.11571533E-05  0.11850029E-05  0.12049044E-05  0.12168092E-05
  0.12207210E-05  0.12166947E-05  0.12048360E-05  0.11853001E-05  0.11582901E-05
  0.11240552E-05  0.10828889E-05  0.10351265E-05  0.98114232E-06  0.92134745E-06
  0.85618624E-06  0.78613334E-06  0.71169032E-06  0.63338211E-06  0.55175350E-06
  0.46736531E-06  0.38079071E-06  0.29261137E-06  0.20341361E-06  0.11378459E-06
  0.24308532E-07 -0.64437077E-07 -0.15188510E-06 -0.23748232E-06 -0.32069291E-06
 -0.40100166E-06 -0.47791718E-06 -0.55097480E-06 -0.61973933E-06 -0.68380755E-06
 -0.74281060E-06 -0.79641591E-06 -0.84432912E-06 -0.88629552E-06 -0.92210138E-06
 -0.95157489E-06 -0.97458693E-06 -0.99105142E-06 -0.10009255E-05 -0.10042095E-05
 -0.10009462E-05 -0.99122066E-06 -0.97515868E-06 -0.95292605E-06 -0.92472689E-06
   16.2516435017787      T
 Non local Part
           2           2   1.23923386443745     
   45.3518886862207       -26.8715112214905       -26.8715112214905     
   14.7508844230629     
 Reciprocal Space Part
  0.00000000E+00  0.26221540E-02  0.10552381E-01  0.23982054E-01  0.43230313E-01
  0.68744045E-01  0.10109732E+00  0.14098976E+00  0.18924320E+00  0.24679605E+00
  0.31469459E+00  0.39408059E+00  0.48617471E+00  0.59225507E+00  0.71363087E+00
  0.85161080E+00  0.10074663E+01  0.11823905E+01  0.13774521E+01  0.15935474E+01
  0.18313489E+01  0.20912535E+01  0.23733317E+01  0.26772788E+01  0.30023702E+01
  0.33474224E+01  0.37107628E+01  0.40902073E+01  0.44830502E+01  0.48860656E+01
  0.52955228E+01  0.57072153E+01  0.61165043E+01  0.65183772E+01  0.69075190E+01
  0.72783974E+01  0.76253590E+01  0.79427359E+01  0.82249587E+01  0.84666756E+01
  0.86628731E+01  0.88089960E+01  0.89010634E+01  0.89357773E+01  0.89106211E+01
  0.88239451E+01  0.86750352E+01  0.84641639E+01  0.81926205E+01  0.78627194E+01
  0.74777861E+01  0.70421187E+01  0.65609281E+01  0.60402548E+01  0.54868654E+01
  0.49081309E+01  0.43118884E+01  0.37062907E+01  0.30996460E+01  0.25002516E+01
  0.19162276E+01  0.13553509E+01  0.82489781E+00  0.33149625E+00 -0.11900770E+00
 -0.52166520E+00 -0.87251960E+00 -0.11686783E+01 -0.14083595E+01 -0.15909135E+01
 -0.17168165E+01 -0.17876388E+01 -0.18059877E+01 -0.17754257E+01 -0.17003684E+01
 -0.15859623E+01 -0.14379480E+01 -0.12625112E+01 -0.10661260E+01 -0.85539430E+00
 -0.63688561E+00 -0.41698187E+00 -0.20173052E+00  0.32899461E-02  0.19308886E+00
  0.36336377E+00  0.51058014E+00  0.63202857E+00  0.72585864E+00  0.79108889E+00
  0.82759332E+00  0.83606546E+00  0.81796135E+00  0.77542383E+00  0.71119061E+00
  0.62848920E+00  0.53092203E+00  0.42234534E+00  0.30674537E+00  0.18811563E+00
 Real Space Part
  0.00000000E+00  0.37968183E-01  0.15165195E+00  0.34039002E+00  0.60308381E+00
  0.93820277E+00  0.13437918E+01  0.18174806E+01  0.23564954E+01  0.29576723E+01
  0.36174728E+01  0.43320008E+01  0.50970221E+01  0.59079847E+01  0.67600417E+01
  0.76480749E+01  0.85667205E+01  0.95103959E+01  0.10473327E+02  0.11449580E+02
  0.12433087E+02  0.13417682E+02  0.14397130E+02  0.15365161E+02  0.16315502E+02
  0.17241914E+02  0.18138221E+02  0.18998350E+02  0.19816361E+02  0.20586485E+02
  0.21303155E+02  0.21961044E+02  0.22555094E+02  0.23080556E+02  0.23533015E+02
  0.23908427E+02  0.24203149E+02  0.24413967E+02  0.24538125E+02  0.24573356E+02
  0.24517902E+02  0.24370541E+02  0.24130607E+02  0.23798011E+02  0.23373258E+02
  0.22857461E+02  0.22252351E+02  0.21560286E+02  0.20784258E+02  0.19927889E+02
  0.18995431E+02  0.17991757E+02  0.16922346E+02  0.15793270E+02  0.14611166E+02
  0.13383209E+02  0.12117077E+02  0.10820909E+02  0.95032585E+01  0.81730414E+01
  0.68394730E+01  0.55120038E+01  0.42002472E+01  0.29139013E+01  0.16626664E+01
  0.45615655E+00 -0.69619176E+00 -0.17852148E+01 -0.28021185E+01 -0.37385773E+01
 -0.45868320E+01 -0.53397868E+01 -0.59911037E+01 -0.65352930E+01 -0.69677972E+01
 -0.72850695E+01 -0.74846431E+01 -0.75651909E+01 -0.75265745E+01 -0.73698820E+01
 -0.70974523E+01 -0.67128862E+01 -0.62210444E+01 -0.56280310E+01 -0.49411634E+01
 -0.41689274E+01 -0.33209203E+01 -0.24077820E+01 -0.14411143E+01 -0.43338814E+00
  0.60214757E+00  0.16515194E+01  0.27005509E+01  0.37413845E+01  0.47826756E+01
  0.47397636E+01  0.35626356E+01  0.21814218E+01  0.50263135E+00  0.00000000E+00
 Reciprocal Space Part
  0.00000000E+00  0.25869208E-01  0.10296014E+00  0.22973020E+00  0.40363316E+00
  0.62115620E+00  0.87787139E+00  0.11685012E+01  0.14869977E+01  0.18266344E+01
  0.21801106E+01  0.25396663E+01  0.28972076E+01  0.32444400E+01  0.35730086E+01
  0.38746437E+01  0.41413089E+01  0.43653499E+01  0.45396414E+01  0.46577299E+01
  0.47139693E+01  0.47036462E+01  0.46230935E+01  0.44697884E+01  0.42424320E+01
  0.39410103E+01  0.35668318E+01  0.31225417E+01  0.26121117E+01  0.20408031E+01
  0.14151042E+01  0.74264181E+00  0.32068036E-01 -0.70707664E+00 -0.14645216E+01
 -0.22294429E+01 -0.29906559E+01 -0.37368195E+01 -0.44566483E+01 -0.51391286E+01
 -0.57737324E+01 -0.63506262E+01 -0.68608690E+01 -0.72965951E+01 -0.76511773E+01
 -0.79193663E+01 -0.80974033E+01 -0.81831024E+01 -0.81759006E+01 -0.80768737E+01
 -0.78887177E+01 -0.76156951E+01 -0.72635481E+01 -0.68393791E+01 -0.63515017E+01
 -0.58092659E+01 -0.52228603E+01 -0.46030973E+01 -0.39611848E+01 -0.33084907E+01
 -0.26563057E+01 -0.20156097E+01 -0.13968471E+01 -0.80971695E+00 -0.26298276E+00
  0.23569430E+00  0.67989408E+00  0.10645455E+01  0.13860015E+01  0.16420791E+01
  0.18320649E+01  0.19566854E+01  0.20180440E+01  0.20195264E+01  0.19656777E+01
  0.18620547E+01  0.17150569E+01  0.15317424E+01  0.13196322E+01  0.10865089E+01
  0.84021529E+00  0.58845742E+00  0.33861802E+00  0.97584126E-01 -0.12840649E+00
 -0.33389652E+00 -0.51431520E+00 -0.66605701E+00 -0.78653172E+00 -0.87418526E+00
 -0.92849163E+00 -0.94991714E+00 -0.93985862E+00 -0.90055829E+00 -0.83499843E+00
 -0.74677935E+00 -0.63998483E+00 -0.51903917E+00 -0.38856031E+00 -0.25321336E+00
 Real Space Part
  0.00000000E+00 -0.33824216E-01 -0.13507772E+00 -0.30310424E+00 -0.53681371E+00
 -0.83468797E+00 -0.11947886E+01 -0.16147668E+01 -0.20918760E+01 -0.26229856E+01
 -0.32045977E+01 -0.38328651E+01 -0.45036118E+01 -0.52123545E+01 -0.59543270E+01
 -0.67245049E+01 -0.75176329E+01 -0.83282529E+01 -0.91507337E+01 -0.99793017E+01
 -0.10808073E+02 -0.11631086E+02 -0.12442335E+02 -0.13235805E+02 -0.14005506E+02
 -0.14745510E+02 -0.15449983E+02 -0.16113226E+02 -0.16729707E+02 -0.17294096E+02
 -0.17801306E+02 -0.18246522E+02 -0.18625238E+02 -0.18933292E+02 -0.19166896E+02
 -0.19322671E+02 -0.19397674E+02 -0.19389433E+02 -0.19295968E+02 -0.19115822E+02
 -0.18848080E+02 -0.18492398E+02 -0.18049014E+02 -0.17518769E+02 -0.16903122E+02
 -0.16204157E+02 -0.15424590E+02 -0.14567776E+02 -0.13637701E+02 -0.12638984E+02
 -0.11576864E+02 -0.10457182E+02 -0.92863632E+01 -0.80713928E+01 -0.68197804E+01
 -0.55395244E+01 -0.42390671E+01 -0.29272450E+01 -0.16132315E+01 -0.30647414E+00
  0.98337453E+00  0.22465324E+01  0.34731682E+01  0.46534880E+01  0.57778251E+01
  0.68367351E+01  0.78210929E+01  0.87221924E+01  0.95318467E+01  0.10242489E+02
  0.10847269E+02  0.11340152E+02  0.11716008E+02  0.11970697E+02  0.12101147E+02
  0.12105427E+02  0.11982801E+02  0.11733780E+02  0.11360158E+02  0.10865036E+02
  0.10252825E+02  0.95292511E+01  0.87013264E+01  0.77773213E+01  0.67667141E+01
  0.56801290E+01  0.45292614E+01  0.33267927E+01  0.20862925E+01  0.82211183E+00
 -0.45072221E+00 -0.17165654E+01 -0.29597388E+01 -0.41718296E+01 -0.53631075E+01
 -0.53199549E+01 -0.40003806E+01 -0.24504152E+01 -0.56479551E+00  0.00000000E+00
 Non local Part
           0           2   1.23923386443745     
   6.28509745652908        7.87933731073598        7.87933731073598     
   9.88149493070311     
 Reciprocal Space Part
  0.62008775E+02  0.61570810E+02  0.60263551E+02  0.58106796E+02  0.55133149E+02
  0.51387434E+02  0.46925906E+02  0.41815248E+02  0.36131395E+02  0.29958200E+02
  0.23385973E+02  0.16509912E+02  0.94284678E+01  0.22416725E+01 -0.49505430E+01
 -0.12050003E+02 -0.18961884E+02 -0.25596224E+02 -0.31869324E+02 -0.37704996E+02
 -0.43035668E+02 -0.47803298E+02 -0.51960097E+02 -0.55469057E+02 -0.58304258E+02
 -0.60450980E+02 -0.61905597E+02 -0.62675277E+02 -0.62777495E+02 -0.62239371E+02
 -0.61096851E+02 -0.59393756E+02 -0.57180719E+02 -0.54514031E+02 -0.51454430E+02
 -0.48065849E+02 -0.44414159E+02 -0.40565922E+02 -0.36587190E+02 -0.32542361E+02
 -0.28493121E+02 -0.24497482E+02 -0.20608944E+02 -0.16875778E+02 -0.13340446E+02
 -0.10039169E+02 -0.70016331E+01 -0.42508478E+01 -0.18031357E+01  0.33173842E+00
  0.21503165E+01  0.36550839E+01  0.48540068E+01  0.57599866E+01  0.63902467E+01
  0.67656693E+01  0.69100982E+01  0.68496265E+01  0.66118845E+01  0.62253436E+01
  0.57186513E+01  0.51200093E+01  0.44566069E+01  0.37541186E+01  0.30362727E+01
  0.23244977E+01  0.16376469E+01  0.99180543E+00  0.40017568E+00 -0.12695943E+00
 -0.58220131E+00 -0.96093401E+00 -0.12611635E+01 -0.14833062E+01 -0.16299356E+01
 -0.17054963E+01 -0.17159960E+01 -0.16686834E+01 -0.15717228E+01 -0.14338735E+01
 -0.12641812E+01 -0.10716907E+01 -0.86518337E+00 -0.65294601E+00 -0.44257469E+00
 -0.24081556E+00 -0.53444554E-01  0.11481405E+00  0.26033097E+00  0.38057909E+00
  0.47410717E+00  0.54048360E+00  0.58021418E+00  0.59463868E+00  0.58581063E+00
  0.55636561E+00  0.50938274E+00  0.44824414E+00  0.37649688E+00  0.29772139E+00
 Real Space Part
 -0.20976228E+03 -0.20964939E+03 -0.20931084E+03 -0.20874700E+03 -0.20795849E+03
 -0.20694618E+03 -0.20571118E+03 -0.20425488E+03 -0.20257891E+03 -0.20068518E+03
 -0.19857585E+03 -0.19625337E+03 -0.19372048E+03 -0.19098020E+03 -0.18803585E+03
 -0.18489106E+03 -0.18154977E+03 -0.17801626E+03 -0.17429514E+03 -0.17039134E+03
 -0.16631020E+03 -0.16205737E+03 -0.15763891E+03 -0.15306126E+03 -0.14833126E+03
 -0.14345616E+03 -0.13844361E+03 -0.13330172E+03 -0.12803899E+03 -0.12266440E+03
 -0.11718735E+03 -0.11161770E+03 -0.10596577E+03 -0.10024232E+03 -0.94458564E+02
 -0.88626167E+02 -0.82757227E+02 -0.76864270E+02 -0.70960233E+02 -0.65058450E+02
 -0.59172621E+02 -0.53316791E+02 -0.47505313E+02 -0.41752812E+02 -0.36074140E+02
 -0.30484326E+02 -0.24998517E+02 -0.19631920E+02 -0.14399730E+02 -0.93170538E+01
 -0.43988280E+01  0.34026968E+00  0.48859158E+01  0.92242417E+01  0.13341939E+02
  0.17226371E+02  0.20865685E+02  0.24248930E+02  0.27366173E+02  0.30208617E+02
  0.32768720E+02  0.35040301E+02  0.37018654E+02  0.38700644E+02  0.40084801E+02
  0.41171398E+02  0.41962518E+02  0.42462106E+02  0.42676002E+02  0.42611959E+02
  0.42279635E+02  0.41690567E+02  0.40858123E+02  0.39797429E+02  0.38525271E+02
  0.37059982E+02  0.35421296E+02  0.33630187E+02  0.31708693E+02  0.29679712E+02
  0.27566796E+02  0.25393923E+02  0.23185270E+02  0.20964972E+02  0.18756885E+02
  0.16584355E+02  0.14469982E+02  0.12435404E+02  0.10501088E+02  0.86861364E+01
  0.70081149E+01  0.54828948E+01  0.41245218E+01  0.29451092E+01  0.19547466E+01
  0.11614417E+01  0.57106440E+00  0.18749676E+00  0.13888100E-01  0.00000000E+00
 Reciprocal Space Part
 -0.42933829E+02 -0.42600099E+02 -0.41604032E+02 -0.39960900E+02 -0.37695850E+02
 -0.34843459E+02 -0.31447109E+02 -0.27558221E+02 -0.23235335E+02 -0.18543085E+02
 -0.13551057E+02 -0.83325815E+01 -0.29634664E+01  0.24793017E+01  0.79188562E+01
  0.13279731E+02  0.18489097E+02  0.23477926E+02  0.28182076E+02  0.32543254E+02
  0.36509866E+02  0.40037722E+02  0.43090592E+02  0.45640604E+02  0.47668483E+02
  0.49163626E+02  0.50124016E+02  0.50555980E+02  0.50473807E+02  0.49899227E+02
  0.48860772E+02  0.47393030E+02  0.45535817E+02  0.43333277E+02  0.40832940E+02
  0.38084744E+02  0.35140064E+02  0.32050739E+02  0.28868140E+02  0.25642284E+02
  0.22421015E+02  0.19249259E+02  0.16168376E+02  0.13215610E+02  0.10423642E+02
  0.78202584E+01  0.54281334E+01  0.32647192E+01  0.13422485E+01 -0.33215985E+00
 -0.17562994E+01 -0.29325871E+01 -0.38676978E+01 -0.45721345E+01 -0.50597463E+01
 -0.53472076E+01 -0.54534725E+01 -0.53992171E+01 -0.52062824E+01 -0.48971312E+01
 -0.44943291E+01 -0.40200598E+01 -0.34956840E+01 -0.29413492E+01 -0.23756547E+01
 -0.18153776E+01 -0.12752609E+01 -0.76786500E+00 -0.30348144E+00  0.10989321E+00
  0.46652699E+00  0.76287046E+00  0.99742861E+00  0.11705932E+01  0.12844426E+01
  0.13425169E+01  0.13495749E+01  0.13113413E+01  0.12342516E+01  0.11252002E+01
  0.99129919E+00  0.83965304E+00  0.67715335E+00  0.51029847E+00  0.34504024E+00
  0.18666003E+00  0.39675243E-01 -0.92223736E-01 -0.20620675E+00 -0.30030874E+00
 -0.37340845E+00 -0.42518373E+00 -0.45604659E+00 -0.46706156E+00 -0.45985126E+00
 -0.43649277E+00 -0.39940895E+00 -0.35125817E+00 -0.29482606E+00 -0.23292247E+00
 Real Space Part
  0.16969350E+03  0.16960339E+03  0.16933317E+03  0.16888314E+03  0.16825378E+03
  0.16744578E+03  0.16646004E+03  0.16529765E+03  0.16395993E+03  0.16244837E+03
  0.16076471E+03  0.15891090E+03  0.15688911E+03  0.15470175E+03  0.15235146E+03
  0.14984112E+03  0.14717388E+03  0.14435313E+03  0.14138252E+03  0.13826601E+03
  0.13500781E+03  0.13161242E+03  0.12808466E+03  0.12442965E+03  0.12065281E+03
  0.11675990E+03  0.11275701E+03  0.10865056E+03  0.10444731E+03  0.10015439E+03
  0.95779251E+02  0.91329730E+02  0.86814008E+02  0.82240627E+02  0.77618486E+02
  0.72956837E+02  0.68265277E+02  0.63553746E+02  0.58832506E+02  0.54112132E+02
  0.49403494E+02  0.44717732E+02  0.40066233E+02  0.35460599E+02  0.30912612E+02
  0.26434196E+02  0.22037371E+02  0.17734205E+02  0.13536758E+02  0.94570243E+01
  0.55068631E+01  0.16979326E+01 -0.19583865E+01 -0.54510706E+01 -0.87695367E+01
 -0.11903729E+02 -0.14844210E+02 -0.17582251E+02 -0.20109925E+02 -0.22420201E+02
 -0.24507035E+02 -0.26365459E+02 -0.27991665E+02 -0.29383087E+02 -0.30538471E+02
 -0.31457938E+02 -0.32143040E+02 -0.32596799E+02 -0.32823732E+02 -0.32829869E+02
 -0.32622747E+02 -0.32211386E+02 -0.31606257E+02 -0.30819221E+02 -0.29863456E+02
 -0.28753362E+02 -0.27504453E+02 -0.26133229E+02 -0.24657035E+02 -0.23093900E+02
 -0.21462381E+02 -0.19781376E+02 -0.18069948E+02 -0.16347136E+02 -0.14631770E+02
 -0.12942280E+02 -0.11296523E+02 -0.97115999E+01 -0.82036980E+01 -0.67879356E+01
 -0.54782255E+01 -0.42871513E+01 -0.32258627E+01 -0.23039909E+01 -0.15295762E+01
 -0.90902107E+00 -0.44704637E+00 -0.14680728E+00 -0.10875810E-01  0.00000000E+00
 Non local Part
           1           2   1.23923386443745     
   1.64592502196980        2.94892529863462        2.94892529863462     
   5.33457775554648     
 Reciprocal Space Part
  0.00000000E+00  0.25302375E+01  0.50032990E+01  0.73631347E+01  0.95559243E+01
  0.11531133E+02  0.13242498E+02  0.14648932E+02  0.15715309E+02  0.16413135E+02
  0.16721079E+02  0.16625361E+02  0.16119974E+02  0.15206764E+02  0.13895341E+02
  0.12202837E+02  0.10153519E+02  0.77782578E+01  0.51138774E+01  0.22023850E+01
 -0.90988732E+00 -0.41732181E+01 -0.75354858E+01 -0.10943191E+02 -0.14342492E+02
 -0.17680226E+02 -0.20904900E+02 -0.23967636E+02 -0.26823036E+02 -0.29429969E+02
 -0.31752252E+02 -0.33759216E+02 -0.35426158E+02 -0.36734650E+02 -0.37672732E+02
 -0.38234958E+02 -0.38422315E+02 -0.38242026E+02 -0.37707217E+02 -0.36836495E+02
 -0.35653419E+02 -0.34185893E+02 -0.32465493E+02 -0.30526746E+02 -0.28406371E+02
 -0.26142510E+02 -0.23773958E+02 -0.21339410E+02 -0.18876740E+02 -0.16422328E+02
 -0.14010449E+02 -0.11672728E+02 -0.94376720E+01 -0.73302983E+01 -0.53718397E+01
 -0.35795500E+01 -0.19665998E+01 -0.54206191E+00  0.68901602E+00  0.17254589E+01
  0.25697385E+01  0.32276828E+01  0.37081316E+01  0.40225480E+01  0.41845962E+01
  0.42096989E+01  0.41145842E+01  0.39168326E+01  0.36344362E+01  0.32853775E+01
  0.28872378E+01  0.24568425E+01  0.20099485E+01  0.15609793E+01  0.11228106E+01
  0.70660856E+00  0.32172097E+00 -0.24379668E-01 -0.32610281E+00 -0.57970008E+00
 -0.78318296E+00 -0.93620309E+00 -0.10399008E+01 -0.10967284E+01 -0.11102536E+01
 -0.10849512E+01 -0.10259882E+01 -0.93900826E+00 -0.82992266E+00 -0.70471167E+00
 -0.56924139E+00 -0.42909989E+00 -0.28945557E+00 -0.15494010E+00 -0.29557205E-01
  0.83382103E-01  0.18129804E+00  0.26235530E+00  0.32545259E+00  0.37019072E+00
 Real Space Part
  0.00000000E+00 -0.56155722E+01 -0.11213018E+02 -0.16774264E+02 -0.22281346E+02
 -0.27716462E+02 -0.33062026E+02 -0.38300722E+02 -0.43415556E+02 -0.48389911E+02
 -0.53207597E+02 -0.57852905E+02 -0.62310660E+02 -0.66566268E+02 -0.70605768E+02
 -0.74415882E+02 -0.77984066E+02 -0.81298550E+02 -0.84348395E+02 -0.87123529E+02
 -0.89614798E+02 -0.91814006E+02 -0.93713956E+02 -0.95308493E+02 -0.96592537E+02
 -0.97562122E+02 -0.98214431E+02 -0.98547823E+02 -0.98561868E+02 -0.98257366E+02
 -0.97636373E+02 -0.96702223E+02 -0.95459537E+02 -0.93914239E+02 -0.92073563E+02
 -0.89946050E+02 -0.87541551E+02 -0.84871213E+02 -0.81947463E+02 -0.78783991E+02
 -0.75395715E+02 -0.71798747E+02 -0.68010345E+02 -0.64048862E+02 -0.59933680E+02
 -0.55685141E+02 -0.51324460E+02 -0.46873634E+02 -0.42355342E+02 -0.37792825E+02
 -0.33209765E+02 -0.28630153E+02 -0.24078137E+02 -0.19577872E+02 -0.15153357E+02
 -0.10828258E+02 -0.66257336E+01 -0.25682463E+01  0.13226240E+01  0.50263725E+01
  0.85237620E+01  0.11797011E+02  0.14829982E+02  0.17608353E+02  0.20119792E+02
  0.22354107E+02  0.24303385E+02  0.25962111E+02  0.27327263E+02  0.28398387E+02
  0.29177637E+02  0.29669792E+02  0.29882240E+02  0.29824929E+02  0.29510282E+02
  0.28953083E+02  0.28170331E+02  0.27181057E+02  0.26006116E+02  0.24667949E+02
  0.23190327E+02  0.21598065E+02  0.19916730E+02  0.18172331E+02  0.16391004E+02
  0.14598696E+02  0.12820854E+02  0.11082120E+02  0.94060372E+01  0.78147770E+01
  0.63288877E+01  0.49670636E+01  0.37459458E+01  0.26799539E+01  0.17811412E+01
  0.10590928E+01  0.52083857E+00  0.17092538E+00  0.12187434E-01  0.00000000E+00
 Reciprocal Space Part
  0.00000000E+00 -0.11247832E+01 -0.22201612E+01 -0.32573256E+01 -0.42086490E+01
 -0.50482437E+01 -0.57524846E+01 -0.63004837E+01 -0.66745073E+01 -0.68603271E+01
 -0.68474975E+01 -0.66295551E+01 -0.62041347E+01 -0.55730012E+01 -0.47419977E+01
 -0.37209095E+01 -0.25232501E+01 -0.11659728E+01  0.33088496E+00  0.19446160E+01
  0.36503072E+01  0.54213430E+01  0.72299366E+01  0.90476778E+01  0.10846086E+02
  0.12597156E+02  0.14273887E+02  0.15850779E+02  0.17304295E+02  0.18613274E+02
  0.19759287E+02  0.20726929E+02  0.21504055E+02  0.22081931E+02  0.22455323E+02
  0.22622514E+02  0.22585244E+02  0.22348594E+02  0.21920790E+02  0.21312968E+02
  0.20538877E+02  0.19614540E+02  0.18557884E+02  0.17388344E+02  0.16126443E+02
  0.14793381E+02  0.13410606E+02  0.11999411E+02  0.10580546E+02  0.91738526E+01
  0.77979358E+01  0.64698759E+01  0.52049813E+01  0.40165904E+01  0.29159221E+01
  0.19119780E+01  0.10114939E+01  0.21894168E+00 -0.46342283E+00 -0.10354676E+01
 -0.14990532E+01 -0.18578664E+01 -0.21172256E+01 -0.22838617E+01 -0.23656828E+01
 -0.23715277E+01 -0.23109143E+01 -0.21937900E+01 -0.20302882E+01 -0.18304972E+01
 -0.16042465E+01 -0.13609125E+01 -0.11092494E+01 -0.85724568E+00 -0.61200972E+00
 -0.37968354E+00 -0.16538661E+00  0.26811940E-01  0.19389354E+00  0.33386485E+00
  0.44570911E+00  0.52931725E+00  0.58540165E+00  0.61539623E+00  0.62134629E+00
  0.60579168E+00  0.57164698E+00  0.52208183E+00  0.46040489E+00  0.38995393E+00
  0.31399479E+00  0.23563123E+00  0.15772722E+00  0.82842996E-01  0.13185538E-01
 -0.49426297E-01 -0.10358205E+00 -0.14828597E+00 -0.18295025E+00 -0.20737640E+00
 Real Space Part
  0.00000000E+00  0.32968910E+01  0.65833408E+01  0.98489391E+01  0.13083337E+02
  0.16276279E+02  0.19417633E+02  0.22497420E+02  0.25505845E+02  0.28433329E+02
  0.31270537E+02  0.34008408E+02  0.36638184E+02  0.39151443E+02  0.41540120E+02
  0.43796543E+02  0.45913455E+02  0.47884047E+02  0.49701978E+02  0.51361406E+02
  0.52857011E+02  0.54184021E+02  0.55338233E+02  0.56316039E+02  0.57114446E+02
  0.57731096E+02  0.58164286E+02  0.58412987E+02  0.58476859E+02  0.58356265E+02
  0.58052287E+02  0.57566734E+02  0.56902153E+02  0.56061836E+02  0.55049820E+02
  0.53870893E+02  0.52530591E+02  0.51035192E+02  0.49391708E+02  0.47607871E+02
  0.45692121E+02  0.43653580E+02  0.41502032E+02  0.39247886E+02  0.36902148E+02
  0.34476375E+02  0.31982630E+02  0.29433431E+02  0.26841692E+02  0.24220658E+02
  0.21583836E+02  0.18944918E+02  0.16317701E+02  0.13715998E+02  0.11153545E+02
  0.86439045E+01  0.62003640E+01  0.38358310E+01  0.15627260E+01 -0.60712634E+00
 -0.26626062E+01 -0.45934060E+01 -0.63901365E+01 -0.80444274E+01 -0.95490232E+01
 -0.10897872E+02 -0.12086203E+02 -0.13110599E+02 -0.13969048E+02 -0.14660987E+02
 -0.15187330E+02 -0.15550476E+02 -0.15754305E+02 -0.15804147E+02 -0.15706744E+02
 -0.15470181E+02 -0.15103807E+02 -0.14618135E+02 -0.14024725E+02 -0.13336053E+02
 -0.12565365E+02 -0.11726520E+02 -0.10833824E+02 -0.99018555E+01 -0.89452921E+01
 -0.79787289E+01 -0.70165038E+01 -0.60725254E+01 -0.51601077E+01 -0.42918151E+01
 -0.34793189E+01 -0.27332672E+01 -0.20631703E+01 -0.14773050E+01 -0.98263132E+00
 -0.58473318E+00 -0.28776776E+00 -0.94503098E-01 -0.67413025E-02  0.00000000E+00
 PAW radial sets
         427  0.991149070368299     
(5E20.12)                                
 augmentation charges (non sperical)
  0.909416913695E+00 -0.420199640111E+00 -0.737062017737E-01 -0.908108429766E-01 -0.681363715440E-01
 -0.111505013615E+00 -0.420199640111E+00  0.172183780354E+00 -0.377234284952E-01 -0.480577119540E-01
 -0.369826318127E-02 -0.955008648683E-02 -0.737062017737E-01 -0.377234284952E-01 -0.305215754665E+00
 -0.390005050416E+00 -0.123930954058E+00 -0.225881091648E+00 -0.908108429766E-01 -0.480577119540E-01
 -0.390005050416E+00 -0.498647443445E+00 -0.157169040777E+00 -0.286910723924E+00 -0.681363715440E-01
 -0.369826318127E-02 -0.123930954058E+00 -0.157169040777E+00 -0.509129830843E-01 -0.911174170034E-01
 -0.111505013615E+00 -0.955008648683E-02 -0.225881091648E+00 -0.286910723924E+00 -0.911174170034E-01
 -0.163636895756E+00
 uccopancies in atom
  0.199999999907E+01  0.000000000000E+00  0.000000000000E+00  0.000000000000E+00  0.000000000000E+00
  0.000000000000E+00  0.000000000000E+00  0.000000000000E+00  0.000000000000E+00  0.000000000000E+00
  0.000000000000E+00  0.000000000000E+00  0.000000000000E+00  0.000000000000E+00  0.200000000207E+01
  0.000000000000E+00  0.000000000000E+00  0.000000000000E+00  0.000000000000E+00  0.000000000000E+00
  0.000000000000E+00  0.000000000000E+00  0.000000000000E+00  0.000000000000E+00  0.000000000000E+00
  0.000000000000E+00  0.000000000000E+00  0.000000000000E+00  0.666666667727E+00  0.000000000000E+00
  0.000000000000E+00  0.000000000000E+00  0.000000000000E+00  0.000000000000E+00  0.000000000000E+00
  0.000000000000E+00
 grid
  0.487458578271E-04  0.500632343233E-04  0.514162134514E-04  0.528057573869E-04  0.542328543084E-04
  0.556985191007E-04  0.572037940760E-04  0.587497497154E-04  0.603374854304E-04  0.619681303444E-04
  0.636428440959E-04  0.653628176628E-04  0.671292742101E-04  0.689434699591E-04  0.708066950809E-04
  0.727202746142E-04  0.746855694073E-04  0.767039770860E-04  0.787769330474E-04  0.809059114809E-04
  0.830924264165E-04  0.853380328013E-04  0.876443276057E-04  0.900129509587E-04  0.924455873145E-04
  0.949439666503E-04  0.975098656968E-04  0.100145109201E-03  0.102851571226E-03  0.105631176480E-03
  0.108485901689E-03  0.111417776999E-03  0.114428887424E-03  0.117521374324E-03  0.120697436932E-03
  0.123959333915E-03  0.127309384981E-03  0.130749972530E-03  0.134283543348E-03  0.137912610344E-03
  0.141639754341E-03  0.145467625910E-03  0.149398947255E-03  0.153436514146E-03  0.157583197914E-03
  0.161841947485E-03  0.166215791484E-03  0.170707840383E-03  0.175321288718E-03  0.180059417358E-03
  0.184925595838E-03  0.189923284756E-03  0.195056038237E-03  0.200327506453E-03  0.205741438227E-03
  0.211301683694E-03  0.217012197040E-03  0.222877039316E-03  0.228900381323E-03  0.235086506581E-03
  0.241439814373E-03  0.247964822873E-03  0.254666172364E-03  0.261548628532E-03  0.268617085857E-03
  0.275876571097E-03  0.283332246857E-03  0.290989415266E-03  0.298853521743E-03  0.306930158875E-03
  0.315225070387E-03  0.323744155234E-03  0.332493471789E-03  0.341479242158E-03  0.350707856600E-03
  0.360185878075E-03  0.369920046909E-03  0.379917285587E-03  0.390184703678E-03  0.400729602890E-03
  0.411559482262E-03  0.422682043499E-03  0.434105196445E-03  0.445837064714E-03  0.457885991461E-03
  0.470260545320E-03  0.482969526495E-03  0.496021973019E-03  0.509427167183E-03  0.523194642133E-03
  0.537334188654E-03  0.551855862131E-03  0.566769989699E-03  0.582087177589E-03  0.597818318667E-03
  0.613974600188E-03  0.630567511741E-03  0.647608853432E-03  0.665110744264E-03  0.683085630765E-03
  0.701546295834E-03  0.720505867833E-03  0.739977829923E-03  0.759976029653E-03  0.780514688807E-03
  0.801608413521E-03  0.823272204666E-03  0.845521468515E-03  0.868372027707E-03  0.891840132490E-03
  0.915942472284E-03  0.940696187546E-03  0.966118881960E-03  0.992228634960E-03  0.101904401458E-02
  0.104658409066E-02  0.107486844843E-02  0.110391720239E-02  0.113375101065E-02  0.116439108963E-02
  0.119585922913E-02  0.122817780780E-02  0.126136980912E-02  0.129545883767E-02  0.133046913600E-02
  0.136642560177E-02  0.140335380556E-02  0.144128000897E-02  0.148023118334E-02  0.152023502893E-02
  0.156131999461E-02  0.160351529808E-02  0.164685094667E-02  0.169135775866E-02  0.173706738523E-02
  0.178401233292E-02  0.183222598677E-02  0.188174263410E-02  0.193259748882E-02  0.198482671653E-02
  0.203846746021E-02  0.209355786666E-02  0.215013711359E-02  0.220824543753E-02  0.226792416238E-02
  0.232921572888E-02  0.239216372472E-02  0.245681291558E-02  0.252320927692E-02  0.259140002675E-02
  0.266143365914E-02  0.273335997873E-02  0.280723013615E-02  0.288309666442E-02  0.296101351626E-02
  0.304103610248E-02  0.312322133142E-02  0.320762764937E-02  0.329431508215E-02  0.338334527782E-02
  0.347478155048E-02  0.356868892534E-02  0.366513418494E-02  0.376418591663E-02  0.386591456138E-02
  0.397039246384E-02  0.407769392381E-02  0.418789524908E-02  0.430107480967E-02  0.441731309360E-02
  0.453669276410E-02  0.465929871842E-02  0.478521814817E-02  0.491454060137E-02  0.504735804610E-02
  0.518376493592E-02  0.532385827703E-02  0.546773769726E-02  0.561550551695E-02  0.576726682164E-02
  0.592312953688E-02  0.608320450496E-02  0.624760556371E-02  0.641644962747E-02  0.658985677025E-02
  0.676795031110E-02  0.695085690183E-02  0.713870661704E-02  0.733163304668E-02  0.752977339101E-02
  0.773326855817E-02  0.794226326441E-02  0.815690613700E-02  0.837734981992E-02  0.860375108241E-02
  0.883627093045E-02  0.907507472131E-02  0.932033228106E-02  0.957221802543E-02  0.983091108378E-02
  0.100965954265E-01  0.103694599959E-01  0.106496988405E-01  0.109375112531E-01  0.112331019123E-01
  0.115366810286E-01  0.118484644930E-01  0.121686740315E-01  0.124975373621E-01  0.128352883571E-01
  0.131821672091E-01  0.135384206022E-01  0.139043018871E-01  0.142800712615E-01  0.146659959551E-01
  0.150623504194E-01  0.154694165231E-01  0.158874837527E-01  0.163168494181E-01  0.167578188640E-01
  0.172107056872E-01  0.176758319598E-01  0.181535284578E-01  0.186441348965E-01  0.191480001725E-01
  0.196654826110E-01  0.201969502214E-01  0.207427809587E-01  0.213033629921E-01  0.218790949813E-01
  0.224703863601E-01  0.230776576273E-01  0.237013406457E-01  0.243418789496E-01  0.249997280599E-01
  0.256753558080E-01  0.263692426690E-01  0.270818821026E-01  0.278137809048E-01  0.285654595677E-01
  0.293374526501E-01  0.301303091573E-01  0.309445929319E-01  0.317808830544E-01  0.326397742552E-01
  0.335218773376E-01  0.344278196121E-01  0.353582453425E-01  0.363138162040E-01  0.372952117540E-01
  0.383031299152E-01  0.393382874717E-01  0.404014205793E-01  0.414932852886E-01  0.426146580826E-01
  0.437663364293E-01  0.449491393484E-01  0.461639079942E-01  0.474115062533E-01  0.486928213593E-01
  0.500087645235E-01  0.513602715832E-01  0.527483036671E-01  0.541738478787E-01  0.556379179984E-01
  0.571415552044E-01  0.586858288132E-01  0.602718370400E-01  0.619007077798E-01  0.635735994091E-01
  0.652917016105E-01  0.670562362177E-01  0.688684580855E-01  0.707296559811E-01  0.726411535016E-01
  0.746043100147E-01  0.766205216254E-01  0.786912221693E-01  0.808178842317E-01  0.830020201953E-01
  0.852451833155E-01  0.875489688251E-01  0.899150150685E-01  0.923450046673E-01  0.948406657165E-01
  0.974037730135E-01  0.100036149320E+00  0.102739666660E+00  0.105516247648E+00  0.108367866859E+00
  0.111296552230E+00  0.114304386507E+00  0.117393508720E+00  0.120566115708E+00  0.123824463682E+00
  0.127170869825E+00  0.130607713946E+00  0.134137440168E+00  0.137762558666E+00  0.141485647457E+00
  0.145309354225E+00  0.149236398213E+00  0.153269572151E+00  0.157411744244E+00  0.161665860211E+00
  0.166034945380E+00  0.170522106840E+00  0.175130535651E+00  0.179863509112E+00  0.184724393092E+00
  0.189716644426E+00  0.194843813368E+00  0.200109546121E+00  0.205517587429E+00  0.211071783238E+00
  0.216776083431E+00  0.222634544642E+00  0.228651333132E+00  0.234830727762E+00  0.241177123028E+00
  0.247695032189E+00  0.254389090478E+00  0.261264058395E+00  0.268324825098E+00  0.275576411872E+00
  0.283023975708E+00  0.290672812964E+00  0.298528363137E+00  0.306596212726E+00  0.314882099209E+00
  0.323391915121E+00  0.332131712244E+00  0.341107705915E+00  0.350326279441E+00  0.359793988639E+00
  0.369517566502E+00  0.379503927985E+00  0.389760174920E+00  0.400293601071E+00  0.411111697318E+00
  0.422222156985E+00  0.433632881313E+00  0.445351985074E+00  0.457387802348E+00  0.469748892445E+00
  0.482444045994E+00  0.495482291196E+00  0.508872900240E+00  0.522625395903E+00  0.536749558315E+00
  0.551255431921E+00  0.566153332620E+00  0.581453855102E+00  0.597167880385E+00  0.613306583548E+00
  0.629881441682E+00  0.646904242052E+00  0.664387090477E+00  0.682342419943E+00  0.700782999439E+00
  0.719721943044E+00  0.739172719250E+00  0.759149160539E+00  0.779665473222E+00  0.800736247542E+00
  0.822376468048E+00  0.844601524254E+00  0.867427221581E+00  0.890869792597E+00  0.914945908563E+00
  0.939672691287E+00  0.965067725302E+00  0.991149070368E+00  0.101793527432E+01  0.104544538625E+01
  0.107369897007E+01  0.110271611840E+01  0.113251746689E+01  0.116312420885E+01  0.119455811038E+01
  0.122684152579E+01  0.125999741355E+01  0.129404935256E+01  0.132902155898E+01  0.136493890340E+01
  0.140182692856E+01  0.143971186750E+01  0.147862066222E+01  0.151858098283E+01  0.155962124724E+01
  0.160177064138E+01  0.164505913992E+01  0.168951752761E+01  0.173517742119E+01  0.178207129183E+01
  0.183023248827E+01  0.187969526049E+01  0.193049478412E+01  0.198266718538E+01  0.203624956686E+01
  0.209128003385E+01  0.214779772143E+01  0.220584282234E+01  0.226545661555E+01  0.232668149560E+01
  0.238956100277E+01  0.245413985401E+01  0.252046397479E+01  0.258858053172E+01  0.265853796611E+01
  0.273038602843E+01  0.280417581364E+01  0.287995979761E+01  0.295779187435E+01  0.303772739441E+01
  0.311982320418E+01  0.320413768636E+01  0.329073080148E+01  0.337966413052E+01  0.347100091869E+01
  0.356480612045E+01  0.366114644567E+01  0.376009040710E+01  0.386170836905E+01  0.396607259746E+01
  0.407325731130E+01  0.418333873532E+01
 aepotential
  0.120890912912E+05  0.122090384146E+05  0.123163995177E+05  0.124106043483E+05  0.124911501306E+05
  0.125575919984E+05  0.126095389570E+05  0.126466828606E+05  0.126687765299E+05  0.126756541145E+05
  0.126672239747E+05  0.126434769830E+05  0.126044832241E+05  0.125503865152E+05  0.124814190966E+05
  0.123978829351E+05  0.123001546819E+05  0.121886866234E+05  0.120639913181E+05  0.119266436602E+05
  0.117772780065E+05  0.116165734821E+05  0.114452598259E+05  0.112640833148E+05  0.110738616524E+05
  0.108753756058E+05  0.106694759902E+05  0.104569909581E+05  0.102387566010E+05  0.100156106310E+05
  0.978837015104E+04  0.955784518676E+04  0.932481449316E+04  0.909003880762E+04  0.885423978483E+04
  0.861811204056E+04  0.838230861167E+04  0.814744479953E+04  0.791409298122E+04  0.768278445713E+04
  0.745400574047E+04  0.722820066434E+04  0.700576855257E+04  0.678706627255E+04  0.657240868927E+04
  0.636207004784E+04  0.615628507070E+04  0.595525137674E+04  0.575913098794E+04  0.556805253438E+04
  0.538211345246E+04  0.520138219486E+04  0.502590049736E+04  0.485568565315E+04  0.469073274462E+04
  0.453101683228E+04  0.437649507388E+04  0.422710875983E+04  0.408278525236E+04  0.394343981685E+04
  0.380897734897E+04  0.367929396947E+04  0.355427852026E+04  0.343381393485E+04  0.331777846630E+04
  0.320604685300E+04  0.309849132685E+04  0.299498253763E+04  0.289539034330E+04  0.279958463406E+04
  0.270743573931E+04  0.261881536313E+04  0.253359657102E+04  0.245165457598E+04  0.237286708364E+04
  0.229711411723E+04  0.222427886400E+04  0.215424755682E+04  0.208690927072E+04  0.202215692938E+04
  0.195988634344E+04  0.189999707808E+04  0.184239191418E+04  0.178697713410E+04  0.173366241338E+04
  0.168236092256E+04  0.163298878911E+04  0.158546590432E+04  0.153971480515E+04  0.149566156093E+04
  0.145323494636E+04  0.141236682798E+04  0.137299183668E+04  0.133504737839E+04  0.129847347423E+04
  0.126321269412E+04  0.122921003575E+04  0.119641292153E+04  0.116477096031E+04  0.113423597425E+04
  0.110476182814E+04  0.107630443923E+04  0.104882156353E+04  0.102227284983E+04  0.996619619728E+03
  0.971824941268E+03  0.947853396804E+03  0.924671145880E+03  0.902245784821E+03  0.880546291159E+03
  0.859542961798E+03  0.839207369242E+03  0.819512279119E+03  0.800431604104E+03  0.781940327914E+03
  0.764014609054E+03  0.746631328132E+03  0.729768626617E+03  0.713405329062E+03  0.697521223238E+03
  0.682096865915E+03  0.667113675306E+03  0.652553708642E+03  0.638399832019E+03  0.624635508556E+03
  0.611244916520E+03  0.598212825803E+03  0.585524570891E+03  0.573166066038E+03  0.561123780943E+03
  0.549384665687E+03  0.537936159245E+03  0.526766181065E+03  0.515863079257E+03  0.505215638054E+03
  0.494813028283E+03  0.484644811944E+03  0.474700929129E+03  0.464971654761E+03  0.455447609037E+03
  0.446119722421E+03  0.436979247106E+03  0.428017705273E+03  0.419226914760E+03  0.410598953993E+03
  0.402126154110E+03  0.393801094463E+03  0.385616581369E+03  0.377565649083E+03  0.369641542554E+03
  0.361837711946E+03  0.354147799453E+03  0.346565641382E+03  0.339085247074E+03  0.331700800440E+03
  0.324406650927E+03  0.317197306540E+03  0.310067426616E+03  0.303011818328E+03  0.296025428571E+03
  0.289103341053E+03  0.282240770012E+03  0.275433055321E+03  0.268675660166E+03  0.261964163581E+03
  0.255294262476E+03  0.248661761419E+03  0.242062573341E+03  0.235492716109E+03  0.228948312474E+03
  0.222425579179E+03  0.215920835978E+03  0.209430496894E+03  0.202951067756E+03  0.196479150071E+03
  0.190011435163E+03  0.183544704811E+03  0.177075832971E+03  0.170601780254E+03  0.164119597254E+03
  0.157626425368E+03  0.151119493121E+03  0.144596122123E+03  0.138053721064E+03  0.131489794663E+03
  0.124901938100E+03  0.118287841663E+03  0.111645292993E+03  0.104972178752E+03  0.982664857864E+02
  0.915263056301E+02  0.847498368228E+02  0.779353883586E+02  0.710813837720E+02  0.641863643726E+02
  0.572489955933E+02  0.502680703824E+02  0.432425155296E+02  0.361713975927E+02  0.290539293771E+02
  0.218894767346E+02  0.146775673778E+02  0.741789772535E+01  0.110343804707E+00 -0.724503048532E+01
 -0.146479613830E+02 -0.220979744441E+02 -0.295943715709E+02 -0.371362181057E+02 -0.447223278554E+02
 -0.523512483347E+02 -0.600212441182E+02 -0.677302798595E+02 -0.754760025925E+02 -0.832557227998E+02
 -0.910663963440E+02 -0.989046051630E+02 -0.106766539512E+03 -0.114647980651E+03 -0.122544286120E+03
 -0.130450377559E+03 -0.138360733153E+03 -0.146269385581E+03 -0.154169927676E+03 -0.162055527598E+03
 -0.169918955728E+03 -0.177752625324E+03 -0.185548649611E+03 -0.193298916594E+03 -0.200995182999E+03
 -0.208629186972E+03 -0.216192777693E+03 -0.223678056475E+03 -0.231077521079E+03 -0.238384198604E+03
 -0.245591747462E+03 -0.252694500417E+03 -0.259687415008E+03 -0.266565890413E+03 -0.273325408457E+03
 -0.279960961698E+03 -0.286466246856E+03 -0.292832635478E+03 -0.299047984914E+03 -0.305095413816E+03
 -0.310952301539E+03 -0.316589659918E+03 -0.321972371870E+03 -0.327060427923E+03 -0.331811328858E+03
 -0.336183590228E+03 -0.340140982293E+03 -0.343656932209E+03 -0.346718403049E+03 -0.349328614906E+03
 -0.351508174446E+03 -0.353294437244E+03 -0.354739177473E+03 -0.355904831700E+03 -0.356859758402E+03
 -0.357673125593E+03 -0.358410173194E+03 -0.359128556233E+03 -0.359876249211E+03 -0.360691044939E+03
 -0.361601310936E+03 -0.362627440501E+03 -0.363783471965E+03 -0.365078517990E+03 -0.366517874734E+03
 -0.368103818210E+03 -0.369836174376E+03 -0.371712753889E+03 -0.373729705439E+03 -0.375881818705E+03
 -0.378162785566E+03 -0.380565409932E+03 -0.383081768209E+03 -0.385703314250E+03 -0.388420934476E+03
 -0.391224957677E+03 -0.394105126266E+03 -0.397050541031E+03 -0.400049582933E+03 -0.403089826263E+03
 -0.406157950557E+03 -0.409239667594E+03 -0.412319674388E+03 -0.415381658850E+03 -0.418408374304E+03
 -0.421381812810E+03 -0.424283493984E+03 -0.427094881051E+03 -0.429797902871E+03 -0.432375520522E+03
 -0.434812203770E+03 -0.437094095528E+03 -0.439208552832E+03 -0.441142706514E+03 -0.442880767274E+03
 -0.444400136387E+03 -0.445666966117E+03 -0.446632879477E+03 -0.447234983662E+03 -0.447401578291E+03
 -0.447065131462E+03 -0.446180342802E+03 -0.444743491618E+03 -0.442804333353E+03 -0.440461474345E+03
 -0.437837866284E+03 -0.435046131243E+03 -0.432162385144E+03 -0.429220711021E+03 -0.426224763704E+03
 -0.423164404741E+03 -0.420028195715E+03 -0.416809329206E+03 -0.413506638826E+03 -0.410123126760E+03
 -0.406663823899E+03 -0.403133972621E+03 -0.399537899454E+03 -0.395878572031E+03 -0.392157652697E+03
 -0.388375826134E+03 -0.384533208557E+03 -0.380629732136E+03 -0.376665442251E+03 -0.372640698739E+03
 -0.368556290729E+03 -0.364413486156E+03 -0.360214026809E+03 -0.355960100058E+03 -0.351654281010E+03
 -0.347299468043E+03 -0.342898813840E+03 -0.338455646925E+03 -0.333973402653E+03 -0.329455549627E+03
 -0.324905528935E+03 -0.320326687545E+03 -0.315722247083E+03 -0.311095256842E+03 -0.306448583251E+03
 -0.301784916226E+03 -0.297106801732E+03 -0.292416644098E+03 -0.287716874195E+03 -0.283009933087E+03
 -0.278298407443E+03 -0.273585094401E+03 -0.268873043408E+03 -0.264165548411E+03 -0.259466070061E+03
 -0.254778080828E+03 -0.250104838662E+03 -0.245449120670E+03 -0.240812978744E+03 -0.236197605032E+03
 -0.231603406015E+03 -0.227030348232E+03 -0.222478562980E+03 -0.217949076658E+03 -0.213444440773E+03
 -0.208969029426E+03 -0.204528865556E+03 -0.200131028888E+03 -0.195782839029E+03 -0.191491085522E+03
 -0.187261456476E+03 -0.183098332146E+03 -0.179004764818E+03 -0.174982658987E+03 -0.171033026044E+03
 -0.167156212963E+03 -0.163352107429E+03 -0.159620287667E+03 -0.155960142669E+03 -0.152370933030E+03
 -0.148851849814E+03 -0.145402052418E+03 -0.142020677118E+03 -0.138706859081E+03 -0.135459734249E+03
 -0.132278439571E+03 -0.129162121837E+03 -0.126109905752E+03 -0.123120911644E+03 -0.120194237044E+03
 -0.117328944062E+03 -0.114524055837E+03 -0.111778549917E+03 -0.109091354484E+03 -0.106461350833E+03
 -0.103887379783E+03 -0.101368252721E+03 -0.989027671002E+02 -0.964897251921E+02 -0.941279543339E+02
 -0.918163272316E+02 -0.895537804914E+02 -0.873393299997E+02 -0.851720834820E+02 -0.830512412549E+02
 -0.809761101508E+02 -0.789460901105E+02 -0.769606742469E+02 -0.750194390309E+02 -0.731220328494E+02
 -0.712681620439E+02 -0.694575744634E+02 -0.676900404749E+02 -0.659653315536E+02 -0.642831967792E+02
 -0.626433381394E+02 -0.610453860489E+02 -0.594888770417E+02 -0.579732358882E+02 -0.564977643026E+02
 -0.550616378819E+02 -0.536639119941E+02 -0.523035361947E+02 -0.509793756488E+02 -0.496902372129E+02
 -0.484348974484E+02 -0.472121299285E+02
 core charge-density
  0.178295109016E-02  0.187754830365E-02  0.197715586749E-02  0.208203844477E-02  0.219247462133E-02
  0.230875763352E-02  0.243119613366E-02  0.256011499508E-02  0.269585615871E-02  0.283877952350E-02
  0.298926388266E-02  0.314770790824E-02  0.331453118642E-02  0.349017530598E-02  0.367510500289E-02
  0.386980936348E-02  0.407480308954E-02  0.429062782811E-02  0.451785356939E-02  0.475708011620E-02
  0.500893862840E-02  0.527409324620E-02  0.555324279608E-02  0.584712258370E-02  0.615650627766E-02
  0.648220788934E-02  0.682508385245E-02  0.718603520851E-02  0.756600990236E-02  0.796600519359E-02
  0.838707018966E-02  0.883030850622E-02  0.929688106129E-02  0.978800900919E-02  0.103049768218E-01
  0.108491355232E-01  0.114219060863E-01  0.120247829976E-01  0.126593380001E-01  0.133272240207E-01
  0.140301792928E-01  0.147700316815E-01  0.155487032228E-01  0.163682148845E-01  0.172306915619E-01
  0.181383673166E-01  0.190935908712E-01  0.200988313714E-01  0.211566844271E-01  0.222698784462E-01
  0.234412812734E-01  0.246739071482E-01  0.259709239964E-01  0.273356610700E-01  0.287716169507E-01
  0.302824679326E-01  0.318720768018E-01  0.335445020293E-01  0.353040073942E-01  0.371550720574E-01
  0.391024011038E-01  0.411509365719E-01  0.433058689927E-01  0.455726494579E-01  0.479570022389E-01
  0.504649379795E-01  0.531027674840E-01  0.558771161262E-01  0.587949389006E-01  0.618635361440E-01
  0.650905699492E-01  0.684840813000E-01  0.720525079517E-01  0.758047030854E-01  0.797499547630E-01
  0.838980062105E-01  0.882590769599E-01  0.928438848749E-01  0.976636690930E-01  0.102730213911E+00
  0.108055873643E+00  0.113653598482E+00  0.119536961393E+00  0.125720186066E+00  0.132218175958E+00
  0.139046544454E+00  0.146221646174E+00  0.153760609449E+00  0.161681369993E+00  0.170002705807E+00
  0.178744273314E+00  0.187926644772E+00  0.197571346965E+00  0.207700901202E+00  0.218338864631E+00
  0.229509872880E+00  0.241239684034E+00  0.253555223958E+00  0.266484632951E+00  0.280057313740E+00
  0.294303980801E+00  0.309256710982E+00  0.324948995416E+00  0.341415792685E+00  0.358693583204E+00
  0.376820424775E+00  0.395836009255E+00  0.415781720266E+00  0.436700691880E+00  0.458637868180E+00
  0.481640063595E+00  0.505756023888E+00  0.531036487672E+00  0.557534248291E+00  0.585304215903E+00
  0.614403479576E+00  0.644891369184E+00  0.676829516874E+00  0.710281917838E+00  0.745314990122E+00
  0.781997633142E+00  0.820401284586E+00  0.860599975312E+00  0.902670381856E+00  0.946691876090E+00
  0.992746571572E+00  0.104091936605E+01  0.109129797960E+01  0.114397298772E+01  0.119903784886E+01
  0.125658892555E+01  0.131672549849E+01  0.137954977274E+01  0.144516687523E+01  0.151368484262E+01
  0.158521459856E+01  0.165986991939E+01  0.173776738712E+01  0.181902632861E+01  0.190376873975E+01
  0.199211919332E+01  0.208420472926E+01  0.218015472600E+01  0.228010075125E+01  0.238417639101E+01
  0.249251705494E+01  0.260525975672E+01  0.272254286762E+01  0.284450584156E+01  0.297128891005E+01
  0.310303274502E+01  0.323987808797E+01  0.338196534345E+01  0.352943413517E+01  0.368242282284E+01
  0.384106797807E+01  0.400550381750E+01  0.417586159151E+01  0.435226892697E+01  0.453484912244E+01
  0.472372039448E+01  0.491899507399E+01  0.512077875131E+01  0.532916936955E+01  0.554425626541E+01
  0.576611915727E+01  0.599482708081E+01  0.623043727236E+01  0.647299400105E+01  0.672252735118E+01
  0.697905195648E+01  0.724256568914E+01  0.751304830631E+01  0.779046005834E+01  0.807474026304E+01
  0.836580585168E+01  0.866354989287E+01  0.896784010176E+01  0.927851734275E+01  0.959539413527E+01
  0.991825317302E+01  0.102468458684E+02  0.105808909354E+02  0.109200730245E+02  0.112640414258E+02
  0.116124088576E+02  0.119647503567E+02  0.123206022932E+02  0.126794615274E+02  0.130407847335E+02
  0.134039879121E+02  0.137684461164E+02  0.141334934181E+02  0.144984231393E+02  0.148624883765E+02
  0.152249028462E+02  0.155848420793E+02  0.159414449914E+02  0.162938158580E+02  0.166410267208E+02
  0.169821202508E+02  0.173161130929E+02  0.176419997133E+02  0.179587567705E+02  0.182653480250E+02
  0.185607298005E+02  0.188438570047E+02  0.191136897125E+02  0.193692003074E+02  0.196093811729E+02
  0.198332529139E+02  0.200398730855E+02  0.202283453915E+02  0.203978293108E+02  0.205475500959E+02
  0.206768090777E+02  0.207849942008E+02  0.208715906998E+02  0.209361918150E+02  0.209785094371E+02
  0.209983845517E+02  0.209957973510E+02  0.209708768608E+02  0.209239099262E+02  0.208553493864E+02
  0.207658212634E+02  0.206561307804E+02  0.205272670237E+02  0.203804060589E+02  0.202169123127E+02
  0.200383380347E+02  0.198464206642E+02  0.196430779320E+02  0.194304005490E+02  0.192106423448E+02
  0.189862077507E+02  0.187596365410E+02  0.185335857864E+02  0.183108090021E+02  0.180941325196E+02
  0.178864291498E+02  0.176905892563E+02  0.175094894031E+02  0.173459587951E+02  0.172027437819E+02
  0.170824707505E+02  0.169876077775E+02  0.169204254517E+02  0.168829574247E+02  0.168769611301E+02
  0.169038793079E+02  0.169648029537E+02  0.170604363643E+02  0.171910649827E+02  0.173565267704E+02
  0.175561878401E+02  0.177889230774E+02  0.180531024555E+02  0.183465837046E+02  0.186667119352E+02
  0.190103267321E+02  0.193737771332E+02  0.197529447922E+02  0.201432754977E+02  0.205398190927E+02
  0.209372777030E+02  0.213300620443E+02  0.217123554270E+02  0.220781849179E+02  0.224214989508E+02
  0.227362505025E+02  0.230164847867E+02  0.232564302465E+02  0.234505914871E+02  0.235938426512E+02
  0.236815196261E+02  0.237095093911E+02  0.236743347432E+02  0.235732326155E+02  0.234042242002E+02
  0.231661751323E+02  0.228588440637E+02  0.224829180799E+02  0.220400335743E+02  0.215327813984E+02
  0.209646953571E+02  0.203402234076E+02  0.196646812532E+02  0.189441883807E+02  0.181855869961E+02
  0.173963447175E+02  0.165844423228E+02  0.157582482719E+02  0.149263821438E+02  0.140975695110E+02
  0.132804911120E+02  0.124836294557E+02  0.117151161728E+02  0.109825835204E+02  0.102930234255E+02
  0.965265732729E+01  0.906681990308E+01  0.853985929078E+01  0.807505659946E+01  0.767456666672E+01
  0.733938151212E+01  0.706931907833E+01  0.686303724716E+01  0.671807430118E+01  0.663091556188E+01
  0.659708487220E+01  0.661125805796E+01  0.666739415904E+01  0.675887971970E+01  0.687868183049E+01
  0.701950628182E+01  0.717395753759E+01  0.733469717358E+01  0.749459720872E+01  0.764688464732E+01
  0.778527362798E+01  0.790408186703E+01  0.799832857283E+01  0.806381163626E+01  0.809716264497E+01
  0.809587905582E+01  0.805833365156E+01  0.798376213747E+01  0.787223040451E+01  0.772458353269E+01
  0.754237905668E+01  0.732780732488E+01  0.708360199073E+01  0.681294372644E+01  0.651936024133E+01
  0.620662552183E+01  0.587866100615E+01  0.553944112382E+01  0.519290526927E+01  0.484287794502E+01
  0.449299839729E+01  0.414666069791E+01  0.380696476370E+01  0.347667876180E+01  0.315821254171E+01
  0.285360184552E+01  0.256450264259E+01  0.229219486055E+01  0.203759389587E+01  0.180127002620E+01
  0.158347323692E+01  0.138416284776E+01  0.120304054171E+01  0.103958555742E+01  0.893090870932E+00
  0.762699288041E+00  0.647438492248E+00  0.546254239353E+00  0.458041050321E+00  0.381669920773E+00
  0.316012727890E+00  0.259963163779E+00  0.212454150659E+00  0.172471793626E+00  0.139066004017E+00
  0.111357987590E+00  0.885448457922E-01  0.699015900618E-01  0.547809157770E-01  0.426111166812E-01
  0.328925340086E-01  0.251929239490E-01  0.191420962869E-01  0.144261318591E-01  0.107814364192E-01
  0.798883815104E-02  0.586788952942E-02  0.427149266983E-02  0.308093108078E-02  0.220135965009E-02
  0.155777858596E-02  0.109149557808E-02  0.757063457735E-03  0.519667779252E-03  0.352929677426E-03
  0.237083630217E-03  0.157486897197E-03  0.103416894395E-03  0.671140886598E-04  0.430306696895E-04
  0.272488292426E-04  0.170365666047E-04  0.105132239364E-04  0.640118568385E-05  0.384416974764E-05
  0.227617216173E-05  0.132833210832E-05  0.763733018944E-06  0.432453847320E-06  0.241060901233E-06
  0.132228030363E-06  0.713421548146E-07  0.378447945641E-07  0.197292016932E-07  0.101031589273E-07
  0.507977525267E-08  0.250646117814E-08  0.121308185066E-08  0.575584380796E-09  0.267601283665E-09
  0.121840401284E-09  0.542968791995E-10  0.236694356918E-10  0.100872280364E-10  0.420010563378E-11
  0.170756998088E-11  0.677398162064E-12  0.262038852570E-12  0.987743359652E-13  0.362552962058E-13
  0.129488563470E-13  0.449675506422E-14  0.151719600107E-14  0.496954979995E-15  0.157897405534E-15
  0.486246557261E-16  0.145008634781E-16
 kinetic energy-density
  0.265536633860E+04  0.266539048645E+04  0.267579270790E+04  0.268658313524E+04  0.269777257724E+04
  0.270937195694E+04  0.272139279576E+04  0.273384684012E+04  0.274674632919E+04  0.276010391661E+04
  0.277393275550E+04  0.278824645796E+04  0.280305904246E+04  0.281838520526E+04  0.283424018178E+04
  0.285063964829E+04  0.286760013997E+04  0.288513866583E+04  0.290327293225E+04  0.292202141425E+04
  0.294140332797E+04  0.296143868019E+04  0.298214803665E+04  0.300355351857E+04  0.302567711706E+04
  0.304854249846E+04  0.307217419899E+04  0.309659733843E+04  0.312183858903E+04  0.314792531400E+04
  0.317488623830E+04  0.320275118210E+04  0.323155112259E+04  0.326131819507E+04  0.329208616358E+04
  0.332388977593E+04  0.335676546436E+04  0.339075094099E+04  0.342588550341E+04  0.346221003409E+04
  0.349976706676E+04  0.353860078092E+04  0.357875712160E+04  0.362028392669E+04  0.366323096033E+04
  0.370764990791E+04  0.375359459333E+04  0.380112098334E+04  0.385028729574E+04  0.390115410382E+04
  0.395378442846E+04  0.400824384330E+04  0.406460058374E+04  0.412292566551E+04  0.418329300003E+04
  0.424577952278E+04  0.431046532398E+04  0.437743378598E+04  0.444677172858E+04  0.451856955605E+04
  0.459292141925E+04  0.466992537506E+04  0.474968355735E+04  0.483230236383E+04  0.491789263386E+04
  0.500656984665E+04  0.509845431901E+04  0.519367144979E+04  0.529235185175E+04  0.539463173481E+04
  0.550065297932E+04  0.561056347129E+04  0.572451744062E+04  0.584267547462E+04  0.596520516934E+04
  0.609228107110E+04  0.622408520160E+04  0.636080733537E+04  0.650264526477E+04  0.664980514992E+04
  0.680250203248E+04  0.696095989838E+04  0.712541246756E+04  0.729610319786E+04  0.747328589707E+04
  0.765722526279E+04  0.784819699178E+04  0.804648861636E+04  0.825239970367E+04  0.846624250547E+04
  0.868834240157E+04  0.891903846383E+04  0.915868389683E+04  0.940764681173E+04  0.966631056321E+04
  0.993507455470E+04  0.102143547022E+05  0.105045841515E+05  0.108062139180E+05  0.111197135475E+05
  0.114455717968E+05  0.117842973411E+05  0.121364195063E+05  0.125024890269E+05  0.128830787250E+05
  0.132787843990E+05  0.136902254916E+05  0.141180459502E+05  0.145629150117E+05  0.150255280828E+05
  0.155066074548E+05  0.160069032712E+05  0.165271942747E+05  0.170682887390E+05  0.176310251293E+05
  0.182162732966E+05  0.188249350630E+05  0.194579449076E+05  0.201162712933E+05  0.208009170035E+05
  0.215129200929E+05  0.222533546923E+05  0.230233318733E+05  0.238239998840E+05  0.246565454420E+05
  0.255221936522E+05  0.264222092876E+05  0.273578967386E+05  0.283306005342E+05  0.293417058644E+05
  0.303926387040E+05  0.314848659617E+05  0.326198954500E+05  0.337992758862E+05  0.350245967029E+05
  0.362974875320E+05  0.376196176917E+05  0.389926955415E+05  0.404184674802E+05  0.418987168629E+05
  0.434352625097E+05  0.450299572708E+05  0.466846860124E+05  0.484013634145E+05  0.501819315408E+05
  0.520283570324E+05  0.539426278319E+05  0.559267496662E+05  0.579827420967E+05  0.601126340422E+05
  0.623184590085E+05  0.646022496290E+05  0.669660319097E+05  0.694118187872E+05  0.719416031864E+05
  0.745573504209E+05  0.772609901167E+05  0.800544073470E+05  0.829394331469E+05  0.859178343993E+05
  0.889913028992E+05  0.921614437937E+05  0.954297631807E+05  0.987976549830E+05  0.102266387086E+06
  0.105837086424E+06  0.109510723999E+06  0.113288097941E+06  0.117169816723E+06  0.121156281739E+06
  0.125247667743E+06  0.129443904438E+06  0.133744655821E+06  0.138149299939E+06  0.142656907028E+06
  0.147266218270E+06  0.151975622951E+06  0.156783136191E+06  0.161686375597E+06  0.166682538355E+06
  0.171768377888E+06  0.176940180733E+06  0.182193743904E+06  0.187524352111E+06  0.192926756217E+06
  0.198395152286E+06  0.203923161443E+06  0.209503811354E+06  0.215129519289E+06  0.220792076590E+06
  0.226482635925E+06  0.232191700180E+06  0.237909114942E+06  0.243624063424E+06  0.249325065064E+06
  0.254999978037E+06  0.260636005693E+06  0.266219707563E+06  0.271737015389E+06  0.277173254102E+06
  0.282513168580E+06  0.287740956195E+06  0.292840305592E+06  0.297794441922E+06  0.302586178824E+06
  0.307197977355E+06  0.311612011935E+06  0.315810243651E+06  0.319774500611E+06  0.323486565722E+06
  0.326928271429E+06  0.330081601424E+06  0.332928799149E+06  0.335452482221E+06  0.337635763103E+06
  0.339462374503E+06  0.340916799533E+06  0.341984405320E+06  0.342651579386E+06  0.342905867472E+06
  0.342736111846E+06  0.342132588544E+06  0.341087142199E+06  0.339593317021E+06  0.337646481998E+06
  0.335243948904E+06  0.332385081109E+06  0.329071391509E+06  0.325306627597E+06  0.321096841970E+06
  0.316450446365E+06  0.311378247586E+06  0.305893463683E+06  0.300011718907E+06  0.293751016244E+06
  0.287131686432E+06  0.280176312781E+06  0.272909631297E+06  0.265358406033E+06  0.257551279922E+06
  0.249518601646E+06  0.241292229568E+06  0.232905313849E+06  0.224392058506E+06  0.215787464827E+06
  0.207127054783E+06  0.198446598908E+06  0.189781794098E+06  0.181167971132E+06  0.172639776965E+06
  0.164230859423E+06  0.155973555163E+06  0.147898586335E+06  0.140034771769E+06  0.132408758418E+06
  0.125044778305E+06  0.117964435310E+06  0.111186525123E+06  0.104726890575E+06  0.985983137421E+05
  0.928104453815E+05  0.873697718075E+05  0.822796188709E+05  0.775401924717E+05  0.731486547985E+05
  0.690992353146E+05  0.653833753079E+05  0.619899042488E+05  0.589052461158E+05  0.561136528497E+05
  0.535974619799E+05  0.513373747494E+05  0.493127505672E+05  0.475019135054E+05  0.458824660848E+05
  0.444316055957E+05  0.431264382260E+05  0.419442862891E+05  0.408629840069E+05  0.398611577626E+05
  0.389184867598E+05  0.380159407211E+05  0.371359914033E+05  0.362627952695E+05  0.353823452616E+05
  0.344825896127E+05  0.335535167962E+05  0.325872053578E+05  0.315778387426E+05  0.305216847947E+05
  0.294170408395E+05  0.282641453767E+05  0.270650580124E+05  0.258235101283E+05  0.245447291324E+05
  0.232352402435E+05  0.219026502594E+05  0.205554186128E+05  0.192026214713E+05  0.178537146091E+05
  0.165182999719E+05  0.152059015085E+05  0.139257493461E+05  0.126865752177E+05  0.114964249446E+05
  0.103624792987E+05  0.929089904932E+04  0.828670451606E+04  0.735369465527E+04  0.649441761237E+04
  0.571019225116E+04  0.500117071810E+04  0.436642563914E+04  0.380404773294E+04  0.331124821973E+04
  0.288446743751E+04  0.251949231678E+04  0.221158281601E+04  0.195560461767E+04  0.174616387156E+04
  0.157773958119E+04  0.144480964196E+04  0.134196714891E+04  0.126402417396E+04  0.120610085060E+04
  0.116369815550E+04  0.113275347313E+04  0.110967871996E+04  0.109138140494E+04  0.107526969943E+04
  0.105924306792E+04  0.104167033251E+04  0.102135749688E+04  0.997507528135E+03  0.969674566599E+03
  0.937714712858E+03  0.901735554024E+03  0.862046136548E+03  0.819109055516E+03  0.773495776707E+03
  0.725846068906E+03  0.676832701707E+03  0.627130375352E+03  0.577390889425E+03  0.528222959790E+03
  0.480177099303E+03  0.433734910344E+03  0.389303114908E+03  0.347210125314E+03  0.307706391374E+03
  0.270967313352E+03  0.237097940125E+03  0.206139276522E+03  0.178075663762E+03  0.152842812112E+03
  0.130336110482E+03  0.110418883707E+03  0.929303191366E+02  0.776928381817E+02  0.645187451520E+02
  0.532160451488E+02  0.435933805901E+02  0.354640895742E+02  0.286494309021E+02  0.229810459234E+02
  0.183027357078E+02  0.144716271253E+02  0.113587939300E+02  0.884939614209E+01  0.684240616102E+01
  0.524999907679E+01  0.399669080888E+01  0.301830773557E+01  0.226086299801E+01  0.167940240435E+01
  0.123686811235E+01  0.903014955145E+00  0.653402699809E+00  0.468478425053E+00  0.332756059318E+00
  0.234094819491E+00  0.163074292462E+00  0.112461033821E+00  0.767596515348E-01  0.518401363005E-01
  0.346326416632E-01  0.228808277116E-01  0.149451676734E-01  0.964817259291E-02  0.615421491810E-02
  0.387746116363E-02  0.241228737959E-02  0.148140113005E-02  0.897695850818E-03  0.536593218999E-03
  0.316273398670E-03  0.183746632846E-03  0.105183754597E-03  0.593033745620E-04  0.329181979271E-04
  0.179820225940E-04  0.966278222055E-05  0.510549195286E-05  0.265124851887E-05  0.135251256795E-05
  0.677494036830E-06  0.333067790088E-06  0.160622591805E-06  0.759460445708E-07  0.351883964817E-07
  0.159681300649E-07  0.709294031530E-08  0.308223814933E-08  0.130953160727E-08  0.543638176122E-09
  0.220380961477E-09  0.871818102175E-10  0.336336687587E-10  0.126450124962E-10  0.462969339734E-11
  0.164951246661E-11  0.571482617035E-12  0.192379760326E-12  0.628754083810E-13  0.199349333208E-13
  0.612632453331E-14  0.182333457871E-14
 mkinetic energy-density pseudized
  0.558320872458E-06  0.588906348575E-06  0.621167333144E-06  0.655195612495E-06  0.691088001118E-06
  0.728946617114E-06  0.768879172737E-06  0.810999280842E-06  0.855426778130E-06  0.902288066100E-06
  0.951716470669E-06  0.100385262151E-05  0.105884485215E-05  0.111684962200E-05  0.117803196151E-05
  0.124256594168E-05  0.131063516934E-05  0.138243330949E-05  0.145816463635E-05  0.153804461451E-05
  0.162230051197E-05  0.171117204674E-05  0.180491206885E-05  0.190378727975E-05  0.200807899113E-05
  0.211808392524E-05  0.223411505912E-05  0.235650251508E-05  0.248559449990E-05  0.262175829553E-05
  0.276538130406E-05  0.291687214993E-05  0.307666184247E-05  0.324520500224E-05  0.342298115440E-05
  0.361049609310E-05  0.380828332046E-05  0.401690556445E-05  0.423695637995E-05  0.446906183746E-05
  0.471388230433E-05  0.497211432362E-05  0.524449259579E-05  0.553179206908E-05  0.583483014424E-05
  0.615446900019E-05  0.649161804701E-05  0.684723651329E-05  0.722233617526E-05  0.761798423541E-05
  0.803530635878E-05  0.847548987565E-05  0.893978715956E-05  0.942951919051E-05  0.994607931328E-05
  0.104909372016E-04  0.110656430397E-04  0.116718319324E-04  0.123112285577E-04  0.129856520730E-04
  0.136970212915E-04  0.144473601409E-04  0.152388034221E-04  0.160736028823E-04  0.169541336224E-04
  0.178829008535E-04  0.188625470251E-04  0.198958593428E-04  0.209857776983E-04  0.221354030338E-04
  0.233480061642E-04  0.246270370833E-04  0.259761347790E-04  0.273991375868E-04  0.289000941101E-04
  0.304832747388E-04  0.321531837994E-04  0.339145723695E-04  0.357724517958E-04  0.377321079512E-04
  0.397991162741E-04  0.419793576304E-04  0.442790350456E-04  0.467046913528E-04  0.492632278074E-04
  0.519619237217E-04  0.548084571752E-04  0.578109268596E-04  0.609778751194E-04  0.643183122562E-04
  0.678417421632E-04  0.715581893644E-04  0.754782275351E-04  0.796130095845E-04  0.839742993864E-04
  0.885745052476E-04  0.934267152110E-04  0.985447342904E-04  0.103943123747E-03  0.109637242518E-03
  0.115643290909E-03  0.121978356689E-03  0.128660463703E-03  0.135708623151E-03  0.143142887673E-03
  0.150984408401E-03  0.159255495133E-03  0.167979679804E-03  0.177181783434E-03  0.186887986743E-03
  0.197125904633E-03  0.207924664756E-03  0.219314990372E-03  0.231329287763E-03  0.244001738422E-03
  0.257368396297E-03  0.271467290364E-03  0.286338532809E-03  0.302024433151E-03  0.318569618598E-03
  0.336021161013E-03  0.354428710818E-03  0.373844638249E-03  0.394324182332E-03  0.415925608031E-03
  0.438710371996E-03  0.462743297393E-03  0.488092758310E-03  0.514830874260E-03  0.543033715338E-03
  0.572781518615E-03  0.604158916389E-03  0.637255176923E-03  0.672164458382E-03  0.708986076671E-03
  0.747824787939E-03  0.788791086561E-03  0.832001519434E-03  0.877579017484E-03  0.925653245332E-03
  0.976360970104E-03  0.102984645044E-02  0.108626184680E-02  0.114576765424E-02  0.120853315889E-02
  0.127473691944E-02  0.134456727492E-02  0.141822288041E-02  0.149591327192E-02  0.157785946236E-02
  0.166429457000E-02  0.175546448144E-02  0.185162855079E-02  0.195306033720E-02  0.206004838268E-02
  0.217289703259E-02  0.229192730094E-02  0.241747778314E-02  0.254990561865E-02  0.268958750631E-02
  0.283692077527E-02  0.299232451448E-02  0.315624076404E-02  0.332913577165E-02  0.351150131789E-02
  0.370385611390E-02  0.390674727565E-02  0.412075187871E-02  0.434647859813E-02  0.458456943802E-02
  0.483570155565E-02  0.510058918532E-02  0.537998566740E-02  0.567468558832E-02  0.598552703751E-02
  0.631339398764E-02  0.665921880505E-02  0.702398489719E-02  0.740872950487E-02  0.781454664686E-02
  0.824259022541E-02  0.869407730133E-02  0.917029154785E-02  0.967258689300E-02  0.102023913608E-01
  0.107612111221E-01  0.113506347660E-01  0.119723378052E-01  0.126280874256E-01  0.133197474959E-01
  0.140492838499E-01  0.148187698565E-01  0.156303922929E-01  0.164864575379E-01  0.173893981022E-01
  0.183417795138E-01  0.193463075780E-01  0.204058360322E-01  0.215233746167E-01  0.227020975835E-01
  0.239453526674E-01  0.252566705441E-01  0.266397748007E-01  0.280985924476E-01  0.296372649983E-01
  0.312601601514E-01  0.329718841022E-01  0.347772945218E-01  0.366815142368E-01  0.386899456471E-01
  0.408082859226E-01  0.430425430177E-01  0.453990525492E-01  0.478844955813E-01  0.505059173674E-01
  0.532707470972E-01  0.561868187029E-01  0.592623927803E-01  0.625061796820E-01  0.659273638440E-01
  0.695356294108E-01  0.733411872243E-01  0.773548032491E-01  0.815878285058E-01  0.860522305908E-01
  0.907606268640E-01  0.957263193875E-01  0.100963331705E+00  0.106486447552E+00  0.112311251604E+00
  0.118454172340E+00  0.124932527159E+00  0.131764569827E+00  0.138969540400E+00  0.146567717711E+00
  0.154580474571E+00  0.163030335797E+00  0.171941039210E+00  0.181337599738E+00  0.191246376758E+00
  0.201695144848E+00  0.212713168083E+00  0.224331278037E+00  0.236581955662E+00  0.249499417202E+00
  0.263119704317E+00  0.277480778595E+00  0.292622620627E+00  0.308587333823E+00  0.325419253168E+00
  0.343165059086E+00  0.361873896609E+00  0.381597500038E+00  0.402390323277E+00  0.424309676024E+00
  0.447415866002E+00  0.471772347402E+00  0.497445875694E+00  0.524506668983E+00  0.553028576029E+00
  0.583089251069E+00  0.614770335560E+00  0.648157646906E+00  0.683341374248E+00  0.720416281332E+00
  0.759481916449E+00  0.800642829392E+00  0.844008795329E+00  0.889695045426E+00  0.937822503990E+00
  0.988518031835E+00  0.104191467547E+01  0.109815192164E+01  0.115737595656E+01  0.121973992924E+01
  0.128540421781E+01  0.135453669814E+01  0.142731301314E+01  0.150391684174E+01  0.158454016552E+01
  0.166938353147E+01  0.175865630835E+01  0.185257693445E+01  0.195137315372E+01  0.205528223714E+01
  0.216455118561E+01  0.227943691033E+01  0.240020638591E+01  0.252713677101E+01  0.266051549070E+01
  0.280064027394E+01  0.294781913883E+01  0.310237031761E+01  0.326462211216E+01  0.343491267017E+01
  0.361358967071E+01  0.380100990709E+01  0.399753875332E+01  0.420354949956E+01  0.441942254012E+01
  0.464554439629E+01  0.488230655457E+01  0.513010409929E+01  0.538933411651E+01  0.566039384474E+01
  0.594367854553E+01  0.623957906544E+01  0.654847905877E+01  0.687075183833E+01  0.720675681988E+01
  0.755683552368E+01  0.792130709527E+01  0.830046330577E+01  0.869456299113E+01  0.910382588866E+01
  0.952842582925E+01  0.996848324380E+01  0.104240569437E+02  0.108951351376E+02  0.113816256493E+02
  0.118833453083E+02  0.124000084890E+02  0.129312147847E+02  0.134764358137E+02  0.140350011683E+02
  0.146060835350E+02  0.151886830357E+02  0.157816108652E+02  0.163834723296E+02  0.169926494274E+02
  0.176072831566E+02  0.182252557793E+02  0.188441733307E+02  0.194613487257E+02  0.200737858838E+02
  0.206781653770E+02  0.212708321929E+02  0.218477863013E+02  0.224046768193E+02  0.229368006782E+02
  0.234391068142E+02  0.239062070203E+02  0.243323947131E+02  0.247116729768E+02  0.250377933443E+02
  0.253043068459E+02  0.255046289023E+02  0.256321196336E+02  0.256801810945E+02  0.256423728083E+02
  0.255125467287E+02  0.252850023993E+02  0.249546625650E+02  0.245172687956E+02  0.239695957735E+02
  0.233096817467E+02  0.225370712166E+02  0.216530642005E+02  0.206609643445E+02  0.195663157769E+02
  0.183771158687E+02  0.171039880641E+02  0.157602957124E+02  0.143621744938E+02  0.129284577569E+02
  0.114804661161E+02  0.100416303190E+02  0.863691511905E+01  0.729201220953E+01  0.603227284831E+01
  0.488135640385E+01  0.385958055255E+01  0.298197320803E+01  0.225604643106E+01  0.167933945184E+01
  0.123686811235E+01  0.903014955145E+00  0.653402699809E+00  0.468478425053E+00  0.332756059318E+00
  0.234094819491E+00  0.163074292462E+00  0.112461033821E+00  0.767596515348E-01  0.518401363005E-01
  0.346326416632E-01  0.228808277116E-01  0.149451676734E-01  0.964817259291E-02  0.615421491810E-02
  0.387746116363E-02  0.241228737959E-02  0.148140113005E-02  0.897695850818E-03  0.536593218999E-03
  0.316273398670E-03  0.183746632846E-03  0.105183754597E-03  0.593033745620E-04  0.329181979271E-04
  0.179820225940E-04  0.966278222055E-05  0.510549195286E-05  0.265124851887E-05  0.135251256795E-05
  0.677494036830E-06  0.333067790088E-06  0.160622591805E-06  0.759460445708E-07  0.351883964817E-07
  0.159681300649E-07  0.709294031530E-08  0.308223814933E-08  0.130953160727E-08  0.543638176122E-09
  0.220380961477E-09  0.871818102175E-10  0.336336687587E-10  0.126450124962E-10  0.462969339734E-11
  0.164951246661E-11  0.571482617035E-12  0.192379760326E-12  0.628754083810E-13  0.199349333208E-13
  0.612632453331E-14  0.182333457871E-14
 local pseudopotential core
 -0.484189055409E+03 -0.484190198407E+03 -0.484191311321E+03 -0.484192394943E+03 -0.484193450044E+03
 -0.484194477372E+03 -0.484195477659E+03 -0.484196451616E+03 -0.484197399935E+03 -0.484198323290E+03
 -0.484199222339E+03 -0.484200097719E+03 -0.484200950053E+03 -0.484201779947E+03 -0.484202587991E+03
 -0.484203374758E+03 -0.484204140809E+03 -0.484204886688E+03 -0.484205612924E+03 -0.484206320034E+03
 -0.484207008520E+03 -0.484207678871E+03 -0.484208331564E+03 -0.484208967062E+03 -0.484209585816E+03
 -0.484210188266E+03 -0.484210774840E+03 -0.484211345955E+03 -0.484211902015E+03 -0.484212443415E+03
 -0.484212970541E+03 -0.484213483765E+03 -0.484213983452E+03 -0.484214469957E+03 -0.484214943625E+03
 -0.484215404790E+03 -0.484215853781E+03 -0.484216290915E+03 -0.484216716502E+03 -0.484217130845E+03
 -0.484217534235E+03 -0.484217926958E+03 -0.484218309293E+03 -0.484218681510E+03 -0.484219043872E+03
 -0.484219396634E+03 -0.484219740047E+03 -0.484220074352E+03 -0.484220399785E+03 -0.484220716576E+03
 -0.484221024947E+03 -0.484221325115E+03 -0.484221617292E+03 -0.484221901683E+03 -0.484222178487E+03
 -0.484222447899E+03 -0.484222710106E+03 -0.484222965293E+03 -0.484223213637E+03 -0.484223455311E+03
 -0.484223690483E+03 -0.484223919317E+03 -0.484224141972E+03 -0.484224358601E+03 -0.484224569354E+03
 -0.484224774375E+03 -0.484224973806E+03 -0.484225167783E+03 -0.484225356437E+03 -0.484225539898E+03
 -0.484225718289E+03 -0.484225891730E+03 -0.484226060338E+03 -0.484226224225E+03 -0.484226383499E+03
 -0.484226538266E+03 -0.484226688627E+03 -0.484226834680E+03 -0.484226976519E+03 -0.484227114233E+03
 -0.484227247911E+03 -0.484227377636E+03 -0.484227503488E+03 -0.484227625544E+03 -0.484227743878E+03
 -0.484227858558E+03 -0.484227969652E+03 -0.484228077224E+03 -0.484228181332E+03 -0.484228282033E+03
 -0.484228379381E+03 -0.484228473425E+03 -0.484228564212E+03 -0.484228651784E+03 -0.484228736180E+03
 -0.484228817437E+03 -0.484228895587E+03 -0.484228970658E+03 -0.484229042676E+03 -0.484229111661E+03
 -0.484229177632E+03 -0.484229240602E+03 -0.484229300580E+03 -0.484229357572E+03 -0.484229411580E+03
 -0.484229462601E+03 -0.484229510627E+03 -0.484229555647E+03 -0.484229597645E+03 -0.484229636600E+03
 -0.484229672484E+03 -0.484229705268E+03 -0.484229734915E+03 -0.484229761382E+03 -0.484229784622E+03
 -0.484229804580E+03 -0.484229821198E+03 -0.484229834409E+03 -0.484229844140E+03 -0.484229850310E+03
 -0.484229852833E+03 -0.484229851614E+03 -0.484229846548E+03 -0.484229837527E+03 -0.484229824429E+03
 -0.484229807125E+03 -0.484229785477E+03 -0.484229759336E+03 -0.484229728543E+03 -0.484229692929E+03
 -0.484229652310E+03 -0.484229606494E+03 -0.484229555274E+03 -0.484229498431E+03 -0.484229435729E+03
 -0.484229366922E+03 -0.484229291743E+03 -0.484229209913E+03 -0.484229121135E+03 -0.484229025092E+03
 -0.484228921449E+03 -0.484228809852E+03 -0.484228689925E+03 -0.484228561270E+03 -0.484228423466E+03
 -0.484228276066E+03 -0.484228118600E+03 -0.484227950567E+03 -0.484227771441E+03 -0.484227580662E+03
 -0.484227377642E+03 -0.484227161757E+03 -0.484226932348E+03 -0.484226688718E+03 -0.484226430133E+03
 -0.484226155815E+03 -0.484225864944E+03 -0.484225556653E+03 -0.484225230027E+03 -0.484224884100E+03
 -0.484224517852E+03 -0.484224130205E+03 -0.484223720022E+03 -0.484223286104E+03 -0.484222827182E+03
 -0.484222341921E+03 -0.484221828909E+03 -0.484221286657E+03 -0.484220713592E+03 -0.484220108056E+03
 -0.484219468299E+03 -0.484218792474E+03 -0.484218078632E+03 -0.484217324718E+03 -0.484216528560E+03
 -0.484215687872E+03 -0.484214800236E+03 -0.484213863107E+03 -0.484212873795E+03 -0.484211829464E+03
 -0.484210727123E+03 -0.484209563616E+03 -0.484208335612E+03 -0.484207039600E+03 -0.484205671874E+03
 -0.484204228525E+03 -0.484202705429E+03 -0.484201098237E+03 -0.484199402361E+03 -0.484197612961E+03
 -0.484195724931E+03 -0.484193732885E+03 -0.484191631143E+03 -0.484189413712E+03 -0.484187074272E+03
 -0.484184606155E+03 -0.484182002330E+03 -0.484179255377E+03 -0.484176357473E+03 -0.484173300365E+03
 -0.484170075347E+03 -0.484166673237E+03 -0.484163084350E+03 -0.484159298472E+03 -0.484155304827E+03
 -0.484151092051E+03 -0.484146648158E+03 -0.484141960503E+03 -0.484137015753E+03 -0.484131799841E+03
 -0.484126297935E+03 -0.484120494386E+03 -0.484114372693E+03 -0.484107915451E+03 -0.484101104301E+03
 -0.484093919882E+03 -0.484086341774E+03 -0.484078348439E+03 -0.484069917161E+03 -0.484061023985E+03
 -0.484051643644E+03 -0.484041749490E+03 -0.484031313419E+03 -0.484020305791E+03 -0.484008695349E+03
 -0.483996449125E+03 -0.483983532353E+03 -0.483969908367E+03 -0.483955538501E+03 -0.483940381976E+03
 -0.483924395790E+03 -0.483907534593E+03 -0.483889750562E+03 -0.483870993265E+03 -0.483851209522E+03
 -0.483830343252E+03 -0.483808335321E+03 -0.483785123371E+03 -0.483760641649E+03 -0.483734820822E+03
 -0.483707587785E+03 -0.483678865453E+03 -0.483648572552E+03 -0.483616623389E+03 -0.483582927615E+03
 -0.483547389972E+03 -0.483509910033E+03 -0.483470381923E+03 -0.483428694022E+03 -0.483384728663E+03
 -0.483338361804E+03 -0.483289462690E+03 -0.483237893489E+03 -0.483183508922E+03 -0.483126155859E+03
 -0.483065672906E+03 -0.483001889963E+03 -0.482934627765E+03 -0.482863697394E+03 -0.482788899774E+03
 -0.482710025128E+03 -0.482626852423E+03 -0.482539148774E+03 -0.482446668827E+03 -0.482349154104E+03
 -0.482246332323E+03 -0.482137916682E+03 -0.482023605105E+03 -0.481903079452E+03 -0.481776004701E+03
 -0.481642028075E+03 -0.481500778141E+03 -0.481351863860E+03 -0.481194873598E+03 -0.481029374086E+03
 -0.480854909338E+03 -0.480670999519E+03 -0.480477139765E+03 -0.480272798946E+03 -0.480057418386E+03
 -0.479830410524E+03 -0.479591157517E+03 -0.479339009794E+03 -0.479073284552E+03 -0.478793264188E+03
 -0.478498194684E+03 -0.478187283926E+03 -0.477859699965E+03 -0.477514569229E+03 -0.477150974665E+03
 -0.476767953841E+03 -0.476364496976E+03 -0.475939544938E+03 -0.475491987177E+03 -0.475020659620E+03
 -0.474524342529E+03 -0.474001758312E+03 -0.473451569319E+03 -0.472872375603E+03 -0.472262712677E+03
 -0.471621049261E+03 -0.470945785042E+03 -0.470235248451E+03 -0.469487694476E+03 -0.468701302529E+03
 -0.467874174383E+03 -0.467004332197E+03 -0.466089716665E+03 -0.465128185299E+03 -0.464117510882E+03
 -0.463055380131E+03 -0.461939392589E+03 -0.460767059800E+03 -0.459535804800E+03 -0.458242961974E+03
 -0.456885777327E+03 -0.455461409227E+03 -0.453966929675E+03 -0.452399326170E+03 -0.450755504228E+03
 -0.449032290640E+03 -0.447226437534E+03 -0.445334627333E+03 -0.443353478687E+03 -0.441279553473E+03
 -0.439109364969E+03 -0.436839387283E+03 -0.434466066157E+03 -0.431985831253E+03 -0.429395110031E+03
 -0.426690343342E+03 -0.423868002861E+03 -0.420924610492E+03 -0.417856759882E+03 -0.414661140207E+03
 -0.411334562368E+03 -0.407873987814E+03 -0.404276560157E+03 -0.400539639851E+03 -0.396660842165E+03
 -0.392638078804E+03 -0.388469603524E+03 -0.384154062199E+03 -0.379690547850E+03 -0.375078661227E+03
 -0.370318577600E+03 -0.365411120418E+03 -0.360357842426E+03 -0.355161114528E+03 -0.349824221997E+03
 -0.344351466287E+03 -0.338748268042E+03 -0.333021262139E+03 -0.327178367329E+03 -0.321228799153E+03
 -0.315182973283E+03 -0.309052216155E+03 -0.302848165679E+03 -0.296581727182E+03 -0.290261499324E+03
 -0.283891792768E+03 -0.277470833509E+03 -0.270990467173E+03 -0.264439354600E+03 -0.257811623606E+03
 -0.251121578163E+03 -0.244421630632E+03 -0.237810741557E+03 -0.231392024535E+03 -0.225112504517E+03
 -0.218588275824E+03 -0.211382025974E+03 -0.203634269700E+03 -0.197544418101E+03 -0.191820007320E+03
 -0.186397718238E+03 -0.181308699581E+03 -0.176570543340E+03 -0.172192384296E+03 -0.168185543306E+03
 -0.164325561073E+03 -0.159997999087E+03 -0.155787704181E+03 -0.151688223275E+03 -0.147696634022E+03
 -0.143810095766E+03 -0.140025835344E+03 -0.136341158024E+03 -0.132753444835E+03 -0.129260141585E+03
 -0.125858762292E+03 -0.122546887588E+03 -0.119322163278E+03 -0.116182294699E+03 -0.113125049205E+03
 -0.110148252629E+03 -0.107249787838E+03 -0.104427593638E+03 -0.101679663099E+03 -0.990040420035E+02
 -0.963988276132E+02 -0.938621672366E+02 -0.913922569691E+02 -0.889873401779E+02 -0.866457069408E+02
 -0.843656918149E+02 -0.821456734096E+02 -0.799840729783E+02 -0.778793533188E+02 -0.758300176523E+02
 -0.738346085275E+02 -0.718917070258E+02 -0.699999313731E+02 -0.681579362961E+02 -0.663644118422E+02
 -0.646180825493E+02 -0.629177065298E+02 -0.612620745671E+02 -0.596500092691E+02 -0.580803642204E+02
 -0.565520231747E+02 -0.550638992598E+02 -0.536149342006E+02 -0.522040975650E+02 -0.508303860360E+02
 -0.494928226975E+02 -0.481904563379E+02
 pspotential valence only
 -0.377919131238E+03 -0.377920274248E+03 -0.377921387175E+03 -0.377922470810E+03 -0.377923525924E+03
 -0.377924553266E+03 -0.377925553568E+03 -0.377926527541E+03 -0.377927475877E+03 -0.377928399250E+03
 -0.377929298317E+03 -0.377930173717E+03 -0.377931026071E+03 -0.377931855987E+03 -0.377932664054E+03
 -0.377933450846E+03 -0.377934216923E+03 -0.377934962828E+03 -0.377935689093E+03 -0.377936396233E+03
 -0.377937084751E+03 -0.377937755135E+03 -0.377938407863E+03 -0.377939043398E+03 -0.377939662192E+03
 -0.377940264683E+03 -0.377940851301E+03 -0.377941422462E+03 -0.377941978570E+03 -0.377942520022E+03
 -0.377943047202E+03 -0.377943560483E+03 -0.377944060230E+03 -0.377944546799E+03 -0.377945020533E+03
 -0.377945481769E+03 -0.377945930834E+03 -0.377946368047E+03 -0.377946793718E+03 -0.377947208147E+03
 -0.377947611629E+03 -0.377948004450E+03 -0.377948386888E+03 -0.377948759213E+03 -0.377949121689E+03
 -0.377949474572E+03 -0.377949818111E+03 -0.377950152550E+03 -0.377950478125E+03 -0.377950795064E+03
 -0.377951103592E+03 -0.377951403927E+03 -0.377951696279E+03 -0.377951980854E+03 -0.377952257853E+03
 -0.377952527469E+03 -0.377952789893E+03 -0.377953045308E+03 -0.377953293892E+03 -0.377953535820E+03
 -0.377953771261E+03 -0.377954000378E+03 -0.377954223330E+03 -0.377954440274E+03 -0.377954651358E+03
 -0.377954856729E+03 -0.377955056529E+03 -0.377955250895E+03 -0.377955439960E+03 -0.377955623853E+03
 -0.377955802701E+03 -0.377955976624E+03 -0.377956145739E+03 -0.377956310162E+03 -0.377956470002E+03
 -0.377956625365E+03 -0.377956776355E+03 -0.377956923071E+03 -0.377957065609E+03 -0.377957204062E+03
 -0.377957338518E+03 -0.377957469064E+03 -0.377957595782E+03 -0.377957718752E+03 -0.377957838049E+03
 -0.377957953745E+03 -0.377958065911E+03 -0.377958174613E+03 -0.377958279914E+03 -0.377958381874E+03
 -0.377958480548E+03 -0.377958575992E+03 -0.377958668255E+03 -0.377958757384E+03 -0.377958843423E+03
 -0.377958926412E+03 -0.377959006389E+03 -0.377959083388E+03 -0.377959157438E+03 -0.377959228568E+03
 -0.377959296800E+03 -0.377959362155E+03 -0.377959424650E+03 -0.377959484296E+03 -0.377959541104E+03
 -0.377959595077E+03 -0.377959646218E+03 -0.377959694524E+03 -0.377959739987E+03 -0.377959782597E+03
 -0.377959822337E+03 -0.377959859187E+03 -0.377959893123E+03 -0.377959924115E+03 -0.377959952127E+03
 -0.377959977119E+03 -0.377959999047E+03 -0.377960017858E+03 -0.377960033495E+03 -0.377960045896E+03
 -0.377960054991E+03 -0.377960060703E+03 -0.377960062950E+03 -0.377960061640E+03 -0.377960056677E+03
 -0.377960047953E+03 -0.377960035356E+03 -0.377960018761E+03 -0.377959998037E+03 -0.377959973043E+03
 -0.377959943627E+03 -0.377959909628E+03 -0.377959870871E+03 -0.377959827174E+03 -0.377959778339E+03
 -0.377959724157E+03 -0.377959664406E+03 -0.377959598849E+03 -0.377959527234E+03 -0.377959449295E+03
 -0.377959364748E+03 -0.377959273293E+03 -0.377959174612E+03 -0.377959068366E+03 -0.377958954198E+03
 -0.377958831731E+03 -0.377958700561E+03 -0.377958560267E+03 -0.377958410398E+03 -0.377958250480E+03
 -0.377958080011E+03 -0.377957898460E+03 -0.377957705266E+03 -0.377957499835E+03 -0.377957281541E+03
 -0.377957049722E+03 -0.377956803678E+03 -0.377956542670E+03 -0.377956265917E+03 -0.377955972594E+03
 -0.377955661833E+03 -0.377955332712E+03 -0.377954984262E+03 -0.377954615458E+03 -0.377954225218E+03
 -0.377953812401E+03 -0.377953375801E+03 -0.377952914147E+03 -0.377952426096E+03 -0.377951910231E+03
 -0.377951365058E+03 -0.377950788998E+03 -0.377950180386E+03 -0.377949537466E+03 -0.377948858385E+03
 -0.377948141185E+03 -0.377947383804E+03 -0.377946584064E+03 -0.377945739669E+03 -0.377944848193E+03
 -0.377943907081E+03 -0.377942913635E+03 -0.377941865010E+03 -0.377940758202E+03 -0.377939590046E+03
 -0.377938357200E+03 -0.377937056139E+03 -0.377935683146E+03 -0.377934234299E+03 -0.377932705460E+03
 -0.377931092266E+03 -0.377929390113E+03 -0.377927594145E+03 -0.377925699240E+03 -0.377923699995E+03
 -0.377921590711E+03 -0.377919365376E+03 -0.377917017649E+03 -0.377914540843E+03 -0.377911927901E+03
 -0.377909171384E+03 -0.377906263442E+03 -0.377903195796E+03 -0.377899959715E+03 -0.377896545989E+03
 -0.377892944903E+03 -0.377889146212E+03 -0.377885139108E+03 -0.377880912194E+03 -0.377876453447E+03
 -0.377871750188E+03 -0.377866789043E+03 -0.377861555909E+03 -0.377856035907E+03 -0.377850213349E+03
 -0.377844071686E+03 -0.377837593467E+03 -0.377830760284E+03 -0.377823552726E+03 -0.377815950318E+03
 -0.377807931468E+03 -0.377799473406E+03 -0.377790552116E+03 -0.377781142270E+03 -0.377771217160E+03
 -0.377760748616E+03 -0.377749706935E+03 -0.377738060790E+03 -0.377725777146E+03 -0.377712821167E+03
 -0.377699156116E+03 -0.377684743255E+03 -0.377669541733E+03 -0.377653508476E+03 -0.377636598062E+03
 -0.377618762597E+03 -0.377599951579E+03 -0.377580111761E+03 -0.377559186996E+03 -0.377537118089E+03
 -0.377513842626E+03 -0.377489294803E+03 -0.377463405245E+03 -0.377436100809E+03 -0.377407304390E+03
 -0.377376934699E+03 -0.377344906047E+03 -0.377311128104E+03 -0.377275505653E+03 -0.377237938329E+03
 -0.377198320347E+03 -0.377156540208E+03 -0.377112480400E+03 -0.377066017078E+03 -0.377017019730E+03
 -0.376965350820E+03 -0.376910865425E+03 -0.376853410840E+03 -0.376792826171E+03 -0.376728941911E+03
 -0.376661579484E+03 -0.376590550774E+03 -0.376515657632E+03 -0.376436691358E+03 -0.376353432149E+03
 -0.376265648537E+03 -0.376173096786E+03 -0.376075520269E+03 -0.375972648809E+03 -0.375864197999E+03
 -0.375749868482E+03 -0.375629345203E+03 -0.375502296627E+03 -0.375368373922E+03 -0.375227210110E+03
 -0.375078419175E+03 -0.374921595142E+03 -0.374756311116E+03 -0.374582118275E+03 -0.374398544838E+03
 -0.374205094980E+03 -0.374001247720E+03 -0.373786455756E+03 -0.373560144273E+03 -0.373321709705E+03
 -0.373070518455E+03 -0.372805905591E+03 -0.372527173490E+03 -0.372233590456E+03 -0.371924389308E+03
 -0.371598765932E+03 -0.371255877809E+03 -0.370894842526E+03 -0.370514736263E+03 -0.370114592272E+03
 -0.369693399350E+03 -0.369250100314E+03 -0.368783590490E+03 -0.368292716221E+03 -0.367776273404E+03
 -0.367233006082E+03 -0.366661605087E+03 -0.366060706762E+03 -0.365428891785E+03 -0.364764684096E+03
 -0.364066549973E+03 -0.363332897266E+03 -0.362562074829E+03 -0.361752372166E+03 -0.360902019349E+03
 -0.360009187215E+03 -0.359071987913E+03 -0.358088475829E+03 -0.357056648933E+03 -0.355974450628E+03
 -0.354839772120E+03 -0.353650455406E+03 -0.352404296923E+03 -0.351099051938E+03 -0.349732439756E+03
 -0.348302149818E+03 -0.346805848782E+03 -0.345241188662E+03 -0.343605816139E+03 -0.341897383111E+03
 -0.340113558601E+03 -0.338252042112E+03 -0.336310578541E+03 -0.334286974738E+03 -0.332179117822E+03
 -0.329984995355E+03 -0.327702717464E+03 -0.325330541005E+03 -0.322866895860E+03 -0.320310413447E+03
 -0.317659957517E+03 -0.314914657298E+03 -0.312073943062E+03 -0.309137584139E+03 -0.306105729444E+03
 -0.302978950535E+03 -0.299758287233E+03 -0.296445295813E+03 -0.293042099759E+03 -0.289551443041E+03
 -0.285976745797E+03 -0.282322162170E+03 -0.278592639788E+03 -0.274793979876E+03 -0.270932896125E+03
 -0.267017068779E+03 -0.263055187568E+03 -0.259056972083E+03 -0.255033149669E+03 -0.250995356891E+03
 -0.246955908989E+03 -0.242927351550E+03 -0.238921674828E+03 -0.234949054170E+03 -0.231016030662E+03
 -0.227123255872E+03 -0.223263396103E+03 -0.219420519370E+03 -0.215572966700E+03 -0.211701689334E+03
 -0.207804676185E+03 -0.203914667235E+03 -0.200107474320E+03 -0.196459609559E+03 -0.192888255696E+03
 -0.188976869356E+03 -0.184253420528E+03 -0.178822634404E+03 -0.174848358024E+03 -0.171004341361E+03
 -0.167196991973E+03 -0.163432505369E+03 -0.159710578447E+03 -0.156031018885E+03 -0.152405514165E+03
 -0.148855291876E+03 -0.145402052418E+03 -0.142020677118E+03 -0.138706859081E+03 -0.135459734249E+03
 -0.132278439571E+03 -0.129162121837E+03 -0.126109905752E+03 -0.123120911644E+03 -0.120194237044E+03
 -0.117328944062E+03 -0.114524055837E+03 -0.111778549917E+03 -0.109091354484E+03 -0.106461350833E+03
 -0.103887379783E+03 -0.101368252721E+03 -0.989027671003E+02 -0.964897251922E+02 -0.941279543339E+02
 -0.918163272317E+02 -0.895537804914E+02 -0.873393299998E+02 -0.851720834820E+02 -0.830512412550E+02
 -0.809761101508E+02 -0.789460901105E+02 -0.769606742469E+02 -0.750194390309E+02 -0.731220328494E+02
 -0.712681620440E+02 -0.694575744634E+02 -0.676900404750E+02 -0.659653315537E+02 -0.642831967792E+02
 -0.626433381395E+02 -0.610453860490E+02 -0.594888770417E+02 -0.579732358882E+02 -0.564977643026E+02
 -0.550616378819E+02 -0.536639119941E+02 -0.523035361947E+02 -0.509793756489E+02 -0.496902372129E+02
 -0.484348974484E+02 -0.472121299285E+02
 core charge-density (pseudized)
  0.342511466960E-08  0.361274649225E-08  0.381065700744E-08  0.401940929405E-08  0.423959727710E-08
  0.447184741752E-08  0.471682049449E-08  0.497521348547E-08  0.524776154915E-08  0.553524011710E-08
  0.583846709991E-08  0.615830521429E-08  0.649566443760E-08  0.685150459680E-08  0.722683809932E-08
  0.762273281344E-08  0.804031510653E-08  0.848077304968E-08  0.894535979790E-08  0.943539715552E-08
  0.995227933685E-08  0.104974769329E-07  0.110725410953E-07  0.116791079497E-07  0.123189032507E-07
  0.129937472914E-07  0.137055600830E-07  0.144563668172E-07  0.152483036277E-07  0.160836236686E-07
  0.169647035239E-07  0.178940499699E-07  0.188743071072E-07  0.199082638829E-07  0.209988620262E-07
  0.221492044174E-07  0.233625639163E-07  0.246423926739E-07  0.259923319537E-07  0.274162224920E-07
  0.289181154252E-07  0.305022838155E-07  0.321732348082E-07  0.339357224554E-07  0.357947612418E-07
  0.377556403510E-07  0.398239387142E-07  0.420055408831E-07  0.443066537715E-07  0.467338243153E-07
  0.492939580987E-07  0.519943390021E-07  0.548426499246E-07  0.578469946435E-07  0.610159208701E-07
  0.643584445689E-07  0.678840756091E-07  0.716028448211E-07  0.755253325355E-07  0.796626986850E-07
  0.840267145558E-07  0.886297962783E-07  0.934850401520E-07  0.986062599061E-07  0.104008026001E-06
  0.109705707082E-06  0.115715513708E-06  0.122054544465E-06  0.128740834623E-06  0.135793407439E-06
  0.143232328287E-06  0.151078761743E-06  0.159355031798E-06  0.168084685376E-06  0.177292559328E-06
  0.187004851088E-06  0.197249193216E-06  0.208054732010E-06  0.219452210430E-06  0.231474055567E-06
  0.244154470899E-06  0.257529533602E-06  0.271637297196E-06  0.286517899806E-06  0.302213678362E-06
  0.318769289050E-06  0.336231834358E-06  0.354650997093E-06  0.374079181727E-06  0.394571663493E-06
  0.416186745648E-06  0.438985925346E-06  0.463034068604E-06  0.488399594848E-06  0.515154671570E-06
  0.543375419651E-06  0.573142129923E-06  0.604539491603E-06  0.637656833237E-06  0.672588376841E-06
  0.709433505968E-06  0.748297048454E-06  0.789289574656E-06  0.832527712025E-06  0.878134476913E-06
  0.926239624554E-06  0.976980018218E-06  0.103050001858E-05  0.108695189444E-05  0.114649625589E-05
  0.120930251128E-05  0.127554934916E-05  0.134542524664E-05  0.141912900559E-05  0.149687031822E-05
  0.157887036367E-05  0.166536243717E-05  0.175659261382E-05  0.185282044859E-05  0.195431971473E-05
  0.206137918266E-05  0.217430344139E-05  0.229341376510E-05  0.241904902707E-05  0.255156666371E-05
  0.269134369138E-05  0.283877777890E-05  0.299428837885E-05  0.315831792075E-05  0.333133306967E-05
  0.351382605370E-05  0.370631606419E-05  0.390935073266E-05  0.412350768855E-05  0.434939620235E-05
  0.458765891870E-05  0.483897368435E-05  0.510405547630E-05  0.538365843551E-05  0.567857801194E-05
  0.598965322711E-05  0.631776906054E-05  0.666385896684E-05  0.702890753069E-05  0.741395326715E-05
  0.782009157529E-05  0.824847785362E-05  0.870033078604E-05  0.917693580765E-05  0.967964876044E-05
  0.102098997490E-04  0.107691972074E-04  0.113591321886E-04  0.119813828888E-04  0.126377194195E-04
  0.133300088402E-04  0.140602204678E-04  0.148304314749E-04  0.156428327963E-04  0.164997353572E-04
  0.174035766431E-04  0.183569276291E-04  0.193625000881E-04  0.204231542993E-04  0.215419071775E-04
  0.227219408485E-04  0.239666116925E-04  0.252794598825E-04  0.266642194444E-04  0.281248288675E-04
  0.296654422946E-04  0.312904413247E-04  0.330044474606E-04  0.348123352365E-04  0.367192460645E-04
  0.387306028362E-04  0.408521253235E-04  0.430898464202E-04  0.454501292713E-04  0.479396853376E-04
  0.505655934470E-04  0.533353198866E-04  0.562567395907E-04  0.593381584862E-04  0.625883370574E-04
  0.660165151963E-04  0.696324384085E-04  0.734463854485E-04  0.774691974620E-04  0.817123087161E-04
  0.861877790051E-04  0.909083278213E-04  0.958873703865E-04  0.101139055646E-03  0.106678306331E-03
  0.112520861197E-03  0.118683319568E-03  0.125183188291E-03  0.132038931252E-03  0.139270021575E-03
  0.146896996662E-03  0.154941516211E-03  0.163426423387E-03  0.172375809312E-03  0.181815081037E-03
  0.191771033207E-03  0.202271923599E-03  0.213347552739E-03  0.225029347833E-03  0.237350451216E-03
  0.250345813581E-03  0.264052292234E-03  0.278508754635E-03  0.293756187510E-03  0.309837811834E-03
  0.326799203977E-03  0.344688423359E-03  0.363556146928E-03  0.383455810848E-03  0.404443759743E-03
  0.426579403908E-03  0.449925384901E-03  0.474547749926E-03  0.500516135493E-03  0.527903960795E-03
  0.556788631326E-03  0.587251753245E-03  0.619379359029E-03  0.653262144993E-03  0.688995721260E-03
  0.726680874806E-03  0.766423846231E-03  0.808336620916E-03  0.852537235289E-03  0.899150098912E-03
  0.948306333168E-03  0.100014412732E-02  0.105480911280E-02  0.111245475650E-02  0.117324277404E-02
  0.123734356394E-02  0.130493666342E-02  0.137621122716E-02  0.145136652967E-02  0.153061249257E-02
  0.161417023759E-02  0.170227266664E-02  0.179516506976E-02  0.189310576231E-02  0.199636675240E-02
  0.210523443970E-02  0.222001034692E-02  0.234101188483E-02  0.246857315236E-02  0.260304577248E-02
  0.274479976531E-02  0.289422445931E-02  0.305172944169E-02  0.321774554895E-02  0.339272589845E-02
  0.357714696178E-02  0.377150968066E-02  0.397634062579E-02  0.419219319923E-02  0.441964888019E-02
  0.465931851451E-02  0.491184364725E-02  0.517789789790E-02  0.545818837719E-02  0.575345714421E-02
  0.606448270182E-02  0.639208152816E-02  0.673710964115E-02  0.710046419241E-02  0.748308508609E-02
  0.788595661741E-02  0.831010912449E-02  0.875662064619E-02  0.922661857732E-02  0.972128131112E-02
  0.102418398576E-01  0.107895794242E-01  0.113658409441E-01  0.119720225340E-01  0.126095808627E-01
  0.132800324069E-01  0.139849545704E-01  0.147259866370E-01  0.155048305260E-01  0.163232513144E-01
  0.171830774845E-01  0.180862008545E-01  0.190345761399E-01  0.200302200922E-01  0.210752101517E-01
  0.221716825487E-01  0.233218297759E-01  0.245278973508E-01  0.257921797771E-01  0.271170156053E-01
  0.285047814833E-01  0.299578850791E-01  0.314787567462E-01  0.330698397902E-01  0.347335791875E-01
  0.364724085897E-01  0.382887354412E-01  0.401849240199E-01  0.421632762028E-01  0.442260097442E-01
  0.463752338426E-01  0.486129217646E-01  0.509408802816E-01  0.533607156694E-01  0.558737960169E-01
  0.584812095856E-01  0.611837189661E-01  0.639817107848E-01  0.668751407248E-01  0.698634736494E-01
  0.729456186435E-01  0.761198588291E-01  0.793837758656E-01  0.827341691116E-01  0.861669695120E-01
  0.896771483792E-01  0.932586213651E-01  0.969041480774E-01  0.100605227977E+00  0.104351993414E+00
  0.108133100911E+00  0.111935622104E+00  0.115744936094E+00  0.119544625335E+00  0.123316377649E+00
  0.127039897427E+00  0.130692829626E+00  0.134250700769E+00  0.137686881788E+00  0.140972578246E+00
  0.144076854150E+00  0.146966696339E+00  0.149607127087E+00  0.151961373285E+00  0.153991101112E+00
  0.155656725600E+00  0.156917804761E+00  0.157733527926E+00  0.158063307612E+00  0.157867483371E+00
  0.157108144661E+00  0.155750077556E+00  0.153761837037E+00  0.151116942355E+00  0.147795187489E+00
  0.143784051677E+00  0.139080186320E+00  0.133690944004E+00  0.127635902817E+00  0.120948324561E+00
  0.113676468834E+00  0.105884666583E+00  0.976540369359E-01  0.890827106305E-01  0.802854032178E-01
  0.713921628633E-01  0.625461030136E-01  0.538999220233E-01  0.456110133216E-01  0.378349848315E-01
  0.307174398437E-01  0.243839287538E-01  0.189280678051E-01  0.143979431779E-01  0.107810819945E-01
  0.798883815104E-02  0.586788952942E-02  0.427149266983E-02  0.308093108078E-02  0.220135965009E-02
  0.155777858596E-02  0.109149557808E-02  0.757063457735E-03  0.519667779252E-03  0.352929677426E-03
  0.237083630217E-03  0.157486897197E-03  0.103416894395E-03  0.671140886598E-04  0.430306696895E-04
  0.272488292426E-04  0.170365666047E-04  0.105132239364E-04  0.640118568385E-05  0.384416974764E-05
  0.227617216173E-05  0.132833210832E-05  0.763733018944E-06  0.432453847320E-06  0.241060901233E-06
  0.132228030363E-06  0.713421548146E-07  0.378447945641E-07  0.197292016932E-07  0.101031589273E-07
  0.507977525267E-08  0.250646117814E-08  0.121308185066E-08  0.575584380796E-09  0.267601283665E-09
  0.121840401284E-09  0.542968791995E-10  0.236694356918E-10  0.100872280364E-10  0.420010563378E-11
  0.170756998088E-11  0.677398162064E-12  0.262038852570E-12  0.987743359652E-13  0.362552962058E-13
  0.129488563470E-13  0.449675506422E-14  0.151719600107E-14  0.496954979995E-15  0.157897405534E-15
  0.486246557261E-16  0.145008634781E-16
 pseudo wavefunction
  0.490149380708E-12  0.530972485179E-12  0.575195626291E-12  0.623101983122E-12  0.674998319905E-12
  0.731216950365E-12  0.792117865664E-12  0.858091039569E-12  0.929558925620E-12  0.100697916227E-11
  0.109084750334E-11  0.118170099253E-11  0.128012140233E-11  0.138673895935E-11  0.150223637994E-11
  0.162735324188E-11  0.176289072021E-11  0.190971671749E-11  0.206877142134E-11  0.224107332483E-11
  0.242772574836E-11  0.262992390461E-11  0.284896255203E-11  0.308624428571E-11  0.334328851874E-11
  0.362174121168E-11  0.392338541230E-11  0.425015267320E-11  0.460413542029E-11  0.498760035150E-11
  0.540300295138E-11  0.585300321454E-11  0.634048267875E-11  0.686856287657E-11  0.744062532383E-11
  0.806033317287E-11  0.873165466922E-11  0.945888856188E-11  0.102466916300E-10  0.111001085022E-10
  0.120246039594E-10  0.130260979279E-10  0.141110033872E-10  0.152862674353E-10  0.165594157730E-10
  0.179386008951E-10  0.194326542931E-10  0.210511430078E-10  0.228044308905E-10  0.247037449669E-10
  0.267612473287E-10  0.289901130122E-10  0.314046143637E-10  0.340202124308E-10  0.368536559662E-10
  0.399230886767E-10  0.432481654045E-10  0.468501779856E-10  0.507521915899E-10  0.549791924167E-10
  0.595582476920E-10  0.645186789906E-10  0.698922499940E-10  0.757133698866E-10  0.820193136910E-10
  0.888504609559E-10  0.962505543219E-10  0.104266979624E-09  0.112951069321E-09  0.122358431201E-09
  0.132549304456E-09  0.143588945421E-09  0.155548045435E-09  0.168503183508E-09  0.182537316684E-09
  0.197740311250E-09  0.214209518184E-09  0.232050396537E-09  0.251377188720E-09  0.272313652054E-09
  0.294993851229E-09  0.319563016775E-09  0.346178475033E-09  0.375010655573E-09  0.406244182526E-09
  0.440079056796E-09  0.476731936754E-09  0.516437525576E-09  0.559450074143E-09  0.606045009104E-09
  0.656520696538E-09  0.711200352509E-09  0.770434112734E-09  0.834601274640E-09  0.904112726141E-09
  0.979413576711E-09  0.106098600758E-08  0.114935235932E-08  0.124507847658E-08  0.134877733140E-08
  0.146111294827E-08  0.158280465615E-08  0.171463169454E-08  0.185743820326E-08  0.201213862776E-08
  0.217972357462E-08  0.236126615472E-08  0.255792885478E-08  0.277097098107E-08  0.300175672323E-08
  0.325176388953E-08  0.352259336984E-08  0.381597938651E-08  0.413380059921E-08  0.447809213449E-08
  0.485105861731E-08  0.525508828785E-08  0.569276829411E-08  0.616690125808E-08  0.668052322164E-08
  0.723692308715E-08  0.783966367705E-08  0.849260454745E-08  0.919992670173E-08  0.996615936239E-08
  0.107962089726E-07  0.116953906129E-07  0.126694620351E-07  0.137246605295E-07  0.148677428635E-07
  0.161060285462E-07  0.174474466958E-07  0.189005868109E-07  0.204747537698E-07  0.221800274097E-07
  0.240273270694E-07  0.260284815054E-07  0.281963046317E-07  0.305446775675E-07  0.330886375170E-07
  0.358444740522E-07  0.388298334132E-07  0.420638314956E-07  0.455671762465E-07  0.493623002537E-07
  0.534735043777E-07  0.579271133437E-07  0.627516442918E-07  0.679779893634E-07  0.736396134929E-07
  0.797727686700E-07  0.864167260460E-07  0.936140273674E-07  0.101410757348E-06  0.109856838724E-06
  0.119006351874E-06  0.128917881060E-06  0.139654889501E-06  0.151286125669E-06  0.163886063429E-06
  0.177535378823E-06  0.192321466554E-06  0.208338999477E-06  0.225690534678E-06  0.244487170008E-06
  0.264849255297E-06  0.286907162772E-06  0.310802121623E-06  0.336687122055E-06  0.364727894608E-06
  0.395103971011E-06  0.428009833348E-06  0.463656158909E-06  0.502271168653E-06  0.544102087950E-06
  0.589416728901E-06  0.638505204390E-06  0.691681784806E-06  0.749286909318E-06  0.811689364559E-06
  0.879288644642E-06  0.952517507600E-06  0.103184474460E-05  0.111777817958E-05  0.121086791860E-05
  0.131170986944E-05  0.142094955425E-05  0.153928623929E-05  0.166747740836E-05  0.180634360838E-05
  0.195677369810E-05  0.211973053345E-05  0.229625712578E-05  0.248748331238E-05  0.269463298173E-05
  0.291903189969E-05  0.316211618649E-05  0.342544149858E-05  0.371069297385E-05  0.401969600378E-05
  0.435442790089E-05  0.471703053610E-05  0.510982402629E-05  0.553532155938E-05  0.599624545108E-05
  0.649554453576E-05  0.703641300186E-05  0.762231079163E-05  0.825698569499E-05  0.894449727777E-05
  0.968924279638E-05  0.104959852633E-04  0.113698838418E-04  0.123165267618E-04  0.133419669671E-04
  0.144527607180E-04  0.156560093947E-04  0.169594047662E-04  0.183712780100E-04  0.199006527936E-04
  0.215573027515E-04  0.233518137219E-04  0.252956511338E-04  0.274012329705E-04  0.296820087674E-04
  0.321525451416E-04  0.348286183901E-04  0.377273147369E-04  0.408671388584E-04  0.442681313658E-04
  0.479519959776E-04  0.519422371789E-04  0.562643092222E-04  0.609457773997E-04  0.660164925880E-04
  0.715087801480E-04  0.774576443508E-04  0.839009895913E-04  0.908798597558E-04  0.984386972164E-04
  0.106625623042E-03  0.115492740145E-03  0.125096461213E-03  0.135497863430E-03  0.146763072136E-03
  0.158963675754E-03  0.172177174500E-03  0.186487465551E-03  0.201985367622E-03  0.218769188046E-03
  0.236945335766E-03  0.256628983850E-03  0.277944785455E-03  0.301027647439E-03  0.326023566133E-03
  0.353090530148E-03  0.382399495422E-03  0.414135438112E-03  0.448498491331E-03  0.485705172186E-03
  0.525989706004E-03  0.569605455151E-03  0.616826460332E-03  0.667949102837E-03  0.723293896764E-03
  0.783207420840E-03  0.848064400114E-03  0.918269948465E-03  0.994261983544E-03  0.107651382651E-02
  0.116553699968E-02  0.126188423588E-02  0.136615271437E-02  0.147898753857E-02  0.160108547208E-02
  0.173319895010E-02  0.187614038410E-02  0.203078677866E-02  0.219808467998E-02  0.237905547634E-02
  0.257480107155E-02  0.278650995306E-02  0.301546367680E-02  0.326304379139E-02  0.353073922438E-02
  0.382015415355E-02  0.413301638563E-02  0.447118626497E-02  0.483666613308E-02  0.523161035953E-02
  0.565833596234E-02  0.611933383404E-02  0.661728058666E-02  0.715505102486E-02  0.773573125222E-02
  0.836263240962E-02  0.903930503816E-02  0.976955405046E-02  0.105574542847E-01  0.114073666040E-01
  0.123239544900E-01  0.133122010637E-01  0.143774264486E-01  0.155253053690E-01  0.167618848508E-01
  0.180936018680E-01  0.195273007390E-01  0.210702500470E-01  0.227301588125E-01  0.245151916002E-01
  0.264339821912E-01  0.284956453897E-01  0.307097864704E-01  0.330865076965E-01  0.356364112615E-01
  0.383705979162E-01  0.413006604463E-01  0.444386710644E-01  0.477971616621E-01  0.513890957531E-01
  0.552278308058E-01  0.593270695350E-01  0.637007985811E-01  0.683632128679E-01  0.733286237887E-01
  0.786113492390E-01  0.842255833833E-01  0.901852439393E-01  0.965037946689E-01  0.103194040714E+00
  0.110267894397E+00  0.117736109151E+00  0.125607979347E+00  0.133891004003E+00  0.142590512648E+00
  0.151709252055E+00  0.161246933175E+00  0.171199738361E+00  0.181559789978E+00  0.192314582746E+00
  0.203446383707E+00  0.214931605521E+00  0.226740161039E+00  0.238834809654E+00  0.251170508886E+00
  0.263693788088E+00  0.276342164881E+00  0.289043629113E+00  0.301716223585E+00  0.314267755442E+00
  0.326595676902E+00  0.338587178567E+00  0.350119542754E+00  0.361060807722E+00  0.371270795835E+00
  0.380602559105E+00  0.388904293496E+00  0.396021768078E+00  0.401801305609E+00  0.406093336614E+00
  0.408756528242E+00  0.409662461319E+00  0.408700792999E+00  0.405784797661E+00  0.400857124780E+00
  0.393895549816E+00  0.384918423749E+00  0.373989451098E+00  0.361221348861E+00  0.346777865547E+00
  0.330873578104E+00  0.313770845679E+00  0.295773295674E+00  0.277215265333E+00  0.258446738807E+00
  0.239813524405E+00  0.221632728077E+00  0.204164012690E+00  0.187577697342E+00  0.171926851089E+00
  0.157195993839E+00  0.143366111396E+00  0.130415866064E+00  0.118321641086E+00  0.107057722642E+00
  0.965964976146E-01  0.869086647506E-01  0.779634568461E-01  0.697288708011E-01  0.621719028971E-01
  0.552587862484E-01  0.489552276080E-01  0.432266408452E-01  0.380383745331E-01  0.333559313692E-01
  0.291451773184E-01  0.253725386151E-01  0.220051849528E-01  0.190111973824E-01  0.163597196180E-01
  0.140210916315E-01  0.119669646123E-01  0.101703965990E-01  0.860592834509E-02  0.724963930236E-02
  0.607918389675E-02  0.507380867740E-02  0.421435120870E-02  0.348322193277E-02  0.286437049989E-02
  0.234323829724E-02  0.190669907435E-02  0.154298966609E-02  0.124163285367E-02  0.993354381214E-03
  0.789996071541E-03  0.624426863309E-03  0.490453434450E-03  0.382731891270E-03  0.296681798447E-03
  0.228403611281E-03  0.174600356776E-03  0.132504202225E-03  0.998083556677E-04  0.746045667893E-04
  0.553263425094E-04  0.406978598228E-04
 ae wavefunction
  0.124039639296E-08  0.133663118788E-08  0.143963690742E-08  0.154993782436E-08  0.166809582142E-08
  0.179471331829E-08  0.193043641287E-08  0.207595825590E-08  0.223202267452E-08  0.239942806690E-08
  0.257903158691E-08  0.277175364342E-08  0.297858273739E-08  0.320058066333E-08  0.343888810578E-08
  0.369473065651E-08  0.396942529174E-08  0.426438734026E-08  0.458113798214E-08  0.492131232004E-08
  0.528666806893E-08  0.567909490775E-08  0.610062455167E-08  0.655344158980E-08  0.703989517435E-08
  0.756251157407E-08  0.812400774020E-08  0.872730587765E-08  0.937554916454E-08  0.100721186797E-07
  0.108206516354E-07  0.116250610360E-07  0.124895568353E-07  0.134186687626E-07  0.144172709022E-07
  0.154906081897E-07  0.166443249731E-07  0.178844957911E-07  0.192176585502E-07  0.206508502976E-07
  0.221916457779E-07  0.238481990073E-07  0.256292880940E-07  0.275443635729E-07  0.296036005223E-07
  0.318179547667E-07  0.341992234885E-07  0.367601106013E-07  0.395142972582E-07  0.424765179057E-07
  0.456626423240E-07  0.490897641284E-07  0.527762962471E-07  0.567420739303E-07  0.610084658911E-07
  0.655984942253E-07  0.705369638117E-07  0.758506019481E-07  0.815682090411E-07  0.877208212318E-07
  0.943418859116E-07  0.101467451158E-06  0.109136370207E-06  0.117390522155E-06  0.126275050205E-06
  0.135838618851E-06  0.146133691512E-06  0.157216830275E-06  0.169149019491E-06  0.181996015166E-06
  0.195828722192E-06  0.210723601639E-06  0.226763110601E-06  0.244036177064E-06  0.262638712754E-06
  0.282674166924E-06  0.304254124393E-06  0.327498951364E-06  0.352538492970E-06  0.379512826456E-06
  0.408573074816E-06  0.439882285335E-06  0.473616378675E-06  0.509965173764E-06  0.549133494880E-06
  0.591342367368E-06  0.636830309188E-06  0.685854725860E-06  0.738693417351E-06  0.795646205555E-06
  0.857036692371E-06  0.923214158627E-06  0.994555615196E-06  0.107146801866E-05  0.115439066440E-05
  0.124379777175E-05  0.134020127616E-05  0.144415384526E-05  0.155625213667E-05  0.167714031677E-05
  0.180751386158E-05  0.194812366191E-05  0.209978045754E-05  0.226335962637E-05  0.243980635698E-05
  0.263014123529E-05  0.283546627823E-05  0.305697144998E-05  0.329594169938E-05  0.355376455992E-05
  0.383193835693E-05  0.413208107036E-05  0.445593990512E-05  0.480540162531E-05  0.518250371244E-05
  0.558944641312E-05  0.602860574778E-05  0.650254755296E-05  0.701404264370E-05  0.756608317991E-05
  0.816190033437E-05  0.880498336323E-05  0.949910019123E-05  0.102483196272E-04  0.110570353424E-04
  0.119299917444E-04  0.128723119000E-04  0.138895276633E-04  0.149876121828E-04  0.161730149724E-04
  0.174526997460E-04  0.188341852296E-04  0.203255891819E-04  0.219356758723E-04  0.236739072827E-04
  0.255504983204E-04  0.275764763501E-04  0.297637453787E-04  0.321251552471E-04  0.346745762132E-04
  0.374269793384E-04  0.403985231169E-04  0.436066468256E-04  0.470701711011E-04  0.508094062912E-04
  0.548462691679E-04  0.592044086299E-04  0.639093410684E-04  0.689885961212E-04  0.744718735864E-04
  0.803912123283E-04  0.867811720633E-04  0.936790289761E-04  0.101124986186E-03  0.109162400154E-03
  0.117838024187E-03  0.127202270306E-03  0.137309490775E-03  0.148218280752E-03  0.159991803550E-03
  0.172698140141E-03  0.186410664633E-03  0.201208447559E-03  0.217176688948E-03  0.234407183261E-03
  0.252998818432E-03  0.273058111381E-03  0.294699782522E-03  0.318047371934E-03  0.343233900074E-03
  0.370402576011E-03  0.399707556432E-03  0.431314758783E-03  0.465402732171E-03  0.502163589824E-03
  0.541804007147E-03  0.584546289634E-03  0.630629515136E-03  0.680310755222E-03  0.733866380647E-03
  0.791593456180E-03  0.853811230339E-03  0.920862725848E-03  0.993116436905E-03  0.107096813968E-02
  0.115484282274E-02  0.124519674432E-02  0.134251962389E-02  0.144733697545E-02  0.156021259060E-02
  0.168175117950E-02  0.181260117827E-02  0.195345773165E-02  0.210506585988E-02  0.226822381933E-02
  0.244378666616E-02  0.263267003317E-02  0.283585412952E-02  0.305438797363E-02  0.328939386950E-02
  0.354207213678E-02  0.381370610505E-02  0.410566738247E-02  0.441942140927E-02  0.475653330590E-02
  0.511867402582E-02  0.550762682225E-02  0.592529403781E-02  0.637370422545E-02  0.685501960820E-02
  0.737154388465E-02  0.792573038553E-02  0.852019058622E-02  0.915770297787E-02  0.984122229879E-02
  0.105738891256E-01  0.113590398212E-01  0.122002168356E-01  0.131011793504E-01  0.140659142575E-01
  0.150986474585E-01  0.162038554651E-01  0.173862772811E-01  0.186509265391E-01  0.200031038605E-01
  0.214484094034E-01  0.229927555561E-01  0.246423797287E-01  0.264038571878E-01  0.282841138730E-01
  0.302904391265E-01  0.324304982578E-01  0.347123448607E-01  0.371444327868E-01  0.397356276741E-01
  0.424952179191E-01  0.454329249715E-01  0.485589128202E-01  0.518837965295E-01  0.554186496740E-01
  0.591750105058E-01  0.631648866757E-01  0.674007583094E-01  0.718955792203E-01  0.766627760113E-01
  0.817162447855E-01  0.870703451492E-01  0.927398911511E-01  0.987401387624E-01  0.105086769481E+00
  0.111795869625E+00  0.118883904911E+00  0.126367689930E+00  0.134264352227E+00  0.142591290744E+00
  0.151366128509E+00  0.160606659490E+00  0.170330789623E+00  0.180556472055E+00  0.191301636594E+00
  0.202584113360E+00  0.214421550484E+00  0.226831325653E+00  0.239830451174E+00  0.253435472266E+00
  0.267662358279E+00  0.282526386697E+00  0.298042019863E+00  0.314222774498E+00  0.331081084181E+00
  0.348628155041E+00  0.366873814961E+00  0.385826356709E+00  0.405492375471E+00  0.425876601403E+00
  0.446981727919E+00  0.468808236643E+00  0.491354220032E+00  0.514615202944E+00  0.538583964520E+00
  0.563250361992E+00  0.588601158198E+00  0.614619854722E+00  0.641286532807E+00  0.668577704288E+00
  0.696466174925E+00  0.724920922607E+00  0.753906992994E+00  0.783385415097E+00  0.813313139453E+00
  0.843643001422E+00  0.874323712341E+00  0.905299881282E+00  0.936512070581E+00  0.967896888539E+00
  0.999387123176E+00  0.103091192103E+01  0.106239701419E+01  0.109376499648E+01  0.112493564435E+01
  0.115582626901E+01  0.118635207369E+01  0.121642647569E+01  0.124596134383E+01  0.127486710581E+01
  0.130305270880E+01  0.133042546967E+01  0.135689092639E+01  0.138235286790E+01  0.140671373466E+01
  0.142987550094E+01  0.145174097517E+01  0.147221528389E+01  0.149120725768E+01  0.150863054321E+01
  0.152440442239E+01  0.153845442304E+01  0.155071282244E+01  0.156111911223E+01  0.156962045154E+01
  0.157617210230E+01  0.158073782390E+01  0.158329020052E+01  0.158381087782E+01  0.158229069415E+01
  0.157872970037E+01  0.157313707033E+01  0.156553090879E+01  0.155593796836E+01  0.154439328754E+01
  0.153093976375E+01  0.151562767401E+01  0.149851415733E+01  0.147966266923E+01  0.145914242128E+01
  0.143702781419E+01  0.141339787323E+01  0.138833569391E+01  0.136192790137E+01  0.133426412935E+01
  0.130543651897E+01  0.127553923926E+01  0.124466802771E+01  0.121291974970E+01  0.118039197473E+01
  0.114718256560E+01  0.111338928095E+01  0.107910938722E+01  0.104443928224E+01  0.100947413073E+01
  0.974307515885E+00  0.939031109906E+00  0.903734368727E+00  0.868504253628E+00  0.833424980879E+00
  0.798577796030E+00  0.764040765204E+00  0.729888570735E+00  0.696192295438E+00  0.663019181122E+00
  0.630432353097E+00  0.598490516342E+00  0.567247645683E+00  0.536752709889E+00  0.507049477302E+00
  0.478176443852E+00  0.450166903569E+00  0.423049150568E+00  0.396846775222E+00  0.371578998959E+00
  0.347261016096E+00  0.323904263096E+00  0.301516658199E+00  0.280102767967E+00  0.259663929811E+00
  0.240198343104E+00  0.221701144233E+00  0.204164478346E+00  0.187577577446E+00  0.171926851089E+00
  0.157195993839E+00  0.143366111396E+00  0.130415866064E+00  0.118321641086E+00  0.107057722642E+00
  0.965964976146E-01  0.869086647506E-01  0.779634568461E-01  0.697288708011E-01  0.621719028971E-01
  0.552587862484E-01  0.489552276080E-01  0.432266408452E-01  0.380383745331E-01  0.333559313692E-01
  0.291451773184E-01  0.253725386151E-01  0.220051849528E-01  0.190111973824E-01  0.163597196180E-01
  0.140210916315E-01  0.119669646123E-01  0.101703965990E-01  0.860592834509E-02  0.724963930236E-02
  0.607918389675E-02  0.507380867740E-02  0.421435120870E-02  0.348322193277E-02  0.286437049989E-02
  0.234323829724E-02  0.190669907435E-02  0.154298966609E-02  0.124163285367E-02  0.993354381214E-03
  0.789996071541E-03  0.624426863309E-03  0.490453434450E-03  0.382731891270E-03  0.296681798447E-03
  0.228403611281E-03  0.174600356776E-03  0.132504202225E-03  0.998083556677E-04  0.746045667893E-04
  0.553263425094E-04  0.406978598228E-04
 pseudo wavefunction
  0.520025379627E-13  0.563336768768E-13  0.610255436530E-13  0.661081822574E-13  0.716141389302E-13
  0.775786705922E-13  0.840399706103E-13  0.910394133645E-13  0.986218191861E-13  0.106835741360E-12
  0.115733777032E-12  0.125372904011E-12  0.135814845620E-12  0.147126465935E-12  0.159380197948E-12
  0.172654507382E-12  0.187034395137E-12  0.202611941594E-12  0.219486896235E-12  0.237767316387E-12
  0.257570259154E-12  0.279022530983E-12  0.302261499660E-12  0.327435973930E-12  0.354707156383E-12
  0.384249675704E-12  0.416252704884E-12  0.450921172584E-12  0.488477075370E-12  0.529160899255E-12
  0.573233159625E-12  0.620976069433E-12  0.672695346323E-12  0.728722170266E-12  0.789415304244E-12
  0.855163391560E-12  0.926387444480E-12  0.100354354015E-11  0.108712574105E-11  0.117766925869E-11
  0.127575388076E-11  0.138200768378E-11  0.149711105495E-11  0.162180104890E-11  0.175687610743E-11
  0.190320117217E-11  0.206171322328E-11  0.223342727920E-11  0.241944289634E-11  0.262095120995E-11
  0.283924256144E-11  0.307571476102E-11  0.333188203844E-11  0.360938473921E-11  0.390999982849E-11
  0.423565226965E-11  0.458842735068E-11  0.497058403716E-11  0.538456943733E-11  0.583303447197E-11
  0.631885084937E-11  0.684512945405E-11  0.741524026712E-11  0.803283394561E-11  0.870186519923E-11
  0.942661811402E-11  0.102117335851E-10  0.110622390345E-10  0.119835806035E-10  0.129816580270E-10
  0.140628624115E-10  0.152341171608E-10  0.165029223088E-10  0.178774025456E-10  0.193663592437E-10
  0.209793268164E-10  0.227266337714E-10  0.246194688478E-10  0.266699526632E-10  0.288912153267E-10
  0.312974805168E-10  0.339041565620E-10  0.367279351065E-10  0.397868979945E-10  0.431006330559E-10
  0.466903595356E-10  0.505790639697E-10  0.547916473787E-10  0.593550847189E-10  0.642985976157E-10
  0.696538414823E-10  0.754551082233E-10  0.817395458209E-10  0.885473962107E-10  0.959222529680E-10
  0.103911340458E-09  0.112565816234E-09  0.121941098622E-09  0.132097221593E-09  0.143099219184E-09
  0.155017541941E-09  0.167928508052E-09  0.181914792040E-09  0.197065954175E-09  0.213479013964E-09
  0.231259071418E-09  0.250519980056E-09  0.271385075963E-09  0.293987967573E-09  0.318473391230E-09
  0.344998138004E-09  0.373732057706E-09  0.404859146520E-09  0.438578725223E-09  0.475106715545E-09
  0.514677022822E-09  0.557543033816E-09  0.603979239291E-09  0.654282991720E-09  0.708776409396E-09
  0.767808439137E-09  0.831757090788E-09  0.901031857831E-09  0.976076339611E-09  0.105737108196E-08
  0.114543665443E-08  0.124083698380E-08  0.134418296526E-08  0.145613637434E-08  0.157741410471E-08
  0.170879275891E-08  0.185111362142E-08  0.200528804603E-08  0.217230329183E-08  0.235322884535E-08
  0.254922326927E-08  0.276154162152E-08  0.299154349241E-08  0.324070171114E-08  0.351061177748E-08
  0.380300207909E-08  0.411974495985E-08  0.446286871007E-08  0.483457055550E-08  0.523723072811E-08
  0.567342770903E-08  0.614595474106E-08  0.665783771660E-08  0.721235455560E-08  0.781305619760E-08
  0.846378934231E-08  0.916872108448E-08  0.993236560071E-08  0.107596130593E-07  0.116557609382E-07
  0.126265479519E-07  0.136781908041E-07  0.148174240020E-07  0.160515429879E-07  0.173884508623E-07
  0.188367090008E-07  0.204055918865E-07  0.221051465105E-07  0.239462567211E-07  0.259407129334E-07
  0.281012876468E-07  0.304418172527E-07  0.329772906593E-07  0.357239452985E-07  0.386993711318E-07
  0.419226233222E-07  0.454143442924E-07  0.491968959535E-07  0.532945029500E-07  0.577334078416E-07
  0.625420392135E-07  0.677511937960E-07  0.733942337586E-07  0.795073004454E-07  0.861295459208E-07
  0.933033838109E-07  0.101074761050E-06  0.109493452272E-06  0.118613378743E-06  0.128492953865E-06
  0.139195457489E-06  0.150789441420E-06  0.163349168723E-06  0.176955089656E-06  0.191694357267E-06
  0.207661385991E-06  0.224958456800E-06  0.243696372821E-06  0.263995169618E-06  0.285984884699E-06
  0.309806391193E-06  0.335612301061E-06  0.363567943628E-06  0.393852425741E-06  0.426659780363E-06
  0.462200210980E-06  0.500701439838E-06  0.542410168673E-06  0.587593661335E-06  0.636541458490E-06
  0.689567235447E-06  0.747010815057E-06  0.809240348672E-06  0.876654679198E-06  0.949685901479E-06
  0.102880213654E-05  0.111451053753E-05  0.120736054687E-05  0.130794742547E-05  0.141691607701E-05
  0.153496519179E-05  0.166285173708E-05  0.180139582303E-05  0.195148597545E-05  0.211408484982E-05
  0.229023542345E-05  0.248106770588E-05  0.268780601121E-05  0.291177683939E-05  0.315441741787E-05
  0.341728495893E-05  0.370206669317E-05  0.401059074430E-05  0.434483791625E-05  0.470695446949E-05
  0.509926596992E-05  0.552429230107E-05  0.598476393772E-05  0.648363958760E-05  0.702412531703E-05
  0.760969528613E-05  0.824411422987E-05  0.893146183330E-05  0.967615916170E-05  0.104829973202E-04
  0.113571685328E-04  0.123042998469E-04  0.133304896867E-04  0.144423474995E-04  0.156470367595E-04
  0.169523216146E-04  0.183666174918E-04  0.198990459978E-04  0.215594944865E-04  0.233586806937E-04
  0.253082228780E-04  0.274207159420E-04  0.297098140518E-04  0.321903203209E-04  0.348782841684E-04
  0.377911070244E-04  0.409476571082E-04  0.443683940737E-04  0.480755043893E-04  0.520930483930E-04
  0.564471200544E-04  0.611660205647E-04  0.662804469820E-04  0.718236972678E-04  0.778318931774E-04
  0.843442226002E-04  0.914032030933E-04  0.990549685178E-04  0.107349580861E-03  0.116341369532E-03
  0.126089300618E-03  0.136657378852E-03  0.148115085275E-03  0.160537853885E-03  0.174007590865E-03
  0.188613240354E-03  0.204451401072E-03  0.221626998585E-03  0.240254018405E-03  0.260456305699E-03
  0.282368437888E-03  0.306136677114E-03  0.331920010175E-03  0.359891284387E-03  0.390238448587E-03
  0.423165909529E-03  0.458896014901E-03  0.497670675379E-03  0.539753139424E-03  0.585429935925E-03
  0.635013001386E-03  0.688842010109E-03  0.747286927742E-03  0.810750810726E-03  0.879672876573E-03
  0.954531872532E-03  0.103584977316E-02  0.112419584056E-02  0.122019108470E-02  0.132451316517E-02
  0.143790178029E-02  0.156116459435E-02  0.169518375924E-02  0.184092309279E-02  0.199943598304E-02
  0.217187409467E-02  0.235949696259E-02  0.256368256643E-02  0.278593898970E-02  0.302791727886E-02
  0.329142562917E-02  0.357844503831E-02  0.389114658287E-02  0.423191048960E-02  0.460334719072E-02
  0.500832057214E-02  0.544997364465E-02  0.593175689102E-02  0.645745956716E-02  0.703124426231E-02
  0.765768505234E-02  0.834180961163E-02  0.908914568188E-02  0.990577233214E-02  0.107983764810E-01
  0.117743151915E-01  0.128416842889E-01  0.140093938949E-01  0.152872515109E-01  0.166860533285E-01
  0.182176844838E-01  0.198952290114E-01  0.217330902910E-01  0.237471228071E-01  0.259547760688E-01
  0.283752515469E-01  0.310296734907E-01  0.339412744699E-01  0.371355964577E-01  0.406407082111E-01
  0.444874396242E-01  0.487096336119E-01  0.533444159278E-01  0.584324831184E-01  0.640184085725E-01
  0.701509663152E-01  0.768834718366E-01  0.842741388154E-01  0.923864501030E-01  0.101289540772E+00
  0.111058590414E+00  0.121775221179E+00  0.133527897354E+00  0.146412321511E+00  0.160531821558E+00
  0.175997722339E+00  0.192929694896E+00  0.211456076148E+00  0.231714151660E+00  0.253850394525E+00
  0.278020654276E+00  0.304390291318E+00  0.333134254872E+00  0.364437106059E+00  0.398492992626E+00
  0.435505588362E+00  0.475688018469E+00  0.519262802349E+00  0.566461857480E+00  0.617526622353E+00
  0.672708372499E+00  0.732268821285E+00  0.796481115491E+00  0.865631353790E+00  0.940020772522E+00
  0.101996875560E+01  0.110581683134E+01  0.119793381521E+01  0.129672224039E+01  0.140265025781E+01
  0.151645816860E+01  0.163910106910E+01  0.177166675097E+01  0.191539480642E+01  0.000000000000E+00
  0.000000000000E+00  0.000000000000E+00  0.000000000000E+00  0.000000000000E+00  0.000000000000E+00
  0.000000000000E+00  0.000000000000E+00  0.000000000000E+00  0.000000000000E+00  0.000000000000E+00
  0.000000000000E+00  0.000000000000E+00  0.000000000000E+00  0.000000000000E+00  0.000000000000E+00
  0.000000000000E+00  0.000000000000E+00  0.000000000000E+00  0.000000000000E+00  0.000000000000E+00
  0.000000000000E+00  0.000000000000E+00  0.000000000000E+00  0.000000000000E+00  0.000000000000E+00
  0.000000000000E+00  0.000000000000E+00  0.000000000000E+00  0.000000000000E+00  0.000000000000E+00
  0.000000000000E+00  0.000000000000E+00  0.000000000000E+00  0.000000000000E+00  0.000000000000E+00
  0.000000000000E+00  0.000000000000E+00  0.000000000000E+00  0.000000000000E+00  0.000000000000E+00
  0.000000000000E+00  0.000000000000E+00
 ae wavefunction
 -0.668564152047E-09 -0.720434018228E-09 -0.775953362433E-09 -0.835404764044E-09 -0.899091073912E-09
 -0.967336992037E-09 -0.104049076067E-08 -0.111892598320E-08 -0.120304357724E-08 -0.129327387384E-08
 -0.139007887291E-08 -0.149395466841E-08 -0.160543405545E-08 -0.172508933387E-08 -0.185353532466E-08
 -0.199143261327E-08 -0.213949104070E-08 -0.229847345937E-08 -0.246919977476E-08 -0.265255129590E-08
 -0.284947541900E-08 -0.306099066798E-08 -0.328819212331E-08 -0.353225726350E-08 -0.379445226547E-08
 -0.407613877078E-08 -0.437878119757E-08 -0.470395459434E-08 -0.505335311270E-08 -0.542879913117E-08
 -0.583225308252E-08 -0.626582404955E-08 -0.673178116906E-08 -0.723256593449E-08 -0.777080544463E-08
 -0.834932668453E-08 -0.897117192000E-08 -0.963961528684E-08 -0.103581806731E-07 -0.111306610005E-07
 -0.119611390061E-07 -0.128540096507E-07 -0.138140042767E-07 -0.148462166602E-07 -0.159561311015E-07
 -0.171496527182E-07 -0.184331401146E-07 -0.198134406172E-07 -0.212979282784E-07 -0.228945448694E-07
 -0.246118440987E-07 -0.264590393147E-07 -0.284460549668E-07 -0.305835821275E-07 -0.328831383957E-07
 -0.353571325339E-07 -0.380189342131E-07 -0.408829492766E-07 -0.439647009602E-07 -0.472809175471E-07
 -0.508496269693E-07 -0.546902589130E-07 -0.588237550266E-07 -0.632726878799E-07 -0.680613893762E-07
 -0.732160893717E-07 -0.787650653213E-07 -0.847388038368E-07 -0.911701751023E-07 -0.980946211961E-07
 -0.105550359414E-06 -0.113578601798E-06 -0.122223792211E-06 -0.131533862286E-06 -0.141560507852E-06
 -0.152359487416E-06 -0.163990944508E-06 -0.176519755770E-06 -0.190015906929E-06 -0.204554898757E-06
 -0.220218185622E-06 -0.237093649006E-06 -0.255276109067E-06 -0.274867877040E-06 -0.295979351957E-06
 -0.318729665118E-06 -0.343247376242E-06 -0.369671225323E-06 -0.398150944836E-06 -0.428848136940E-06
 -0.461937221067E-06 -0.497606457433E-06 -0.536059052574E-06 -0.577514353574E-06 -0.622209137936E-06
 -0.670399006933E-06 -0.722359890604E-06 -0.778389673364E-06 -0.838809949946E-06 -0.903967922013E-06
 -0.974238446774E-06 -0.105002624966E-05 -0.113176831430E-05 -0.121993646383E-05 -0.131504014890E-05
 -0.141762945881E-05 -0.152829837361E-05 -0.164768827633E-05 -0.177649174609E-05 -0.191545665441E-05
 -0.206539058881E-05 -0.222716562985E-05 -0.240172350939E-05 -0.259008118068E-05 -0.279333683257E-05
 -0.301267638308E-05 -0.324938049100E-05 -0.350483212455E-05 -0.378052473381E-05 -0.407807107200E-05
 -0.439921271838E-05 -0.474583035708E-05 -0.511995487231E-05 -0.552377932233E-05 -0.595967186347E-05
 -0.643018969597E-05 -0.693809411403E-05 -0.748636674461E-05 -0.807822706831E-05 -0.871715132233E-05
 -0.940689289269E-05 -0.101515043117E-04 -0.109553609843E-04 -0.118231867783E-04 -0.127600816213E-04
 -0.137715512595E-04 -0.148635393454E-04 -0.160424620314E-04 -0.173152452638E-04 -0.186893649821E-04
 -0.201728904450E-04 -0.217745309236E-04 -0.235036860141E-04 -0.253704998479E-04 -0.273859194903E-04
 -0.295617578475E-04 -0.319107614168E-04 -0.344466832469E-04 -0.371843614953E-04 -0.401398040021E-04
 -0.433302793260E-04 -0.467744147224E-04 -0.504923015759E-04 -0.545056088364E-04 -0.588377050448E-04
 -0.635137895784E-04 -0.685610337845E-04 -0.740087327219E-04 -0.798884682757E-04 -0.862342844631E-04
 -0.930828758045E-04 -0.100473789691E-03 -0.108449643742E-03 -0.117056359211E-03 -0.126343411570E-03
 -0.136364099464E-03 -0.147175833338E-03 -0.158840445054E-03 -0.171424519989E-03 -0.184999753115E-03
 -0.199643330699E-03 -0.215438339363E-03 -0.232474204313E-03 -0.250847158698E-03 -0.270660746141E-03
 -0.292026358618E-03 -0.315063811978E-03 -0.339901961530E-03 -0.366679360255E-03 -0.395544962327E-03
 -0.426658874800E-03 -0.460193160411E-03 -0.496332694672E-03 -0.535276080504E-03 -0.577236623873E-03
 -0.622443374033E-03 -0.671142232144E-03 -0.723597132176E-03 -0.780091298228E-03 -0.840928582480E-03
 -0.906434888234E-03 -0.976959682584E-03 -0.105287760349E-02 -0.113459016608E-02 -0.122252757329E-02
 -0.131715063586E-02 -0.141895280712E-02 -0.152846233775E-02 -0.164624455617E-02 -0.177290427991E-02
 -0.190908836364E-02 -0.205548838932E-02 -0.221284350413E-02 -0.238194341162E-02 -0.256363152142E-02
 -0.275880826287E-02 -0.296843456747E-02 -0.319353552501E-02 -0.343520421786E-02 -0.369460573735E-02
 -0.397298138591E-02 -0.427165306795E-02 -0.459202787174E-02 -0.493560284393E-02 -0.530396995731E-02
 -0.569882127148E-02 -0.612195428490E-02 -0.657527747552E-02 -0.706081602577E-02 -0.758071772592E-02
 -0.813725904820E-02 -0.873285138194E-02 -0.937004741790E-02 -0.100515476674E-01 -0.107802070993E-01
 -0.115590418755E-01 -0.123912361608E-01 -0.132801489829E-01 -0.142293211109E-01 -0.152424819192E-01
 -0.163235561998E-01 -0.174766708803E-01 -0.187061616013E-01 -0.200165791020E-01 -0.214126953582E-01
 -0.228995094121E-01 -0.244822528263E-01 -0.261663946928E-01 -0.279576461169E-01 -0.298619640956E-01
 -0.318855546978E-01 -0.340348754496E-01 -0.363166368157E-01 -0.387378026569E-01 -0.413055895290E-01
 -0.440274646698E-01 -0.469111425008E-01 -0.499645794507E-01 -0.531959668827E-01 -0.566137219007E-01
 -0.602264757957E-01 -0.640430599092E-01 -0.680724887066E-01 -0.723239398917E-01 -0.768067314374E-01
 -0.815302954526E-01 -0.865041488498E-01 -0.917378608079E-01 -0.972410170400E-01 -0.103023180873E+00
 -0.109093851109E+00 -0.115462416601E+00 -0.122138107407E+00 -0.129129942353E+00 -0.136446672842E+00
 -0.144096722726E+00 -0.152088124174E+00 -0.160428449474E+00 -0.169124738824E+00 -0.178183424174E+00
 -0.187610249253E+00 -0.197410185938E+00 -0.207587347175E+00 -0.218144896700E+00 -0.229084955888E+00
 -0.240408508108E+00 -0.252115301068E+00 -0.264203747703E+00 -0.276670826265E+00 -0.289511980365E+00
 -0.302721019818E+00 -0.316290023251E+00 -0.330209243502E+00 -0.344467016966E+00 -0.359049678090E+00
 -0.373941480314E+00 -0.389124524766E+00 -0.404578698109E+00 -0.420281620894E+00 -0.436208607832E+00
 -0.452332641370E+00 -0.468624360033E+00 -0.485052063030E+00 -0.501581732805E+00 -0.518177077399E+00
 -0.534799594671E+00 -0.551408660538E+00 -0.567961642931E+00 -0.584414041933E+00 -0.600719653708E+00
 -0.616830751003E+00 -0.632698266300E+00 -0.648271956093E+00 -0.663500520075E+00 -0.678331651335E+00
 -0.692712008922E+00 -0.706587132763E+00 -0.719901360621E+00 -0.732597841421E+00 -0.744618746731E+00
 -0.755905738157E+00 -0.766400655621E+00 -0.776046300966E+00 -0.784787167405E+00 -0.792570021900E+00
 -0.799344331201E+00 -0.805062576450E+00 -0.809680510074E+00 -0.813157390826E+00 -0.815456210675E+00
 -0.816543910003E+00 -0.816391568677E+00 -0.814974558740E+00 -0.812272646406E+00 -0.808270035609E+00
 -0.802955350023E+00 -0.796321554851E+00 -0.788365822042E+00 -0.779089345024E+00 -0.768497109434E+00
 -0.756597627006E+00 -0.743402639270E+00 -0.728926798058E+00 -0.713187328173E+00 -0.696203678407E+00
 -0.677997164859E+00 -0.658590610475E+00 -0.638007984025E+00 -0.616274039403E+00 -0.593413957082E+00
 -0.569452986540E+00 -0.544416089309E+00 -0.518327580158E+00 -0.491210764268E+00 -0.463087567531E+00
 -0.433978156470E+00 -0.403900545777E+00 -0.372870189813E+00 -0.340899556566E+00 -0.307997681623E+00
 -0.274169700651E+00 -0.239416357730E+00 -0.203733486663E+00 -0.167111460433E+00 -0.129534602295E+00
 -0.909805499469E-01 -0.514195631782E-01 -0.108137657614E-01  0.308836847656E-01  0.737295002486E-01
  0.117791231764E+00  0.163148294074E+00  0.209893032353E+00  0.258131828678E+00  0.307986267153E+00
  0.359594405478E+00  0.413112229003E+00  0.468715379426E+00  0.526601249980E+00  0.586991523057E+00
  0.650135206802E+00  0.716312211843E+00  0.785837503317E+00  0.859065885051E+00  0.936397471022E+00
  0.101828394912E+01  0.110523575059E+01  0.119783027858E+01  0.129672137554E+01  0.140265025781E+01
  0.151645816860E+01  0.163910106910E+01  0.177166675097E+01  0.191539480642E+01  0.000000000000E+00
  0.000000000000E+00  0.000000000000E+00  0.000000000000E+00  0.000000000000E+00  0.000000000000E+00
  0.000000000000E+00  0.000000000000E+00  0.000000000000E+00  0.000000000000E+00  0.000000000000E+00
  0.000000000000E+00  0.000000000000E+00  0.000000000000E+00  0.000000000000E+00  0.000000000000E+00
  0.000000000000E+00  0.000000000000E+00  0.000000000000E+00  0.000000000000E+00  0.000000000000E+00
  0.000000000000E+00  0.000000000000E+00  0.000000000000E+00  0.000000000000E+00  0.000000000000E+00
  0.000000000000E+00  0.000000000000E+00  0.000000000000E+00  0.000000000000E+00  0.000000000000E+00
  0.000000000000E+00  0.000000000000E+00  0.000000000000E+00  0.000000000000E+00  0.000000000000E+00
  0.000000000000E+00  0.000000000000E+00  0.000000000000E+00  0.000000000000E+00  0.000000000000E+00
  0.000000000000E+00  0.000000000000E+00
 pseudo wavefunction
  0.115657482182E-03  0.118783172337E-03  0.121993335531E-03  0.125290254680E-03  0.128676274399E-03
  0.132153802668E-03  0.135725312540E-03  0.139393343908E-03  0.143160505304E-03  0.147029475755E-03
  0.151003006693E-03  0.155083923908E-03  0.159275129555E-03  0.163579604226E-03  0.168000409060E-03
  0.172540687926E-03  0.177203669660E-03  0.181992670354E-03  0.186911095722E-03  0.191962443517E-03
  0.197150306022E-03  0.202478372601E-03  0.207950432326E-03  0.213570376668E-03  0.219342202269E-03
  0.225270013781E-03  0.231358026786E-03  0.237610570792E-03  0.244032092316E-03  0.250627158042E-03
  0.257400458072E-03  0.264356809260E-03  0.271501158635E-03  0.278838586923E-03  0.286374312159E-03
  0.294113693397E-03  0.302062234521E-03  0.310225588160E-03  0.318609559707E-03  0.327220111449E-03
  0.336063366805E-03  0.345145614682E-03  0.354473313947E-03  0.364053098021E-03  0.373891779596E-03
  0.383996355476E-03  0.394374011562E-03  0.405032127951E-03  0.415978284194E-03  0.427220264681E-03
  0.438766064176E-03  0.450623893506E-03  0.462802185399E-03  0.475309600479E-03  0.488155033429E-03
  0.501347619310E-03  0.514896740065E-03  0.528812031185E-03  0.543103388564E-03  0.557780975536E-03
  0.572855230103E-03  0.588336872355E-03  0.604236912100E-03  0.620566656685E-03  0.637337719046E-03
  0.654562025960E-03  0.672251826527E-03  0.690419700887E-03  0.709078569158E-03  0.728241700630E-03
  0.747922723199E-03  0.768135633059E-03  0.788894804653E-03  0.810215000899E-03  0.832111383687E-03
  0.854599524659E-03  0.877695416285E-03  0.901415483237E-03  0.925776594064E-03  0.950796073194E-03
  0.976491713249E-03  0.100288178770E-02  0.102998506387E-02  0.105782081625E-02  0.108640884025E-02
  0.111576946625E-02  0.114592357405E-02  0.117689260774E-02  0.120869859092E-02  0.124136414241E-02
  0.127491249228E-02  0.130936749840E-02  0.134475366339E-02  0.138109615209E-02  0.141842080937E-02
  0.145675417858E-02  0.149612352041E-02  0.153655683225E-02  0.157808286813E-02  0.162073115914E-02
  0.166453203446E-02  0.170951664288E-02  0.175571697501E-02  0.180316588597E-02  0.185189711880E-02
  0.190194532842E-02  0.195334610629E-02  0.200613600572E-02  0.206035256782E-02  0.211603434828E-02
  0.217322094469E-02  0.223195302476E-02  0.229227235521E-02  0.235422183148E-02  0.241784550820E-02
  0.248318863056E-02  0.255029766644E-02  0.261922033948E-02  0.269000566298E-02  0.276270397478E-02
  0.283736697300E-02  0.291404775288E-02  0.299280084443E-02  0.307368225127E-02  0.315674949042E-02
  0.324206163316E-02  0.332967934710E-02  0.341966493923E-02  0.351208240026E-02  0.360699745009E-02
  0.370447758453E-02  0.380459212329E-02  0.390741225923E-02  0.401301110899E-02  0.412146376495E-02
  0.423284734859E-02  0.434724106533E-02  0.446472626078E-02  0.458538647862E-02  0.470930751989E-02
  0.483657750403E-02  0.496728693148E-02  0.510152874795E-02  0.523939841052E-02  0.538099395543E-02
  0.552641606775E-02  0.567576815291E-02  0.582915641012E-02  0.598668990789E-02  0.614848066144E-02
  0.631464371226E-02  0.648529720988E-02  0.666056249571E-02  0.684056418923E-02  0.702543027651E-02
  0.721529220104E-02  0.741028495705E-02  0.761054718538E-02  0.781622127185E-02  0.802745344835E-02
  0.824439389658E-02  0.846719685464E-02  0.869602072646E-02  0.893102819418E-02  0.917238633353E-02
  0.942026673231E-02  0.967484561210E-02  0.993630395318E-02  0.102048276228E-01  0.104806075070E-01
  0.107638396458E-01  0.110547253719E-01  0.113534714539E-01  0.116602902420E-01  0.119753998187E-01
  0.122990241534E-01  0.126313932603E-01  0.129727433616E-01  0.133233170546E-01  0.136833634829E-01
  0.140531385127E-01  0.144329049135E-01  0.148229325440E-01  0.152234985422E-01  0.156348875214E-01
  0.160573917706E-01  0.164913114612E-01  0.169369548578E-01  0.173946385363E-01  0.178646876059E-01
  0.183474359387E-01  0.188432264040E-01  0.193524111095E-01  0.198753516489E-01  0.204124193554E-01
  0.209639955622E-01  0.215304718702E-01  0.221122504220E-01  0.227097441832E-01  0.233233772317E-01
  0.239535850533E-01  0.246008148463E-01  0.252655258327E-01  0.259481895783E-01  0.266492903207E-01
  0.273693253057E-01  0.281088051323E-01  0.288682541065E-01  0.296482106041E-01  0.304492274426E-01
  0.312718722625E-01  0.321167279182E-01  0.329843928783E-01  0.338754816368E-01  0.347906251332E-01
  0.357304711836E-01  0.366956849225E-01  0.376869492551E-01  0.387049653202E-01  0.397504529646E-01
  0.408241512291E-01  0.419268188448E-01  0.430592347423E-01  0.442221985723E-01  0.454165312374E-01
  0.466430754371E-01  0.479026962244E-01  0.491962815749E-01  0.505247429687E-01  0.518890159838E-01
  0.532900609038E-01  0.547288633367E-01  0.562064348477E-01  0.577238136036E-01  0.592820650311E-01
  0.608822824871E-01  0.625255879413E-01  0.642131326726E-01  0.659460979763E-01  0.677256958843E-01
  0.695531698976E-01  0.714297957289E-01  0.733568820584E-01  0.753357712988E-01  0.773678403712E-01
  0.794545014910E-01  0.815972029627E-01  0.837974299823E-01  0.860567054485E-01  0.883765907790E-01
  0.907586867333E-01  0.932046342388E-01  0.957161152202E-01  0.982948534298E-01  0.100942615278E+00
  0.103661210659E+00  0.106452493778E+00  0.109318363964E+00  0.112260766478E+00  0.115281693308E+00
  0.118383183950E+00  0.121567326167E+00  0.124836256729E+00  0.128192162126E+00  0.131637279249E+00
  0.135173896033E+00  0.138804352067E+00  0.142531039145E+00  0.146356401774E+00  0.150282937617E+00
  0.154313197865E+00  0.158449787542E+00  0.162695365714E+00  0.167052645612E+00  0.171524394641E+00
  0.176113434282E+00  0.180822639855E+00  0.185654940145E+00  0.190613316865E+00  0.195700803955E+00
  0.200920486680E+00  0.206275500524E+00  0.211769029855E+00  0.217404306339E+00  0.223184607077E+00
  0.229113252450E+00  0.235193603629E+00  0.241429059740E+00  0.247823054632E+00  0.254379053232E+00
  0.261100547445E+00  0.267991051554E+00  0.275054097085E+00  0.282293227100E+00  0.289711989844E+00
  0.297313931737E+00  0.305102589612E+00  0.313081482175E+00  0.321254100610E+00  0.329623898269E+00
  0.338194279374E+00  0.346968586660E+00  0.355950087887E+00  0.365141961125E+00  0.374547278748E+00
  0.384168990023E+00  0.394009902217E+00  0.404072660120E+00  0.414359723868E+00  0.424873344987E+00
  0.435615540520E+00  0.446588065137E+00  0.457792381119E+00  0.469229626087E+00  0.480900578362E+00
  0.492805619840E+00  0.504944696265E+00  0.517317274782E+00  0.529922298670E+00  0.542758139134E+00
  0.555822544084E+00  0.569112583799E+00  0.582624593429E+00  0.596354112254E+00  0.610295819718E+00
  0.624443468191E+00  0.638789812532E+00  0.653326536501E+00  0.668044176149E+00  0.682932040350E+00
  0.697978128712E+00  0.713169047166E+00  0.728489921611E+00  0.743924310094E+00  0.759454114087E+00
  0.775059489567E+00  0.790718758683E+00  0.806408322998E+00  0.822102579383E+00  0.837773839849E+00
  0.853392256761E+00  0.868925755090E+00  0.884339973515E+00  0.899598216460E+00  0.914661419300E+00
  0.929488129244E+00  0.944034504545E+00  0.958254334954E+00  0.972099086452E+00  0.985517973460E+00
  0.998458061823E+00  0.101086440588E+01  0.102268022290E+01  0.103384710796E+01  0.104430529212E+01
  0.105399394619E+01  0.106285153195E+01  0.107081620134E+01  0.107782624362E+01  0.108382057843E+01
  0.108873929111E+01  0.109252420442E+01  0.109511947788E+01  0.109647222303E+01  0.109653311889E+01
  0.109525700799E+01  0.109260344834E+01  0.108853719180E+01  0.108302855348E+01  0.107605363118E+01
  0.106759432819E+01  0.105763812704E+01  0.104617755720E+01  0.103320929606E+01  0.101873284073E+01
  0.100274868934E+01  0.985255974889E+00  0.966249504282E+00  0.945716170461E+00  0.923630728567E+00
  0.899948537015E+00  0.874687202450E+00  0.847990221235E+00  0.820024324352E+00  0.790959416609E+00
  0.760967240760E+00  0.730220027367E+00  0.698889196267E+00  0.667144050852E+00  0.635150529932E+00
  0.603070005749E+00  0.571058141344E+00  0.539263816778E+00  0.507828132979E+00  0.476883503011E+00
  0.446552840367E+00  0.416948854508E+00  0.388173463787E+00  0.360317335430E+00  0.333459560955E+00
  0.307667473367E+00  0.282996609580E+00  0.259490818003E+00  0.237182507348E+00  0.216093029099E+00
  0.196233181674E+00  0.177603822612E+00  0.160196571427E+00  0.143994585173E+00  0.128973387712E+00
  0.115101733840E+00  0.102342490069E+00  0.906535151260E-01  0.799885248513E-01  0.702979281914E-01
  0.615296232140E-01  0.536297444972E-01  0.465433557230E-01  0.402150837058E-01  0.345896922706E-01
  0.296125961860E-01  0.252303166551E-01  0.213908806042E-01  0.180441662273E-01  0.151421970545E-01
  0.126393864029E-01  0.104927336229E-01
 ae wavefunction
 -0.185813569961E-02 -0.190678939790E-02 -0.195671259473E-02 -0.200793817825E-02 -0.206049987609E-02
 -0.211443227608E-02 -0.216977084755E-02 -0.222655196305E-02 -0.228481292056E-02 -0.234459196625E-02
 -0.240592831769E-02 -0.246886218766E-02 -0.253343480839E-02 -0.259968845645E-02 -0.266766647807E-02
 -0.273741331511E-02 -0.280897453153E-02 -0.288239684046E-02 -0.295772813186E-02 -0.303501750072E-02
 -0.311431527590E-02 -0.319567304956E-02 -0.327914370717E-02 -0.336478145822E-02 -0.345264186734E-02
 -0.354278188652E-02 -0.363525988727E-02 -0.373013569409E-02 -0.382747061821E-02 -0.392732749204E-02
 -0.402977070444E-02 -0.413486623638E-02 -0.424268169760E-02 -0.435328636363E-02 -0.446675121370E-02
 -0.458314896925E-02 -0.470255413307E-02 -0.482504302924E-02 -0.495069384362E-02 -0.507958666514E-02
 -0.521180352764E-02 -0.534742845249E-02 -0.548654749185E-02 -0.562924877252E-02 -0.577562254054E-02
 -0.592576120642E-02 -0.607975939092E-02 -0.623771397156E-02 -0.639972412971E-02 -0.656589139819E-02
 -0.673631970961E-02 -0.691111544506E-02 -0.709038748354E-02 -0.727424725173E-02 -0.746280877435E-02
 -0.765618872490E-02 -0.785450647686E-02 -0.805788415522E-02 -0.826644668842E-02 -0.848032186052E-02
 -0.869964036365E-02 -0.892453585062E-02 -0.915514498773E-02 -0.939160750761E-02 -0.963406626207E-02
 -0.988266727493E-02 -0.101375597947E-01 -0.103988963470E-01 -0.106668327869E-01 -0.109415283503E-01
 -0.112231457057E-01 -0.115118510045E-01 -0.118078139310E-01 -0.121112077518E-01 -0.124222093635E-01
 -0.127409993401E-01 -0.130677619785E-01 -0.134026853433E-01 -0.137459613087E-01 -0.140977856006E-01
 -0.144583578348E-01 -0.148278815540E-01 -0.152065642629E-01 -0.155946174592E-01 -0.159922566634E-01
 -0.163997014445E-01 -0.168171754423E-01 -0.172449063867E-01 -0.176831261126E-01 -0.181320705703E-01
 -0.185919798318E-01 -0.190630980918E-01 -0.195456736632E-01 -0.200399589672E-01 -0.205462105170E-01
 -0.210646888949E-01 -0.215956587223E-01 -0.221393886219E-01 -0.226961511721E-01 -0.232662228528E-01
 -0.238498839815E-01 -0.244474186400E-01 -0.250591145901E-01 -0.256852631788E-01 -0.263261592315E-01
 -0.269821009317E-01 -0.276533896888E-01 -0.283403299905E-01 -0.290432292411E-01 -0.297623975828E-01
 -0.304981477015E-01 -0.312507946134E-01 -0.320206554338E-01 -0.328080491256E-01 -0.336132962266E-01
 -0.344367185550E-01 -0.352786388910E-01 -0.361393806345E-01 -0.370192674358E-01 -0.379186228000E-01
 -0.388377696619E-01 -0.397770299309E-01 -0.407367240041E-01 -0.417171702458E-01 -0.427186844324E-01
 -0.437415791600E-01 -0.447861632134E-01 -0.458527408954E-01 -0.469416113127E-01 -0.480530676184E-01
 -0.491873962076E-01 -0.503448758646E-01 -0.515257768600E-01 -0.527303599939E-01 -0.539588755852E-01
 -0.552115624028E-01 -0.564886465365E-01 -0.577903402064E-01 -0.591168405070E-01 -0.604683280841E-01
 -0.618449657414E-01 -0.632468969747E-01 -0.646742444310E-01 -0.661271082888E-01 -0.676055645587E-01
 -0.691096632998E-01 -0.706394267499E-01 -0.721948473673E-01 -0.737758857805E-01 -0.753824686434E-01
 -0.770144863937E-01 -0.786717909122E-01 -0.803541930791E-01 -0.820614602262E-01 -0.837933134827E-01
 -0.855494250111E-01 -0.873294151328E-01 -0.891328493409E-01 -0.909592351979E-01 -0.928080191181E-01
 -0.946785830332E-01 -0.965702409396E-01 -0.984822353281E-01 -0.100413733495E+00 -0.102363823737E+00
 -0.104331511425E+00 -0.106315714968E+00 -0.108315261659E+00 -0.110328883412E+00 -0.112355212393E+00
 -0.114392776542E+00 -0.116439995004E+00 -0.118495173460E+00 -0.120556499381E+00 -0.122622037193E+00
 -0.124689723385E+00 -0.126757361546E+00 -0.128822617371E+00 -0.130883013617E+00 -0.132935925049E+00
 -0.134978573386E+00 -0.137008022250E+00 -0.139021172166E+00 -0.141014755605E+00 -0.142985332118E+00
 -0.144929283569E+00 -0.146842809511E+00 -0.148721922724E+00 -0.150562444953E+00 -0.152360002884E+00
 -0.154110024397E+00 -0.155807735133E+00 -0.157448155425E+00 -0.159026097640E+00 -0.160536163982E+00
 -0.161972744819E+00 -0.163330017574E+00 -0.164601946263E+00 -0.165782281734E+00 -0.166864562679E+00
 -0.167842117485E+00 -0.168708067020E+00 -0.169455328407E+00 -0.170076619892E+00 -0.170564466886E+00
 -0.170911209265E+00 -0.171109010035E+00 -0.171149865444E+00 -0.171025616658E+00 -0.170727963087E+00
 -0.170248477475E+00 -0.169578622855E+00 -0.168709771480E+00 -0.167633225837E+00 -0.166340241849E+00
 -0.164822054368E+00 -0.163069905078E+00 -0.161075072889E+00 -0.158828906941E+00 -0.156322862297E+00
 -0.153548538416E+00 -0.150497720491E+00 -0.147162423707E+00 -0.143534940502E+00 -0.139607890850E+00
 -0.135374275628E+00 -0.130827533052E+00 -0.125961598204E+00 -0.120770965622E+00 -0.115250754891E+00
 -0.109396779184E+00 -0.103205616637E+00 -0.966746844449E-01 -0.898023154830E-01 -0.825878372878E-01
 -0.750316531264E-01 -0.671353248824E-01 -0.589016574184E-01 -0.503347840349E-01 -0.414402525864E-01
 -0.322251117646E-01 -0.226979970027E-01 -0.128692154042E-01 -0.275082904913E-02  0.764326400485E-02
  0.182972517416E-01  0.291933339566E-01  0.403116525226E-01  0.516302268983E-01  0.631248956537E-01
  0.747692648198E-01  0.865346639526E-01  0.983901109169E-01  0.110302286552E+00  0.122235520563E+00
  0.134151790144E+00  0.146010733018E+00  0.157769676620E+00  0.169383685238E+00  0.180805626786E+00
  0.191986260794E+00  0.202874348918E+00  0.213416789067E+00  0.223558773931E+00  0.233243974570E+00
  0.242414749559E+00  0.251012380079E+00  0.258977331300E+00  0.266249540227E+00  0.272768730034E+00
  0.278474750671E+00  0.283307945281E+00  0.287209541681E+00  0.290122067866E+00  0.291989790219E+00
  0.292759172761E+00  0.292379355477E+00  0.290802649406E+00  0.287985045792E+00  0.283886736247E+00
  0.278472640442E+00  0.271712937456E+00  0.263583596460E+00  0.254066902038E+00  0.243151968957E+00
  0.230835240882E+00  0.217120967080E+00  0.202021650881E+00  0.185558463367E+00  0.167761615557E+00
  0.148670682265E+00  0.128334870764E+00  0.106813227469E+00  0.841747760297E-01  0.604985803718E-01
  0.358737265319E-01  0.103992173451E-01 -0.158162255726E-01 -0.426544574813E-01 -0.699883074887E-01
 -0.976820780987E-01 -0.125592144530E+00 -0.153567645126E+00 -0.181451247526E+00 -0.209079970227E+00
 -0.236286039864E+00 -0.262897774380E+00 -0.288740502856E+00 -0.313637558546E+00 -0.337411399629E+00
 -0.359884903818E+00 -0.380882839624E+00 -0.400233458791E+00 -0.417770120270E+00 -0.433332867981E+00
 -0.446769923957E+00 -0.457939092832E+00 -0.466709086562E+00 -0.472960774171E+00 -0.476588351554E+00
 -0.477500417284E+00 -0.475620935472E+00 -0.470890066350E+00 -0.463264847709E+00 -0.452719715140E+00
 -0.439246854257E+00 -0.422856383276E+00 -0.403576368265E+00 -0.381452677057E+00 -0.356548679970E+00
 -0.328944807461E+00 -0.298737975742E+00 -0.266040892404E+00 -0.230981253831E+00 -0.193700846707E+00
 -0.154354564932E+00 -0.113109352983E+00 -0.701430860600E-01 -0.256433961397E-01  0.201935471542E-01
  0.671642930654E-01  0.115059395933E+00  0.163664723776E+00  0.212762781735E+00  0.262134042584E+00
  0.311558275854E+00  0.360815867093E+00  0.409689117737E+00  0.457963516933E+00  0.505428976550E+00
  0.551881022621E+00  0.597121937285E+00  0.640961848127E+00  0.683219762621E+00  0.723724545858E+00
  0.762315837191E+00  0.798844896333E+00  0.833175360768E+00  0.865183885858E+00  0.894760630587E+00
  0.921809549429E+00  0.946248462680E+00  0.968008904356E+00  0.987035789479E+00  0.100328698604E+01
  0.101673290416E+01  0.102735621250E+01  0.103515175066E+01  0.104012664571E+01  0.104230057734E+01
  0.104170610081E+01  0.103838892712E+01  0.103240807317E+01  0.102383584573E+01  0.101275761576E+01
  0.999271404370E+00  0.983487283137E+00  0.965526613355E+00  0.945521143445E+00  0.923611993671E+00
  0.899948537015E+00  0.874687202450E+00  0.847990221235E+00  0.820024324352E+00  0.790959416609E+00
  0.760967240760E+00  0.730220027367E+00  0.698889196267E+00  0.667144050852E+00  0.635150529932E+00
  0.603070005749E+00  0.571058141344E+00  0.539263816778E+00  0.507828132979E+00  0.476883503011E+00
  0.446552840367E+00  0.416948854508E+00  0.388173463787E+00  0.360317335430E+00  0.333459560955E+00
  0.307667473367E+00  0.282996609580E+00  0.259490818003E+00  0.237182507348E+00  0.216093029099E+00
  0.196233181674E+00  0.177603822612E+00  0.160196571427E+00  0.143994585173E+00  0.128973387712E+00
  0.115101733840E+00  0.102342490069E+00  0.906535151260E-01  0.799885248513E-01  0.702979281914E-01
  0.615296232140E-01  0.536297444972E-01  0.465433557230E-01  0.402150837058E-01  0.345896922706E-01
  0.296125961860E-01  0.252303166551E-01  0.213908806042E-01  0.180441662273E-01  0.151421970545E-01
  0.126393864029E-01  0.104927336229E-01
 pseudo wavefunction
  0.151537279920E-03  0.155632636096E-03  0.159838670925E-03  0.164158375543E-03  0.168594821921E-03
  0.173151165052E-03  0.177830645194E-03  0.182636590174E-03  0.187572417757E-03  0.192641638070E-03
  0.197847856107E-03  0.203194774285E-03  0.208686195084E-03  0.214326023743E-03  0.220118271046E-03
  0.226067056167E-03  0.232176609604E-03  0.238451276185E-03  0.244895518158E-03  0.251513918367E-03
  0.258311183509E-03  0.265292147479E-03  0.272461774811E-03  0.279825164210E-03  0.287387552172E-03
  0.295154316712E-03  0.303130981190E-03  0.311323218236E-03  0.319736853784E-03  0.328377871216E-03
  0.337252415620E-03  0.346366798154E-03  0.355727500540E-03  0.365341179669E-03  0.375214672338E-03
  0.385355000112E-03  0.395769374316E-03  0.406465201162E-03  0.417450087019E-03  0.428731843823E-03
  0.440318494627E-03  0.452218279313E-03  0.464439660446E-03  0.476991329298E-03  0.489882212023E-03
  0.503121476010E-03  0.516718536399E-03  0.530683062778E-03  0.545024986059E-03  0.559754505539E-03
  0.574882096158E-03  0.590418515941E-03  0.606374813656E-03  0.622762336666E-03  0.639592739001E-03
  0.656877989644E-03  0.674630381046E-03  0.692862537864E-03  0.711587425942E-03  0.730818361528E-03
  0.750569020748E-03  0.770853449330E-03  0.791686072591E-03  0.813081705697E-03  0.835055564199E-03
  0.857623274852E-03  0.880800886731E-03  0.904604882639E-03  0.929052190833E-03  0.954160197062E-03
  0.979946756928E-03  0.100643020859E-02  0.103362938578E-02  0.106156363126E-02  0.109025281049E-02
  0.111971732582E-02  0.114997813097E-02  0.118105674596E-02  0.121297527236E-02  0.124575640906E-02
  0.127942346839E-02  0.131400039271E-02  0.134951177139E-02  0.138598285838E-02  0.142343959007E-02
  0.146190860384E-02  0.150141725690E-02  0.154199364581E-02  0.158366662646E-02  0.162646583453E-02
  0.167042170664E-02  0.171556550196E-02  0.176192932441E-02  0.180954614554E-02  0.185844982796E-02
  0.190867514939E-02  0.196025782744E-02  0.201323454497E-02  0.206764297619E-02  0.212352181345E-02
  0.218091079475E-02  0.223985073201E-02  0.230038354005E-02  0.236255226647E-02  0.242640112217E-02
  0.249197551286E-02  0.255932207131E-02  0.262848869051E-02  0.269952455775E-02  0.277248018957E-02
  0.284740746766E-02  0.292435967580E-02  0.300339153773E-02  0.308455925604E-02  0.316792055213E-02
  0.325353470730E-02  0.334146260481E-02  0.343176677328E-02  0.352451143105E-02  0.361976253189E-02
  0.371758781186E-02  0.381805683751E-02  0.392124105529E-02  0.402721384239E-02  0.413605055886E-02
  0.424782860121E-02  0.436262745745E-02  0.448052876355E-02  0.460161636150E-02  0.472597635892E-02
  0.485369719025E-02  0.498486967961E-02  0.511958710537E-02  0.525794526645E-02  0.540004255039E-02
  0.554598000332E-02  0.569586140172E-02  0.584979332623E-02  0.600788523735E-02  0.617024955326E-02
  0.633700172967E-02  0.650826034190E-02  0.668414716910E-02  0.686478728083E-02  0.705030912584E-02
  0.724084462340E-02  0.743652925699E-02  0.763750217052E-02  0.784390626721E-02  0.805588831108E-02
  0.827359903117E-02  0.849719322860E-02  0.872682988650E-02  0.896267228289E-02  0.920488810664E-02
  0.945364957648E-02  0.970913356330E-02  0.997152171567E-02  0.102410005888E-01  0.105177617768E-01
  0.108020020489E-01  0.110939234887E-01  0.113937336380E-01  0.117016456436E-01  0.120178784086E-01
  0.123426567476E-01  0.126762115462E-01  0.130187799248E-01  0.133706054061E-01  0.137319380885E-01
  0.141030348223E-01  0.144841593927E-01  0.148755827058E-01  0.152775829807E-01  0.156904459467E-01
  0.161144650450E-01  0.165499416367E-01  0.169971852156E-01  0.174565136277E-01  0.179282532949E-01
  0.184127394466E-01  0.189103163559E-01  0.194213375829E-01  0.199461662242E-01  0.204851751693E-01
  0.210387473632E-01  0.216072760767E-01  0.221911651831E-01  0.227908294433E-01  0.234066947968E-01
  0.240391986620E-01  0.246887902436E-01  0.253559308479E-01  0.260410942071E-01  0.267447668113E-01
  0.274674482497E-01  0.282096515608E-01  0.289719035910E-01  0.297547453635E-01  0.305587324561E-01
  0.313844353890E-01  0.322324400227E-01  0.331033479657E-01  0.339977769935E-01  0.349163614777E-01
  0.358597528262E-01  0.368286199344E-01  0.378236496486E-01  0.388455472400E-01  0.398950368919E-01
  0.409728621978E-01  0.420797866728E-01  0.432165942778E-01  0.443840899559E-01  0.455831001826E-01
  0.468144735293E-01  0.480790812405E-01  0.493778178249E-01  0.507116016608E-01  0.520813756154E-01
  0.534881076796E-01  0.549327916170E-01  0.564164476282E-01  0.579401230304E-01  0.595048929520E-01
  0.611118610439E-01  0.627621602054E-01  0.644569533267E-01  0.661974340475E-01  0.679848275314E-01
  0.698203912567E-01  0.717054158240E-01  0.736412257791E-01  0.756291804529E-01  0.776706748180E-01
  0.797671403598E-01  0.819200459657E-01  0.841308988285E-01  0.864012453661E-01  0.887326721564E-01
  0.911268068871E-01  0.935853193194E-01  0.961099222664E-01  0.987023725840E-01  0.101364472175E+00
  0.104098069004E+00  0.106905058125E+00  0.109787382714E+00  0.112747035117E+00  0.115786057897E+00
  0.118906544895E+00  0.122110642286E+00  0.125400549646E+00  0.128778521007E+00  0.132246865921E+00
  0.135807950512E+00  0.139464198519E+00  0.143218092332E+00  0.147072174007E+00  0.151029046268E+00
  0.155091373478E+00  0.159261882590E+00  0.163543364057E+00  0.167938672709E+00  0.172450728577E+00
  0.177082517675E+00  0.181837092712E+00  0.186717573741E+00  0.191727148733E+00  0.196869074059E+00
  0.202146674878E+00  0.207563345417E+00  0.213122549128E+00  0.218827818712E+00  0.224682755991E+00
  0.230691031619E+00  0.236856384603E+00  0.243182621630E+00  0.249673616167E+00  0.256333307317E+00
  0.263165698412E+00  0.270174855302E+00  0.277364904338E+00  0.284740029983E+00  0.292304472057E+00
  0.300062522553E+00  0.308018521995E+00  0.316176855304E+00  0.324541947116E+00  0.333118256519E+00
  0.341910271137E+00  0.350922500539E+00  0.360159468878E+00  0.369625706726E+00  0.379325742025E+00
  0.389264090085E+00  0.399445242551E+00  0.409873655260E+00  0.420553734901E+00  0.431489824385E+00
  0.442686186820E+00  0.454146988000E+00  0.465876277283E+00  0.477877966753E+00  0.490155808531E+00
  0.502713370111E+00  0.515554007586E+00  0.528680836611E+00  0.542096700962E+00  0.555804138528E+00
  0.569805344570E+00  0.584102132091E+00  0.598695889120E+00  0.613587532760E+00  0.628777459783E+00
  0.644265493618E+00  0.660050827521E+00  0.676131963758E+00  0.692506648598E+00  0.709171802959E+00
  0.726123448506E+00  0.743356629069E+00  0.760865327205E+00  0.778642375794E+00  0.796679364553E+00
  0.814966541390E+00  0.833492708565E+00  0.852245113642E+00  0.871209335298E+00  0.890369164088E+00
  0.909706478355E+00  0.929201115532E+00  0.948830739196E+00  0.968570702328E+00  0.988393907354E+00
  0.100827066368E+01  0.102816854356E+01  0.104805223738E+01  0.106788340945E+01  0.108762055589E+01
  0.110721886601E+01  0.112663008927E+01  0.114580240977E+01  0.116468033061E+01  0.118320457096E+01
  0.120131197846E+01  0.121893546036E+01  0.123600393662E+01  0.125244231888E+01  0.126817151897E+01
  0.128310849113E+01  0.129716631203E+01  0.131025430283E+01  0.132227819733E+01  0.133314036002E+01
  0.134274005764E+01  0.135097378708E+01  0.135773566164E+01  0.136291785689E+01  0.136641111552E+01
  0.136810530919E+01  0.136789005317E+01  0.136565536699E+01  0.136129237146E+01  0.135469400900E+01
  0.134575577055E+01  0.133437640824E+01  0.132045860860E+01  0.130390959687E+01  0.128464163847E+01
  0.126257240036E+01  0.123762513141E+01  0.120972861986E+01  0.117881688609E+01  0.114482857183E+01
  0.110770599415E+01  0.106739384342E+01  0.102383752190E+01  0.976981143911E+00  0.926765250336E+00
  0.873124915825E+00  0.816058604858E+00  0.755700026131E+00  0.692199038567E+00  0.000000000000E+00
  0.000000000000E+00  0.000000000000E+00  0.000000000000E+00  0.000000000000E+00  0.000000000000E+00
  0.000000000000E+00  0.000000000000E+00  0.000000000000E+00  0.000000000000E+00  0.000000000000E+00
  0.000000000000E+00  0.000000000000E+00  0.000000000000E+00  0.000000000000E+00  0.000000000000E+00
  0.000000000000E+00  0.000000000000E+00  0.000000000000E+00  0.000000000000E+00  0.000000000000E+00
  0.000000000000E+00  0.000000000000E+00  0.000000000000E+00  0.000000000000E+00  0.000000000000E+00
  0.000000000000E+00  0.000000000000E+00  0.000000000000E+00  0.000000000000E+00  0.000000000000E+00
  0.000000000000E+00  0.000000000000E+00  0.000000000000E+00  0.000000000000E+00  0.000000000000E+00
  0.000000000000E+00  0.000000000000E+00  0.000000000000E+00  0.000000000000E+00  0.000000000000E+00
  0.000000000000E+00  0.000000000000E+00
 ae wavefunction
 -0.237999696371E-02 -0.244231515320E-02 -0.250625938240E-02 -0.257187177619E-02 -0.263919553463E-02
 -0.270827495963E-02 -0.277915548214E-02 -0.285188369000E-02 -0.292650735641E-02 -0.300307546902E-02
 -0.308163825976E-02 -0.316224723521E-02 -0.324495520776E-02 -0.332981632744E-02 -0.341688611432E-02
 -0.350622149184E-02 -0.359788082069E-02 -0.369192393347E-02 -0.378841217009E-02 -0.388740841397E-02
 -0.398897712891E-02 -0.409318439681E-02 -0.420009795610E-02 -0.430978724113E-02 -0.442232342193E-02
 -0.453777944554E-02 -0.465623007721E-02 -0.477775194324E-02 -0.490242357422E-02 -0.503032544914E-02
 -0.516154004056E-02 -0.529615186032E-02 -0.543424750644E-02 -0.557591571060E-02 -0.572124738665E-02
 -0.587033567994E-02 -0.602327601747E-02 -0.618016615905E-02 -0.634110624916E-02 -0.650619886978E-02
 -0.667554909410E-02 -0.684926454098E-02 -0.702745543042E-02 -0.721023463977E-02 -0.739771776078E-02
 -0.759002315753E-02 -0.778727202514E-02 -0.798958844931E-02 -0.819709946657E-02 -0.840993512537E-02
 -0.862822854786E-02 -0.885211599240E-02 -0.908173691673E-02 -0.931723404183E-02 -0.955875341634E-02
 -0.980644448160E-02 -0.100604601372E-01 -0.103209568071E-01 -0.105880945059E-01 -0.108620369059E-01
 -0.111429514042E-01 -0.114310091901E-01 -0.117263853126E-01 -0.120292587483E-01 -0.123398124690E-01
 -0.126582335094E-01 -0.129847130344E-01 -0.133194464065E-01 -0.136626332525E-01 -0.140144775300E-01
 -0.143751875926E-01 -0.147449762554E-01 -0.151240608585E-01 -0.155126633303E-01 -0.159110102488E-01
 -0.163193329019E-01 -0.167378673464E-01 -0.171668544644E-01 -0.176065400180E-01 -0.180571747022E-01
 -0.185190141948E-01 -0.189923192033E-01 -0.194773555095E-01 -0.199743940100E-01 -0.204837107538E-01
 -0.210055869753E-01 -0.215403091231E-01 -0.220881688845E-01 -0.226494632044E-01 -0.232244942993E-01
 -0.238135696645E-01 -0.244170020759E-01 -0.250351095842E-01 -0.256682155022E-01 -0.263166483836E-01
 -0.269807419941E-01 -0.276608352726E-01 -0.283572722832E-01 -0.290704021564E-01 -0.298005790198E-01
 -0.305481619163E-01 -0.313135147098E-01 -0.320970059783E-01 -0.328990088911E-01 -0.337199010728E-01
 -0.345600644491E-01 -0.354198850774E-01 -0.362997529576E-01 -0.372000618250E-01 -0.381212089218E-01
 -0.390635947476E-01 -0.400276227868E-01 -0.410136992120E-01 -0.420222325618E-01 -0.430536333919E-01
 -0.441083138974E-01 -0.451866875052E-01 -0.462891684354E-01 -0.474161712286E-01 -0.485681102387E-01
 -0.497453990884E-01 -0.509484500868E-01 -0.521776736049E-01 -0.534334774097E-01 -0.547162659524E-01
 -0.560264396101E-01 -0.573643938774E-01 -0.587305185069E-01 -0.601251965952E-01 -0.615488036119E-01
 -0.630017063695E-01 -0.644842619312E-01 -0.659968164539E-01 -0.675397039632E-01 -0.691132450580E-01
 -0.707177455419E-01 -0.723534949767E-01 -0.740207651578E-01 -0.757198085047E-01 -0.774508563665E-01
 -0.792141172371E-01 -0.810097748777E-01 -0.828379863424E-01 -0.846988799043E-01 -0.865925528778E-01
 -0.885190693343E-01 -0.904784577074E-01 -0.924707082835E-01 -0.944957705764E-01 -0.965535505794E-01
 -0.986439078943E-01 -0.100766652732E+00 -0.102921542785E+00 -0.105108279958E+00 -0.107326506975E+00
 -0.109575803834E+00 -0.111855684125E+00 -0.114165591205E+00 -0.116504894225E+00 -0.118872884005E+00
 -0.121268768766E+00 -0.123691669702E+00 -0.126140616415E+00 -0.128614542181E+00 -0.131112279079E+00
 -0.133632552964E+00 -0.136173978291E+00 -0.138735052800E+00 -0.141314152050E+00 -0.143909523823E+00
 -0.146519282391E+00 -0.149141402658E+00 -0.151773714185E+00 -0.154413895102E+00 -0.157059465920E+00
 -0.159707783262E+00 -0.162356033511E+00 -0.165001226398E+00 -0.167640188556E+00 -0.170269557037E+00
 -0.172885772837E+00 -0.175485074433E+00 -0.178063491365E+00 -0.180616837897E+00 -0.183140706776E+00
 -0.185630463129E+00 -0.188081238537E+00 -0.190487925316E+00 -0.192845171065E+00 -0.195147373503E+00
 -0.197388675668E+00 -0.199562961525E+00 -0.201663852027E+00 -0.203684701715E+00 -0.205618595902E+00
 -0.207458348523E+00 -0.209196500722E+00 -0.210825320257E+00 -0.212336801806E+00 -0.213722668258E+00
 -0.214974373096E+00 -0.216083103950E+00 -0.217039787448E+00 -0.217835095442E+00 -0.218459452750E+00
 -0.218903046513E+00 -0.219155837294E+00 -0.219207572032E+00 -0.219047799005E+00 -0.218665884900E+00
 -0.218051034150E+00 -0.217192310659E+00 -0.216078662057E+00 -0.214698946624E+00 -0.213041963021E+00
 -0.211096482958E+00 -0.208851286940E+00 -0.206295203223E+00 -0.203417150103E+00 -0.200206181646E+00
 -0.196651537001E+00 -0.192742693362E+00 -0.188469422694E+00 -0.183821852288E+00 -0.178790529210E+00
 -0.173366488684E+00 -0.167541326427E+00 -0.161307274936E+00 -0.154657283700E+00 -0.147585103272E+00
 -0.140085373115E+00 -0.132153713083E+00 -0.123786818388E+00 -0.114982557823E+00 -0.105740074990E+00
 -0.960598922232E-01 -0.859440168380E-01 -0.753960492776E-01 -0.644212926686E-01 -0.530268632234E-01
 -0.412218008606E-01 -0.290171793455E-01 -0.164262151836E-01 -0.346437444046E-02  0.985052338866E-02
  0.234982053755E-01  0.374558499590E-01  0.516979975021E-01  0.661964675671E-01  0.809202838982E-01
  0.958356081502E-01  0.110905683504E+00  0.126090789458E+00  0.141348209291E+00  0.156632211914E+00
  0.171894050051E+00  0.187081976899E+00  0.202141283507E+00  0.217014359157E+00  0.231640776961E+00
  0.245957406639E+00  0.259898556213E+00  0.273396143977E+00  0.286379901797E+00  0.298777610560E+00
  0.310515368424E+00  0.321517892386E+00  0.331708853596E+00  0.341011246669E+00  0.349347793005E+00
  0.356641377880E+00  0.362815520704E+00  0.367794877491E+00  0.371505774242E+00  0.373876769533E+00
  0.374839244186E+00  0.374328015535E+00  0.372281973287E+00  0.368644733571E+00  0.363365307215E+00
  0.356398777841E+00  0.347706984776E+00  0.337259205266E+00  0.325032829943E+00  0.311014024923E+00
  0.295198373430E+00  0.277591489327E+00  0.258209594560E+00  0.237080052075E+00  0.214241845634E+00
  0.189745997677E+00  0.163655916452E+00  0.136047663658E+00  0.107010134058E+00  0.766451387958E-01
  0.450673843979E-01  0.124043398462E-01 -0.212040154997E-01 -0.556055695085E-01 -0.906365851886E-01
 -0.126122340588E+00 -0.161877897139E+00 -0.197708985386E+00 -0.233412988498E+00 -0.268779997566E+00
 -0.303593913579E+00 -0.337633583689E+00 -0.370673985776E+00 -0.402487508417E+00 -0.432845396244E+00
 -0.461519419893E+00 -0.488283773965E+00 -0.512917131737E+00 -0.535204741632E+00 -0.554940465867E+00
 -0.571928712167E+00 -0.585986253525E+00 -0.596943947458E+00 -0.604648360913E+00 -0.608963294403E+00
 -0.609771187331E+00 -0.606974380172E+00 -0.600496208680E+00 -0.590281908529E+00 -0.576299314894E+00
 -0.558539348247E+00 -0.537016284249E+00 -0.511767810686E+00 -0.482854879071E+00 -0.450361361277E+00
 -0.414393524077E+00 -0.375079335601E+00 -0.332567618989E+00 -0.287027068151E+00 -0.238645141169E+00
 -0.187626845602E+00 -0.134193429532E+00 -0.785809912847E-01 -0.210390191901E-01  0.381711275906E-01
  0.987777875292E-01  0.160500605050E+00  0.223052169640E+00  0.286139676501E+00  0.349466599136E+00
  0.412734363322E+00  0.475644011967E+00  0.537897848932E+00  0.599201051013E+00  0.659263237187E+00
  0.717799986737E+00  0.774534298918E+00  0.829197990435E+00  0.881533027877E+00  0.931292792746E+00
  0.978243273276E+00  0.102216417054E+01  0.106284989521E+01  0.110011041823E+01  0.113377192818E+01
  0.116367724627E+01  0.118968596590E+01  0.121167431864E+01  0.122953482329E+01  0.124317582802E+01
  0.125252108735E+01  0.125750950856E+01  0.125809514591E+01  0.125424744180E+01  0.124595163376E+01
  0.123320920314E+01  0.121603823132E+01  0.119447354917E+01  0.116856662897E+01  0.113838516173E+01
  0.110401234026E+01  0.106554584668E+01  0.102309656683E+01  0.976787048051E+00  0.926749725135E+00
  0.873124915825E+00  0.816058604858E+00  0.755700026131E+00  0.692199038567E+00  0.000000000000E+00
  0.000000000000E+00  0.000000000000E+00  0.000000000000E+00  0.000000000000E+00  0.000000000000E+00
  0.000000000000E+00  0.000000000000E+00  0.000000000000E+00  0.000000000000E+00  0.000000000000E+00
  0.000000000000E+00  0.000000000000E+00  0.000000000000E+00  0.000000000000E+00  0.000000000000E+00
  0.000000000000E+00  0.000000000000E+00  0.000000000000E+00  0.000000000000E+00  0.000000000000E+00
  0.000000000000E+00  0.000000000000E+00  0.000000000000E+00  0.000000000000E+00  0.000000000000E+00
  0.000000000000E+00  0.000000000000E+00  0.000000000000E+00  0.000000000000E+00  0.000000000000E+00
  0.000000000000E+00  0.000000000000E+00  0.000000000000E+00  0.000000000000E+00  0.000000000000E+00
  0.000000000000E+00  0.000000000000E+00  0.000000000000E+00  0.000000000000E+00  0.000000000000E+00
  0.000000000000E+00  0.000000000000E+00
 pseudo wavefunction
  0.551428758850E-08  0.581636676996E-08  0.613499420541E-08  0.647107642772E-08  0.682556963070E-08
  0.719948238960E-08  0.759387853058E-08  0.800988015748E-08  0.844867084430E-08  0.891149900262E-08
  0.939968143346E-08  0.991460707378E-08  0.104577409481E-07  0.110306283368E-07  0.116348991725E-07
  0.122722726773E-07  0.129445622545E-07  0.136536806477E-07  0.144016453828E-07  0.151905845084E-07
  0.160227426497E-07  0.169004873953E-07  0.178263160332E-07  0.188028626557E-07  0.198329056537E-07
  0.209193756216E-07  0.220653636954E-07  0.232741303470E-07  0.245491146607E-07  0.258939441182E-07
  0.273124449186E-07  0.288086528648E-07  0.303868248457E-07  0.320514509476E-07  0.338072672290E-07
  0.356592691951E-07  0.376127260110E-07  0.396731954926E-07  0.418465399196E-07  0.441389427142E-07
  0.465569260336E-07  0.491073693266E-07  0.517975289061E-07  0.546350585945E-07  0.576280314993E-07
  0.607849629823E-07  0.641148348868E-07  0.676271210922E-07  0.713318144675E-07  0.752394553032E-07
  0.793611612989E-07  0.837086591949E-07  0.882943181359E-07  0.931311848625E-07  0.982330208312E-07
  0.103614341367E-06  0.109290456961E-06  0.115277516830E-06  0.121592554866E-06  0.128253538094E-06
  0.135279417796E-06  0.142690183426E-06  0.150506919483E-06  0.158751865498E-06  0.167448479313E-06
  0.176621503812E-06  0.186297037326E-06  0.196502607883E-06  0.207267251523E-06  0.218621594919E-06
  0.230597942505E-06  0.243230368387E-06  0.256554813291E-06  0.270609186816E-06  0.285433475292E-06
  0.301069855543E-06  0.317562814888E-06  0.334959277710E-06  0.353308738962E-06  0.372663404985E-06
  0.393078342040E-06  0.414611632980E-06  0.437324542498E-06  0.461281691434E-06  0.486551240628E-06
  0.513205084843E-06  0.541319057314E-06  0.570973145502E-06  0.602251718665E-06  0.635243767898E-06
  0.670043159319E-06  0.706748901130E-06  0.745465425306E-06  0.786302884709E-06  0.829377466487E-06
  0.874811722635E-06  0.922734918669E-06  0.973283401396E-06  0.102660098683E-05  0.108283936938E-05
  0.114215855338E-05  0.120472730839E-05  0.127072364931E-05  0.134033534285E-05  0.141376044174E-05
  0.149120784822E-05  0.157289790839E-05  0.165906303907E-05  0.174994838907E-05  0.184581253665E-05
  0.194692822518E-05  0.205358313913E-05  0.216608072253E-05  0.228474104229E-05  0.240990169879E-05
  0.254191878640E-05  0.268116790655E-05  0.282804523635E-05  0.298296865569E-05  0.314637893618E-05
  0.331874099507E-05  0.350054521803E-05  0.369230885423E-05  0.389457748797E-05  0.410792659081E-05
  0.433296315882E-05  0.457032743945E-05  0.482069475303E-05  0.508477741401E-05  0.536332675749E-05
  0.565713527670E-05  0.596703887761E-05  0.629391925702E-05  0.663870641088E-05  0.700238128012E-05
  0.738597854121E-05  0.779058954978E-05  0.821736544536E-05  0.866752042617E-05  0.914233520335E-05
  0.964316064436E-05  0.101714216159E-04  0.107286210374E-04  0.113163441565E-04  0.119362630585E-04
  0.125901414234E-04  0.132798395426E-04  0.140073196111E-04  0.147746513094E-04  0.155840176906E-04
  0.164377213909E-04  0.173381911790E-04  0.182879888654E-04  0.192898165894E-04  0.203465245053E-04
  0.214611188894E-04  0.226367706913E-04  0.238768245534E-04  0.251848083239E-04  0.265644430913E-04
  0.280196537683E-04  0.295545802547E-04  0.311735892123E-04  0.328812864838E-04  0.346825301925E-04
  0.365824445586E-04  0.385864344719E-04  0.407002008632E-04  0.429297569159E-04  0.452814451666E-04
  0.477619555405E-04  0.503783443750E-04  0.531380544843E-04  0.560489363223E-04  0.591192703038E-04
  0.623577903473E-04  0.657737087068E-04  0.693767421620E-04  0.731771396415E-04  0.771857113587E-04
  0.814138595406E-04  0.858736108387E-04  0.905776505129E-04  0.955393584853E-04  0.100772847366E-03
  0.106293002561E-03  0.112115524568E-03  0.118256973594E-03  0.124734816605E-03  0.131567476948E-03
  0.138774386699E-03  0.146376041850E-03  0.154394060536E-03  0.162851244427E-03  0.171771643484E-03
  0.181180624249E-03  0.191104941867E-03  0.201572816046E-03  0.212614011157E-03  0.224259920714E-03
  0.236543656464E-03  0.249500142344E-03  0.263166213557E-03  0.277580721062E-03  0.292784641759E-03
  0.308821194690E-03  0.325735963562E-03  0.343577025967E-03  0.362395089626E-03  0.382243636073E-03
  0.403179072144E-03  0.425260889737E-03  0.448551834246E-03  0.473118082175E-03  0.499029428400E-03
  0.526359483620E-03  0.555185882534E-03  0.585590503326E-03  0.617659699067E-03  0.651484541672E-03
  0.687161079093E-03  0.724790606450E-03  0.764479951849E-03  0.806341777679E-03  0.850494898211E-03
  0.897064614364E-03  0.946183066561E-03  0.997989606642E-03  0.105263118982E-02  0.111026278781E-02
  0.117104782410E-02  0.123515863279E-02  0.130277694197E-02  0.137409438307E-02  0.144931302757E-02
  0.152864595243E-02  0.161231783572E-02  0.170056558415E-02  0.179363899405E-02  0.189180144746E-02
  0.199533064542E-02  0.210451938004E-02  0.221967634750E-02  0.234112700416E-02  0.246921446774E-02
  0.260430046604E-02  0.274676633548E-02  0.289701407205E-02  0.305546743717E-02  0.322257312129E-02
  0.339880196791E-02  0.358465026119E-02  0.378064108003E-02  0.398732572195E-02  0.420528519998E-02
  0.443513181616E-02  0.467751081512E-02  0.493310212145E-02  0.520262216477E-02  0.548682579646E-02
  0.578650830202E-02  0.610250751347E-02  0.643570602588E-02  0.678703352276E-02  0.715746921452E-02
  0.754804439496E-02  0.795984512025E-02  0.839401501536E-02  0.885175821264E-02  0.933434242757E-02
  0.984310217638E-02  0.103794421406E-01  0.109448406829E-01  0.115408535199E-01  0.121691175551E-01
  0.128313548778E-01  0.135293769308E-01  0.142650888521E-01  0.150404939933E-01  0.158576986171E-01
  0.167189167784E-01  0.176264753887E-01  0.185828194662E-01  0.195905175716E-01  0.206522674279E-01
  0.217709017238E-01  0.229493940958E-01  0.241908652846E-01  0.254985894591E-01  0.268760006991E-01
  0.283266996250E-01  0.298544601620E-01  0.314632364199E-01  0.331571696711E-01  0.349405953998E-01
  0.368180503977E-01  0.387942798704E-01  0.408742445184E-01  0.430631275492E-01  0.453663415681E-01
  0.477895352939E-01  0.503386000307E-01  0.530196758256E-01  0.558391572262E-01  0.588036985465E-01
  0.619202185350E-01  0.651959043282E-01  0.686382145590E-01  0.722548814741E-01  0.760539119004E-01
  0.800435868804E-01  0.842324597835E-01  0.886293526745E-01  0.932433507052E-01  0.980837942703E-01
  0.103160268646E+00  0.108482590809E+00  0.114060793099E+00  0.119905103384E+00  0.126025921327E+00
  0.132433790363E+00  0.139139364950E+00  0.146153372629E+00  0.153486570421E+00  0.161149695054E+00
  0.169153406506E+00  0.177508224318E+00  0.186224456156E+00  0.195312118064E+00  0.204780845879E+00
  0.214639797305E+00  0.224897544147E+00  0.235561954283E+00  0.246640063009E+00  0.258137933470E+00
  0.270060506025E+00  0.282411436512E+00  0.295192923581E+00  0.308405525458E+00  0.322047966762E+00
  0.336116936302E+00  0.350606877130E+00  0.365509770516E+00  0.380814915999E+00  0.396508710140E+00
  0.412574427220E+00  0.428992005715E+00  0.445737845077E+00  0.462784618050E+00  0.480101104500E+00
  0.497652053460E+00  0.515398080833E+00  0.533295610835E+00  0.551296869820E+00  0.569349941523E+00
  0.587398892878E+00  0.605383979437E+00  0.623241938769E+00  0.640906379104E+00  0.658308268635E+00
  0.675376528243E+00  0.692038726747E+00  0.708221872964E+00  0.723853292722E+00  0.738861571332E+00
  0.753177532800E+00  0.766735216153E+00  0.779472796692E+00  0.791333385864E+00  0.802265628115E+00
  0.812223996972E+00  0.821168676513E+00  0.829064899414E+00  0.835881600410E+00  0.841589236193E+00
  0.846156622062E+00  0.849546644927E+00  0.851710735214E+00  0.852582020762E+00  0.852067148306E+00
  0.850033795873E+00  0.846388215163E+00  0.841144574415E+00  0.834341714633E+00  0.826025007069E+00
  0.816246094384E+00  0.805062592122E+00  0.792537760939E+00  0.778740139660E+00  0.763743140722E+00
  0.747624619292E+00  0.730466396463E+00  0.712353747666E+00  0.693374852743E+00  0.673620205157E+00
  0.653181985884E+00  0.632153405630E+00  0.610628023574E+00  0.588699053092E+00  0.566458668398E+00
  0.543997326855E+00  0.521403123247E+00  0.498761191651E+00  0.476153173061E+00  0.453656736920E+00
  0.431345224398E+00  0.409287339354E+00  0.387546947884E+00  0.366182960602E+00  0.345249296251E+00
  0.324794918510E+00  0.304863935250E+00  0.285495747430E+00  0.266725233205E+00  0.248582951692E+00
  0.231095350676E+00  0.214284963222E+00  0.198170580165E+00  0.182767388696E+00  0.168087071686E+00
  0.154137867629E+00  0.140924596491E+00  0.128448661672E+00  0.116708041956E+00  0.105697289288E+00
  0.954075481415E-01  0.858266104274E-01
 ae wavefunction
  0.210430646261E-05  0.220724728913E-05  0.231492765267E-05  0.242758084982E-05  0.254545115718E-05
  0.266879438254E-05  0.279787844215E-05  0.293298396736E-05  0.307440494014E-05  0.322244936065E-05
  0.337743994721E-05  0.353971487139E-05  0.370962852941E-05  0.388755235162E-05  0.407387565347E-05
  0.426900652732E-05  0.447337278063E-05  0.468742292037E-05  0.491162718677E-05  0.514647863943E-05
  0.539249429885E-05  0.565021634424E-05  0.592021337368E-05  0.620308172467E-05  0.649944687018E-05
  0.680996486985E-05  0.713532391533E-05  0.747624593621E-05  0.783348829821E-05  0.820784558503E-05
  0.860015146953E-05  0.901128068584E-05  0.944215109341E-05  0.989372585636E-05  0.103670157278E-04
  0.108630814536E-04  0.113830363005E-04  0.119280487119E-04  0.124993451003E-04  0.130982127856E-04
  0.137260030821E-04  0.143841345450E-04  0.150740963844E-04  0.157974520549E-04  0.165558430309E-04
  0.173509927760E-04  0.181847109167E-04  0.190588976332E-04  0.199755482754E-04  0.209367582182E-04
  0.219447279678E-04  0.230017685312E-04  0.241103070649E-04  0.252728928141E-04  0.264922033603E-04
  0.277710511921E-04  0.291123906156E-04  0.305193250228E-04  0.319951145365E-04  0.335431840503E-04
  0.351671316851E-04  0.368707376832E-04  0.386579737629E-04  0.405330129562E-04  0.425002399567E-04
  0.445642620012E-04  0.467299203148E-04  0.490023021472E-04  0.513867534295E-04  0.538888920870E-04
  0.565146220367E-04  0.592701479051E-04  0.621619905120E-04  0.651970031404E-04  0.683823886536E-04
  0.717257174878E-04  0.752349465701E-04  0.789184392047E-04  0.827849859899E-04  0.868438267873E-04
  0.911046738394E-04  0.955777360438E-04  0.100273744492E-03  0.105203979290E-03  0.110380297757E-03
  0.115815164054E-03  0.121521680322E-03  0.127513619386E-03  0.133805459141E-03  0.140412418645E-03
  0.147350496063E-03  0.154636508502E-03  0.162288133856E-03  0.170323954763E-03  0.178763504742E-03
  0.187627316660E-03  0.196936973601E-03  0.206715162274E-03  0.216985729077E-03  0.227773738930E-03
  0.239105537027E-03  0.251008813625E-03  0.263512672018E-03  0.276647699856E-03  0.290446043934E-03
  0.304941488643E-03  0.320169538222E-03  0.336167503006E-03  0.352974589825E-03  0.370631996765E-03
  0.389183012469E-03  0.408673120177E-03  0.429150106722E-03  0.450664176689E-03  0.473268071966E-03
  0.497017196891E-03  0.521969749318E-03  0.548186857673E-03  0.575732724485E-03  0.604674776443E-03
  0.635083821380E-03  0.667034212384E-03  0.700604019402E-03  0.735875208500E-03  0.772933829242E-03
  0.811870210322E-03  0.852779163909E-03  0.895760198923E-03  0.940917743610E-03  0.988361377736E-03
  0.103820607474E-02  0.109057245417E-02  0.114558704478E-02  0.120338255853E-02  0.126409817605E-02
  0.132787984360E-02  0.139488058219E-02  0.146526080898E-02  0.153918867142E-02  0.161684039437E-02
  0.169840064061E-02  0.178406288502E-02  0.187402980273E-02  0.196851367155E-02  0.206773678884E-02
  0.217193190331E-02  0.228134266174E-02  0.239622407086E-02  0.251684297474E-02  0.264347854753E-02
  0.277642280186E-02  0.291598111288E-02  0.306247275783E-02  0.321623147124E-02  0.337760601547E-02
  0.354696076644E-02  0.372467631427E-02  0.391115007845E-02  0.410679693702E-02  0.431204986924E-02
  0.452736061093E-02  0.475320032183E-02  0.499006026382E-02  0.523845248898E-02  0.549891053620E-02
  0.577199013479E-02  0.605826991351E-02  0.635835211307E-02  0.667286330003E-02  0.700245507975E-02
  0.734780480566E-02  0.770961628222E-02  0.808862045795E-02  0.848557610540E-02  0.890127048386E-02
  0.933651998078E-02  0.979217072704E-02  0.102690991812E-01  0.107682126768E-01  0.112904499277E-01
  0.118367814830E-01  0.124082101271E-01  0.130057712149E-01  0.136305329355E-01  0.142835964947E-01
  0.149660962074E-01  0.156791994895E-01  0.164241067379E-01  0.172020510885E-01  0.180142980381E-01
  0.188621449177E-01  0.197469202042E-01  0.206699826534E-01  0.216327202412E-01  0.226365488943E-01
  0.236829109945E-01  0.247732736368E-01  0.259091266235E-01  0.270919801724E-01  0.283233623197E-01
  0.296048159948E-01  0.309378957431E-01  0.323241640760E-01  0.337651874198E-01  0.352625316419E-01
  0.368177571257E-01  0.384324133697E-01  0.401080330821E-01  0.418461257458E-01  0.436481706230E-01
  0.455156091762E-01  0.474498368734E-01  0.494521943537E-01  0.515239579256E-01  0.536663293711E-01
  0.558804250320E-01  0.581672641546E-01  0.605277564712E-01  0.629626889973E-01  0.654727120300E-01
  0.680583243309E-01  0.707198574837E-01  0.734574594199E-01  0.762710771096E-01  0.791604384207E-01
  0.821250331544E-01  0.851640932728E-01  0.882765723397E-01  0.914611242059E-01  0.947160809778E-01
  0.980394303172E-01  0.101428792133E+00  0.104881394739E+00  0.108394050550E+00  0.111963131439E+00
  0.115584543833E+00  0.119253703716E+00  0.122965511639E+00  0.126714327943E+00  0.130493948322E+00
  0.134297579947E+00  0.138117818330E+00  0.141946625128E+00  0.145775307084E+00  0.149594496317E+00
  0.153394132118E+00  0.157163444455E+00  0.160890939367E+00  0.164564386414E+00  0.168170808455E+00
  0.171696474019E+00  0.175126892678E+00  0.178446813914E+00  0.181640230118E+00  0.184690384413E+00
  0.187579784122E+00  0.190290220666E+00  0.192802796686E+00  0.195097961091E+00  0.197155552579E+00
  0.198954852069E+00  0.200474644242E+00  0.201693288295E+00  0.202588797893E+00  0.203138930273E+00
  0.203321284500E+00  0.203113408888E+00  0.202492917651E+00  0.201437616818E+00  0.199925639379E+00
  0.197935589581E+00  0.195446696157E+00  0.192438974176E+00  0.188893395119E+00  0.184792064641E+00
  0.180118407402E+00  0.174857358208E+00  0.168995558585E+00  0.162521557773E+00  0.155426016952E+00
  0.147701915386E+00  0.139344756990E+00  0.130352775622E+00  0.120727137290E+00  0.110472137234E+00
  0.995953897055E-01  0.881080081042E-01  0.760247730092E-01  0.633642855049E-01  0.501491031591E-01
  0.364058559299E-01  0.221653392946E-01  0.746258188951E-02 -0.766311500362E-02 -0.231681687616E-01
 -0.390047401134E-01 -0.551207937779E-01 -0.714601974716E-01 -0.879628613529E-01 -0.104564919117E+00
 -0.121198950282E+00 -0.137794240486E+00 -0.154277072866E+00 -0.170571039836E+00 -0.186597362529E+00
 -0.202275207600E+00 -0.217521999777E+00 -0.232253744003E+00 -0.246385388356E+00 -0.259831268974E+00
 -0.272505668662E+00 -0.284323487826E+00 -0.295200986125E+00 -0.305056533445E+00 -0.313811321786E+00
 -0.321390019794E+00 -0.327721375546E+00 -0.332738780747E+00 -0.336380805181E+00 -0.338591702604E+00
 -0.339321882442E+00 -0.338528338005E+00 -0.336175021281E+00 -0.332233155642E+00 -0.326681480491E+00
 -0.319506424824E+00 -0.310702209512E+00 -0.300270880150E+00 -0.288222274180E+00 -0.274573926890E+00
 -0.259350921757E+00 -0.242585690815E+00 -0.224317771064E+00 -0.204593522507E+00 -0.183465813579E+00
 -0.160993678880E+00 -0.137241953846E+00 -0.112280890475E+00 -0.861857572246E-01 -0.590364261371E-01
 -0.309169492224E-01 -0.191512613052E-02  0.278779353453E-01  0.583682642916E-01  0.894594755464E-01
  0.121053220419E+00  0.153049637044E+00  0.185347797720E+00  0.217846150654E+00  0.250442953519E+00
  0.283036697048E+00  0.315526517386E+00  0.347812597410E+00  0.379796557804E+00  0.411381839079E+00
  0.442474074300E+00  0.472981449194E+00  0.502815040613E+00  0.531889116863E+00  0.560121376394E+00
  0.587433097293E+00  0.613749174803E+00  0.638998039162E+00  0.663111473607E+00  0.686024383606E+00
  0.707674592260E+00  0.728002742631E+00  0.746952366743E+00  0.764470143162E+00  0.780506320381E+00
  0.795015253689E+00  0.807955989570E+00  0.819292834185E+00  0.828995874621E+00  0.837041412290E+00
  0.843412314905E+00  0.848098278935E+00  0.851096010991E+00  0.852409332880E+00  0.852049223763E+00
  0.850033795873E+00  0.846388215163E+00  0.841144574415E+00  0.834341714633E+00  0.826025007069E+00
  0.816246094384E+00  0.805062592122E+00  0.792537760939E+00  0.778740139660E+00  0.763743140722E+00
  0.747624619292E+00  0.730466396463E+00  0.712353747666E+00  0.693374852743E+00  0.673620205157E+00
  0.653181985884E+00  0.632153405630E+00  0.610628023574E+00  0.588699053092E+00  0.566458668398E+00
  0.543997326855E+00  0.521403123247E+00  0.498761191651E+00  0.476153173061E+00  0.453656736920E+00
  0.431345224398E+00  0.409287339354E+00  0.387546947884E+00  0.366182960602E+00  0.345249296251E+00
  0.324794918510E+00  0.304863935250E+00  0.285495747430E+00  0.266725233205E+00  0.248582951692E+00
  0.231095350676E+00  0.214284963222E+00  0.198170580165E+00  0.182767388696E+00  0.168087071686E+00
  0.154137867629E+00  0.140924596491E+00  0.128448661672E+00  0.116708041956E+00  0.105697289288E+00
  0.954075481415E-01  0.858266104274E-01
 pseudo wavefunction
  0.108606368830E-07  0.114555953878E-07  0.120831464215E-07  0.127450754412E-07  0.134432657136E-07
  0.141797036729E-07  0.149564845724E-07  0.157758184460E-07  0.166400363959E-07  0.175515972245E-07
  0.185130944307E-07  0.195272635881E-07  0.205969901282E-07  0.217253175501E-07  0.229154560791E-07
  0.241707918004E-07  0.254948962932E-07  0.268915367919E-07  0.283646869042E-07  0.299185379170E-07
  0.315575107207E-07  0.332862683874E-07  0.351097294375E-07  0.370330818341E-07  0.390617977427E-07
  0.412016491006E-07  0.434587240386E-07  0.458394442024E-07  0.483505830232E-07  0.509992849884E-07
  0.537930859691E-07  0.567399346600E-07  0.598482151949E-07  0.631267710000E-07  0.665849299550E-07
  0.702325309316E-07  0.740799517865E-07  0.781381388876E-07  0.824186382576E-07  0.869336284237E-07
  0.916959550673E-07  0.967191675711E-07  0.102017557569E-06  0.107606199607E-06  0.113500994032E-06
  0.119718712231E-06  0.126277044349E-06  0.133194649613E-06  0.140491209428E-06  0.148187483369E-06
  0.156305368243E-06  0.164867960391E-06  0.173899621396E-06  0.183426047401E-06  0.193474342210E-06
  0.204073094405E-06  0.215252458684E-06  0.227044241656E-06  0.239481992330E-06  0.252601097569E-06
  0.266438882770E-06  0.281034718058E-06  0.296430130297E-06  0.312668921242E-06  0.329797292157E-06
  0.347863975264E-06  0.366920372392E-06  0.387020701220E-06  0.408222149535E-06  0.430585037931E-06
  0.454172991437E-06  0.479053120531E-06  0.505296212076E-06  0.532976930722E-06  0.562174031329E-06
  0.592970583038E-06  0.625454205608E-06  0.659717318705E-06  0.695857404848E-06  0.733977286752E-06
  0.774185419876E-06  0.816596200983E-06  0.861330293617E-06  0.908514971400E-06  0.958284480139E-06
  0.101078041977E-05  0.106615214721E-05  0.112455720134E-05  0.118616175114E-05  0.125114106853E-05
  0.131968002700E-05  0.139197362759E-05  0.146822755369E-05  0.154865875626E-05  0.163349607100E-05
  0.172298086951E-05  0.181736774592E-05  0.191692524128E-05  0.202193660759E-05  0.213270061363E-05
  0.224953239502E-05  0.237276435081E-05  0.250274708915E-05  0.263985042481E-05  0.278446443133E-05
  0.293700055082E-05  0.309789276451E-05  0.326759882747E-05  0.344660157096E-05  0.363541027610E-05
  0.383456212280E-05  0.404462371806E-05  0.426619270803E-05  0.449989947827E-05  0.474640894727E-05
  0.500642245818E-05  0.528067977408E-05  0.556996118271E-05  0.587508971634E-05  0.619693349331E-05
  0.653640818788E-05  0.689447963528E-05  0.727216657951E-05  0.767054357169E-05  0.809074402706E-05
  0.853396344962E-05  0.900146283319E-05  0.949457224897E-05  0.100146946294E-04  0.105633097597E-04
  0.111419784873E-04  0.117523471627E-04  0.123961523230E-04  0.130752256324E-04  0.137914990925E-04
  0.145470105394E-04  0.153439094404E-04  0.161844630092E-04  0.170710626555E-04  0.180062307884E-04
  0.189926279920E-04  0.200330605940E-04  0.211304886493E-04  0.222880343604E-04  0.235089909591E-04
  0.247968320751E-04  0.261552216169E-04  0.275880241944E-04  0.290993161127E-04  0.306933969667E-04
  0.323748018723E-04  0.341483143665E-04  0.360189800140E-04  0.379921207590E-04  0.400733500638E-04
  0.422685888747E-04  0.445840824643E-04  0.470264181940E-04  0.496025442512E-04  0.523197894105E-04
  0.551858838789E-04  0.582089812806E-04  0.613976818473E-04  0.647610568764E-04  0.683086745301E-04
  0.720506270455E-04  0.759975594354E-04  0.801606997600E-04  0.845518910554E-04  0.891836250108E-04
  0.940690774883E-04  0.992221459875E-04  0.104657489160E-03  0.110390568490E-03  0.116437692247E-03
  0.122816061858E-03  0.129543820803E-03  0.136640106197E-03  0.144125103188E-03  0.152020102333E-03
  0.160347560117E-03  0.169131162773E-03  0.178395893606E-03  0.188168103989E-03  0.198475588246E-03
  0.209347662632E-03  0.220815248630E-03  0.232910960800E-03  0.245669199437E-03  0.259126248289E-03
  0.273320377618E-03  0.288291952896E-03  0.304083549437E-03  0.320740073293E-03  0.338308888761E-03
  0.356839952843E-03  0.376385957064E-03  0.397002477021E-03  0.418748130103E-03  0.441684741824E-03
  0.465877521223E-03  0.491395245846E-03  0.518310456813E-03  0.546699664521E-03  0.576643565574E-03
  0.608227271525E-03  0.641540550095E-03  0.676678079526E-03  0.713739716792E-03  0.752830780413E-03
  0.794062348663E-03  0.837551573996E-03  0.883422014590E-03  0.931803983897E-03  0.982834919205E-03
  0.103665977021E-02  0.109343140870E-02  0.115331106045E-02  0.121646876057E-02  0.128308383350E-02
  0.135334539908E-02  0.142745290593E-02  0.150561669378E-02  0.158805858613E-02  0.167501251502E-02
  0.176672517942E-02  0.186345673928E-02  0.196548154687E-02  0.207308891757E-02  0.218658394215E-02
  0.230628834262E-02  0.243254137415E-02  0.256570077527E-02  0.270614376903E-02  0.285426811768E-02
  0.301049323375E-02  0.317526135037E-02  0.334903875394E-02  0.353231708243E-02  0.372561469249E-02
  0.392947809920E-02  0.414448349185E-02  0.437123832982E-02  0.461038302258E-02  0.486259269792E-02
  0.512857906303E-02  0.540909236287E-02  0.570492344076E-02  0.601690590618E-02  0.634591841502E-02
  0.669288706770E-02  0.705878793095E-02  0.744464968903E-02  0.785155643052E-02  0.828065057715E-02
  0.873313596110E-02  0.921028105776E-02  0.971342238074E-02  0.102439680466E-01  0.108034015169E-01
  0.113932855246E-01  0.120152661935E-01  0.126710773585E-01  0.133625450945E-01  0.140915924631E-01
  0.148602444844E-01  0.156706333445E-01  0.165250038447E-01  0.174257191034E-01  0.183752665179E-01
  0.193762639954E-01  0.204314664610E-01  0.215437726510E-01  0.227162322000E-01  0.239520530277E-01
  0.252546090338E-01  0.266274481067E-01  0.280743004499E-01  0.295990872337E-01  0.312059295723E-01
  0.328991578297E-01  0.346833212546E-01  0.365631979422E-01  0.385438051201E-01  0.406304097509E-01
  0.428285394427E-01  0.451439936559E-01  0.475828551894E-01  0.501515019256E-01  0.528566188102E-01
  0.557052100350E-01  0.587046113875E-01  0.618625027245E-01  0.651869205170E-01  0.686862704080E-01
  0.723693397124E-01  0.762453097808E-01  0.803237681325E-01  0.846147202554E-01  0.891286009500E-01
  0.938762850841E-01  0.988690976021E-01  0.104118822617E+00  0.109637711389E+00  0.115438488973E+00
  0.121534359286E+00  0.127939008335E+00  0.134666605277E+00  0.141731801006E+00  0.149149723867E+00
  0.156935972100E+00  0.165106602558E+00  0.173678115199E+00  0.182667432811E+00  0.192091875364E+00
  0.201969128355E+00  0.212317204421E+00  0.223154397482E+00  0.234499228557E+00  0.246370382392E+00
  0.258786633942E+00  0.271766763690E+00  0.285329460729E+00  0.299493212472E+00  0.314276179804E+00
  0.329696056413E+00  0.345769911033E+00  0.362514011265E+00  0.379943627638E+00  0.398072816565E+00
  0.416914180856E+00  0.436478606523E+00  0.456774974635E+00  0.477809847135E+00  0.499587125661E+00
  0.522107682617E+00  0.545368963988E+00  0.569364563746E+00  0.594083770056E+00  0.619511083987E+00
  0.645625712020E+00  0.672401034278E+00  0.699804051220E+00  0.727794812412E+00  0.756325832001E+00
  0.785341496652E+00  0.814777472944E+00  0.844560122595E+00  0.874605935309E+00  0.904820990582E+00
  0.935100461347E+00  0.965328173913E+00  0.995376240125E+00  0.102510477903E+01  0.105436174645E+01
  0.108298289168E+01  0.111079186066E+01  0.113760046490E+01  0.116320913393E+01  0.118740756715E+01
  0.120997559736E+01  0.123068427354E+01  0.124929716392E+01  0.126557187205E+01  0.127926174867E+01
  0.129011776961E+01  0.129789053643E+01  0.130233234076E+01  0.130319921670E+01  0.130025288908E+01
  0.129326250957E+01  0.128200605951E+01  0.126627129053E+01  0.124585607337E+01  0.122056803631E+01
  0.119022340037E+01  0.115464496410E+01  0.111365926060E+01  0.106709300813E+01  0.101476910787E+01
  0.956503251294E+00  0.892181924649E+00  0.821860935848E+00  0.745649992084E+00  0.000000000000E+00
  0.000000000000E+00  0.000000000000E+00  0.000000000000E+00  0.000000000000E+00  0.000000000000E+00
  0.000000000000E+00  0.000000000000E+00  0.000000000000E+00  0.000000000000E+00  0.000000000000E+00
  0.000000000000E+00  0.000000000000E+00  0.000000000000E+00  0.000000000000E+00  0.000000000000E+00
  0.000000000000E+00  0.000000000000E+00  0.000000000000E+00  0.000000000000E+00  0.000000000000E+00
  0.000000000000E+00  0.000000000000E+00  0.000000000000E+00  0.000000000000E+00  0.000000000000E+00
  0.000000000000E+00  0.000000000000E+00  0.000000000000E+00  0.000000000000E+00  0.000000000000E+00
  0.000000000000E+00  0.000000000000E+00  0.000000000000E+00  0.000000000000E+00  0.000000000000E+00
  0.000000000000E+00  0.000000000000E+00  0.000000000000E+00  0.000000000000E+00  0.000000000000E+00
  0.000000000000E+00  0.000000000000E+00
 ae wavefunction
  0.383928543084E-05  0.402709998529E-05  0.422356177814E-05  0.442909645687E-05  0.464414970194E-05
  0.486918823228E-05  0.510470085866E-05  0.535119959042E-05  0.560922079496E-05  0.587932641579E-05
  0.616210524950E-05  0.645817428707E-05  0.676818012116E-05  0.709280042305E-05  0.743274549529E-05
  0.778875989867E-05  0.816162416401E-05  0.855215658823E-05  0.896121512039E-05  0.938969934327E-05
  0.983855255614E-05  0.103087639601E-04  0.108013709572E-04  0.113174615599E-04  0.118581769381E-04
  0.124247140667E-04  0.130183285453E-04  0.136403375279E-04  0.142921228217E-04  0.149751341376E-04
  0.156908925042E-04  0.164409938664E-04  0.172271128507E-04  0.180510067415E-04  0.189145196490E-04
  0.198195868948E-04  0.207682396243E-04  0.217626096524E-04  0.228049345580E-04  0.238975630453E-04
  0.250429605750E-04  0.262437152895E-04  0.275025442392E-04  0.288222999338E-04  0.302059772295E-04
  0.316567205703E-04  0.331778316048E-04  0.347727771951E-04  0.364451978401E-04  0.381989165337E-04
  0.400379480803E-04  0.419665088931E-04  0.439890272980E-04  0.461101543712E-04  0.483347753378E-04
  0.506680215591E-04  0.531152831415E-04  0.556822221977E-04  0.583747867939E-04  0.611992256196E-04
  0.641621034157E-04  0.672703172025E-04  0.705311133461E-04  0.739521055083E-04  0.775412935252E-04
  0.813070832613E-04  0.852583074905E-04  0.894042478566E-04  0.937546579653E-04  0.983197876732E-04
  0.103110408627E-03  0.108137841113E-03  0.113413982312E-03  0.118951335979E-03  0.124763043677E-03
  0.130862917599E-03  0.137265475091E-03  0.143985974927E-03  0.151040455477E-03  0.158445774787E-03
  0.166219652756E-03  0.174380715427E-03  0.182948541580E-03  0.191943711667E-03  0.201387859258E-03
  0.211303725101E-03  0.221715213929E-03  0.232647454138E-03  0.244126860507E-03  0.256181200066E-03
  0.268839661312E-03  0.282132926894E-03  0.296093249961E-03  0.310754534349E-03  0.326152418771E-03
  0.342324365235E-03  0.359309751858E-03  0.377149970307E-03  0.395888528084E-03  0.415571155871E-03
  0.436245920192E-03  0.457963341614E-03  0.480776518781E-03  0.504741258511E-03  0.529916212266E-03
  0.556363019271E-03  0.584146456594E-03  0.613334596486E-03  0.643998971328E-03  0.676214746515E-03
  0.710060901618E-03  0.745620420218E-03  0.782980488751E-03  0.822232704803E-03  0.863473295210E-03
  0.906803344400E-03  0.952329033503E-03  0.100016189042E-02  0.105041905169E-02  0.110322353624E-02
  0.115870453181E-02  0.121699769438E-02  0.127824546125E-02  0.134259737806E-02  0.141021044069E-02
  0.148124945216E-02  0.155588739546E-02  0.163430582265E-02  0.171669526095E-02  0.180325563633E-02
  0.189419671533E-02  0.198973856563E-02  0.209011203597E-02  0.219555925618E-02  0.230633415781E-02
  0.242270301609E-02  0.254494501375E-02  0.267335282748E-02  0.280823323743E-02  0.294990776061E-02
  0.309871330853E-02  0.325500286988E-02  0.341914621864E-02  0.359153064822E-02  0.377256173209E-02
  0.396266411147E-02  0.416228231022E-02  0.437188157767E-02  0.459194875929E-02  0.482299319577E-02
  0.506554765047E-02  0.532016926532E-02  0.558744054527E-02  0.586797037102E-02  0.616239503985E-02
  0.647137933415E-02  0.679561761707E-02  0.713583495471E-02  0.749278826385E-02  0.786726748420E-02
  0.826009677391E-02  0.867213572678E-02  0.910428060941E-02  0.955746561621E-02  0.100326641399E-01
  0.105308900550E-01  0.110531990108E-01  0.116006897308E-01  0.121745053149E-01  0.127758345392E-01
  0.134059131498E-01  0.140660251442E-01  0.147575040351E-01  0.154817340903E-01  0.162401515404E-01
  0.170342457482E-01  0.178655603303E-01  0.187356942212E-01  0.196463026713E-01  0.205990981659E-01
  0.215958512554E-01  0.226383912815E-01  0.237286069878E-01  0.248684469982E-01  0.260599201476E-01
  0.273050956476E-01  0.286061030688E-01  0.299651321188E-01  0.313844321969E-01  0.328663117001E-01
  0.344131370586E-01  0.360273314743E-01  0.377113733350E-01  0.394677942762E-01  0.412991768599E-01
  0.432081518381E-01  0.451973949687E-01  0.472696233466E-01  0.494275912151E-01  0.516740852171E-01
  0.540119190479E-01  0.564439274661E-01  0.589729596205E-01  0.616018716473E-01  0.643335184926E-01
  0.671707449115E-01  0.701163755974E-01  0.731732043902E-01  0.763439825144E-01  0.796314057975E-01
  0.830381008166E-01  0.865666099244E-01  0.902193751036E-01  0.939987206016E-01  0.979068342984E-01
  0.101945747761E+00  0.106117314943E+00  0.110423189488E+00  0.114864800601E+00  0.119443327458E+00
  0.124159672126E+00  0.129014430975E+00  0.134007864562E+00  0.139139866001E+00  0.144409927799E+00
  0.149817107195E+00  0.155359990018E+00  0.161036653102E+00  0.166844625327E+00  0.172780847340E+00
  0.178841630059E+00  0.185022612060E+00  0.191318715984E+00  0.197724104110E+00  0.204232133285E+00
  0.210835309403E+00  0.217525241677E+00  0.224292596964E+00  0.231127054431E+00  0.238017260883E+00
  0.244950787088E+00  0.251914085459E+00  0.258892449460E+00  0.265869975087E+00  0.272829524806E+00
  0.279752694264E+00  0.286619782119E+00  0.293409763313E+00  0.300100266145E+00  0.306667553572E+00
  0.313086509292E+00  0.319330629307E+00  0.325372019914E+00  0.331181403240E+00  0.336728131648E+00
  0.341980212458E+00  0.346904344474E+00  0.351465967732E+00  0.355629327765E+00  0.359357555421E+00
  0.362612762984E+00  0.365356157015E+00  0.367548168101E+00  0.369148597461E+00  0.370116780386E+00
  0.370411766487E+00  0.369992516799E+00  0.368818117866E+00  0.366848012879E+00  0.364042249827E+00
  0.360361746509E+00  0.355768572032E+00  0.350226244237E+00  0.343700042327E+00  0.336157333748E+00
  0.327567914169E+00  0.317904359218E+00  0.307142386361E+00  0.295261225062E+00  0.282243993105E+00
  0.268078076626E+00  0.252755511143E+00  0.236273360495E+00  0.218634090343E+00  0.199845932510E+00
  0.179923236166E+00  0.158886801552E+00  0.136764191729E+00  0.113590017558E+00  0.894061910456E-01
  0.642621420523E-01  0.382149933376E-01  0.113296889539E-01 -0.163209289590E-01 -0.446560998685E-01
 -0.735871858666E-01 -0.103017778768E+00 -0.132843877820E+00 -0.162954141887E+00 -0.193230218434E+00
 -0.223547148544E+00 -0.253773842229E+00 -0.283773611460E+00 -0.313404741511E+00 -0.342521077505E+00
 -0.370972607633E+00 -0.398606040510E+00 -0.425265402405E+00 -0.450792711811E+00 -0.475028806841E+00
 -0.497814383279E+00 -0.518991240368E+00 -0.538403658017E+00 -0.555899793098E+00 -0.571333006721E+00
 -0.584563089511E+00 -0.595457395525E+00 -0.603891909036E+00 -0.609752260466E+00 -0.612934693598E+00
 -0.613346973878E+00 -0.610909220881E+00 -0.605554646946E+00 -0.597230186395E+00 -0.585897004641E+00
 -0.571530881945E+00 -0.554122471754E+00 -0.533677437241E+00 -0.510216473050E+00 -0.483775220882E+00
 -0.454404089071E+00 -0.422167986636E+00 -0.387145982914E+00 -0.349430902952E+00 -0.309128869165E+00
 -0.266358798093E+00 -0.221251860536E+00 -0.173950912288E+00 -0.124609900848E+00 -0.733932531984E-01
 -0.204752479496E-01  0.339606250796E-01  0.897223155852E-01  0.146609871508E+00  0.204416103444E+00
  0.262927251853E+00  0.321923654030E+00  0.381180406960E+00  0.440468022690E+00  0.499553072910E+00
  0.558198821316E+00  0.616165843414E+00  0.673212636482E+00  0.729096223604E+00  0.783572756530E+00
  0.836398119524E+00  0.887328530727E+00  0.936121127389E+00  0.982534508413E+00  0.102632919641E+01
  0.106726797666E+01  0.110511608243E+01  0.113964122708E+01  0.117061353557E+01  0.119780548357E+01
  0.122099199164E+01  0.123995082501E+01  0.125446340389E+01  0.126431605625E+01  0.126930166353E+01
  0.126922160050E+01  0.126388785148E+01  0.125312519580E+01  0.123677341470E+01  0.121468946044E+01
  0.118674960773E+01  0.115285158425E+01  0.111291670260E+01  0.106689200977E+01  0.101475248003E+01
  0.956503251294E+00  0.892181924649E+00  0.821860935848E+00  0.745649992084E+00  0.000000000000E+00
  0.000000000000E+00  0.000000000000E+00  0.000000000000E+00  0.000000000000E+00  0.000000000000E+00
  0.000000000000E+00  0.000000000000E+00  0.000000000000E+00  0.000000000000E+00  0.000000000000E+00
  0.000000000000E+00  0.000000000000E+00  0.000000000000E+00  0.000000000000E+00  0.000000000000E+00
  0.000000000000E+00  0.000000000000E+00  0.000000000000E+00  0.000000000000E+00  0.000000000000E+00
  0.000000000000E+00  0.000000000000E+00  0.000000000000E+00  0.000000000000E+00  0.000000000000E+00
  0.000000000000E+00  0.000000000000E+00  0.000000000000E+00  0.000000000000E+00  0.000000000000E+00
  0.000000000000E+00  0.000000000000E+00  0.000000000000E+00  0.000000000000E+00  0.000000000000E+00
  0.000000000000E+00  0.000000000000E+00  0.000000000000E+00  0.000000000000E+00  0.000000000000E+00
  0.000000000000E+00  0.000000000000E+00
 End of Dataset
  PAW_PBE Te 08Apr2002                   
   6.00000000000000     
 parameters from PSCTR are:
   SHA256 =  e13b0861f25acb1fe6cdc17458a3647985498b67a429eb77ddc1eac05a1775b1 Te/POTCAR
   COPYR  = (c) Copyright 08Apr2002 Georg Kresse
   COPYR  = This file is part of the software VASP. Any use, copying, and all other rights are regulated by the VASP license agreement.
   COPYR  = If you do not have a valid VASP license, you may not use, copy or distribute this file.
   VRHFIN =Te: s2p4
   LEXCH  = PE
   EATOM  =   223.2721 eV,   16.4100 Ry

   TITEL  = PAW_PBE Te 08Apr2002
   LULTRA =        F    use ultrasoft PP ?
   IUNSCR =        1    unscreen: 0-lin 1-nonlin 2-no
   RPACOR =    2.200    partial core radius
   POMASS =  127.600; ZVAL   =    6.000    mass and valenz
   RCORE  =    2.300    outmost cutoff radius
   RWIGS  =    2.900; RWIGS  =    1.535    wigner-seitz radius (au A)
   ENMAX  =  174.982; ENMIN  =  131.236 eV
   ICORE  =        3    local potential
   LCOR   =        T    correct aug charges
   LPAW   =        T    paw PP
   EAUG   =  368.792
   DEXC   =    0.000
   RMAX   =    2.345    core radius for proj-oper
   RAUG   =    1.300    factor for augmentation sphere
   RDEP   =    2.397    radius for radial grids
   RDEPT  =    2.174    core radius for aug-charge
 
   Atomic configuration
   13 entries
     n  l   j            E        occ.
     1  0  0.50    -31621.2075   2.0000
     2  0  0.50     -4848.7941   2.0000
     2  1  1.50     -4352.1960   6.0000
     3  0  0.50      -964.9612   2.0000
     3  1  1.50      -803.6179   6.0000
     3  2  2.50      -559.8710  10.0000
     4  0  0.50      -164.3522   2.0000
     4  1  1.50      -114.3756   6.0000
     4  2  2.50       -41.6483  10.0000
     5  0  0.50       -15.1072   2.0000
     5  1  0.50        -5.9526   4.0000
     5  2  1.50        -5.4423   0.0000
     4  3  2.50        -5.4423   0.0000
   Description
     l       E           TYP  RCUT    TYP  RCUT
     0    -15.1072389     23  2.300
     0    -16.4678215     23  2.300
     1     -5.9526306     23  2.300
     1     -2.4873968     23  2.300
     2     -5.4423304     23  2.300
     3     -1.3605826     23  2.300
   Error from kinetic energy argument (eV)
   NDATA  =      100
   STEP   =   20.000   1.050
  26.7      24.1      22.8      20.4      19.3      17.2      15.3      14.4
  12.7      11.2      10.5      9.15      7.98      6.94      6.02      5.20
  4.49      3.86      3.32      2.63      2.25      1.92      1.51      1.28
  1.09     0.856     0.672     0.572     0.451     0.356     0.283     0.226
 0.182     0.148     0.121     0.996E-01 0.778E-01 0.652E-01 0.519E-01 0.440E-01
 0.354E-01 0.285E-01 0.230E-01 0.184E-01 0.148E-01 0.118E-01 0.939E-02 0.712E-02
 0.577E-02 0.458E-02 0.381E-02 0.342E-02 0.313E-02 0.296E-02 0.281E-02 0.269E-02
 0.253E-02 0.229E-02 0.200E-02 0.170E-02 0.143E-02 0.119E-02 0.101E-02 0.874E-03
 0.802E-03 0.748E-03 0.703E-03 0.651E-03 0.575E-03 0.501E-03 0.418E-03 0.352E-03
 0.306E-03 0.279E-03 0.258E-03 0.241E-03 0.216E-03 0.187E-03 0.156E-03 0.135E-03
 0.120E-03 0.111E-03 0.103E-03 0.909E-04 0.774E-04 0.659E-04 0.583E-04 0.535E-04
 0.491E-04 0.433E-04 0.365E-04 0.319E-04 0.288E-04 0.266E-04 0.234E-04 0.199E-04
 0.173E-04 0.160E-04 0.144E-04 0.125E-04
END of PSCTR-controll parameters
 local part
   81.2582175088937     
  0.43287524E+01  0.43585095E+01  0.44300409E+01  0.45490556E+01  0.47152452E+01
  0.49281735E+01  0.51872729E+01  0.54918418E+01  0.58410420E+01  0.62338975E+01
  0.66692960E+01  0.71459912E+01  0.76626078E+01  0.82176479E+01  0.88094982E+01
  0.94364392E+01  0.10096653E+02  0.10788231E+02  0.11509184E+02  0.12257449E+02
  0.13030892E+02  0.13827318E+02  0.14644477E+02  0.15480067E+02  0.16331740E+02
  0.17197112E+02  0.18073764E+02  0.18959255E+02  0.19851125E+02  0.20746906E+02
  0.21644128E+02  0.22540329E+02  0.23433062E+02  0.24319900E+02  0.25198447E+02
  0.26066342E+02  0.26921268E+02  0.27760954E+02  0.28583188E+02  0.29385816E+02
  0.30166753E+02  0.30923986E+02  0.31655585E+02  0.32359700E+02  0.33034576E+02
  0.33678549E+02  0.34290059E+02  0.34867647E+02  0.35409962E+02  0.35915765E+02
  0.36383928E+02  0.36813443E+02  0.37203416E+02  0.37553076E+02  0.37861773E+02
  0.38128980E+02  0.38354294E+02  0.38537437E+02  0.38678254E+02  0.38776716E+02
  0.38832916E+02  0.38847068E+02  0.38819505E+02  0.38750680E+02  0.38641159E+02
  0.38491620E+02  0.38302850E+02  0.38075741E+02  0.37811285E+02  0.37510573E+02
  0.37174786E+02  0.36805194E+02  0.36403149E+02  0.35970080E+02  0.35507485E+02
  0.35016930E+02  0.34500037E+02  0.33958480E+02  0.33393982E+02  0.32808300E+02
  0.32203229E+02  0.31580585E+02  0.30942207E+02  0.30289944E+02  0.29625651E+02
  0.28951182E+02  0.28268384E+02  0.27579089E+02  0.26885107E+02  0.26188222E+02
  0.25490184E+02  0.24792704E+02  0.24097448E+02  0.23406032E+02  0.22720016E+02
  0.22040900E+02  0.21370119E+02  0.20709041E+02  0.20058960E+02  0.19421094E+02
  0.18796581E+02  0.18186480E+02  0.17591762E+02  0.17013314E+02  0.16451935E+02
  0.15908336E+02  0.15383137E+02  0.14876869E+02  0.14389976E+02  0.13922810E+02
  0.13475636E+02  0.13048634E+02  0.12641897E+02  0.12255438E+02  0.11889186E+02
  0.11542996E+02  0.11216645E+02  0.10909841E+02  0.10622222E+02  0.10353364E+02
  0.10102781E+02  0.98699339E+01  0.96542299E+01  0.94550309E+01  0.92716561E+01
  0.91033876E+01  0.89494749E+01  0.88091398E+01  0.86815809E+01  0.85659790E+01
  0.84615017E+01  0.83673078E+01  0.82825525E+01  0.82063918E+01  0.81379867E+01
  0.80765077E+01  0.80211387E+01  0.79710810E+01  0.79255568E+01  0.78838128E+01
  0.78451231E+01  0.78087922E+01  0.77741579E+01  0.77405932E+01  0.77075091E+01
  0.76743557E+01  0.76406244E+01  0.76058487E+01  0.75696053E+01  0.75315150E+01
  0.74912425E+01  0.74484970E+01  0.74030318E+01  0.73546435E+01  0.73031720E+01
  0.72484990E+01  0.71905468E+01  0.71292772E+01  0.70646900E+01  0.69968207E+01
  0.69257391E+01  0.68515470E+01  0.67743758E+01  0.66943842E+01  0.66117561E+01
  0.65266972E+01  0.64394334E+01  0.63502074E+01  0.62592763E+01  0.61669090E+01
  0.60733837E+01  0.59789847E+01  0.58840008E+01  0.57887219E+01  0.56934372E+01
  0.55984324E+01  0.55039880E+01  0.54103765E+01  0.53178611E+01  0.52266936E+01
  0.51371126E+01  0.50493420E+01  0.49635899E+01  0.48800473E+01  0.47988869E+01
  0.47202627E+01  0.46443089E+01  0.45711397E+01  0.45008489E+01  0.44335096E+01
  0.43691744E+01  0.43078755E+01  0.42496249E+01  0.41944153E+01  0.41422199E+01
  0.40929943E+01  0.40466762E+01  0.40031873E+01  0.39624339E+01  0.39243083E+01
  0.38886899E+01  0.38554465E+01  0.38244358E+01  0.37955067E+01  0.37685006E+01
  0.37432530E+01  0.37195952E+01  0.36973550E+01  0.36763590E+01  0.36564333E+01
  0.36374056E+01  0.36191058E+01  0.36013675E+01  0.35840296E+01  0.35669368E+01
  0.35499409E+01  0.35329016E+01  0.35156877E+01  0.34981775E+01  0.34802595E+01
  0.34618330E+01  0.34428089E+01  0.34231093E+01  0.34026685E+01  0.33814326E+01
  0.33593601E+01  0.33364211E+01  0.33125978E+01  0.32878837E+01  0.32622837E+01
  0.32358134E+01  0.32084986E+01  0.31803748E+01  0.31514865E+01  0.31218868E+01
  0.30916360E+01  0.30608015E+01  0.30294568E+01  0.29976802E+01  0.29655545E+01
  0.29331658E+01  0.29006027E+01  0.28679554E+01  0.28353147E+01  0.28027713E+01
  0.27704149E+01  0.27383335E+01  0.27066125E+01  0.26753340E+01  0.26445763E+01
  0.26144131E+01  0.25849130E+01  0.25561390E+01  0.25281481E+01  0.25009908E+01
  0.24747108E+01  0.24493449E+01  0.24249225E+01  0.24014662E+01  0.23789907E+01
  0.23575038E+01  0.23370060E+01  0.23174908E+01  0.22989449E+01  0.22813484E+01
  0.22646750E+01  0.22488928E+01  0.22339643E+01  0.22198468E+01  0.22064932E+01
  0.21938523E+01  0.21818694E+01  0.21704868E+01  0.21596446E+01  0.21492807E+01
  0.21393323E+01  0.21297354E+01  0.21204265E+01  0.21113420E+01  0.21024198E+01
  0.20935989E+01  0.20848206E+01  0.20760285E+01  0.20671691E+01  0.20581924E+01
  0.20490518E+01  0.20397050E+01  0.20301136E+01  0.20202440E+01  0.20100671E+01
  0.19995588E+01  0.19886998E+01  0.19774756E+01  0.19658770E+01  0.19538993E+01
  0.19415430E+01  0.19288129E+01  0.19157188E+01  0.19022743E+01  0.18884976E+01
  0.18744104E+01  0.18600380E+01  0.18454091E+01  0.18305549E+01  0.18155095E+01
  0.18003088E+01  0.17849905E+01  0.17695936E+01  0.17541582E+01  0.17387246E+01
  0.17233335E+01  0.17080252E+01  0.16928394E+01  0.16778148E+01  0.16629887E+01
  0.16483970E+01  0.16340732E+01  0.16200489E+01  0.16063528E+01  0.15930113E+01
  0.15800474E+01  0.15674812E+01  0.15553296E+01  0.15436059E+01  0.15323204E+01
  0.15214795E+01  0.15110865E+01  0.15011411E+01  0.14916397E+01  0.14825754E+01
  0.14739383E+01  0.14657151E+01  0.14578901E+01  0.14504447E+01  0.14433578E+01
  0.14366063E+01  0.14301649E+01  0.14240069E+01  0.14181040E+01  0.14124269E+01
  0.14069453E+01  0.14016284E+01  0.13964453E+01  0.13913648E+01  0.13863562E+01
  0.13813894E+01  0.13764350E+01  0.13714647E+01  0.13664515E+01  0.13613700E+01
  0.13561965E+01  0.13509093E+01  0.13454888E+01  0.13399174E+01  0.13341801E+01
  0.13282643E+01  0.13221597E+01  0.13158588E+01  0.13093564E+01  0.13026499E+01
  0.12957395E+01  0.12886275E+01  0.12813188E+01  0.12738206E+01  0.12661423E+01
  0.12582954E+01  0.12502932E+01  0.12421509E+01  0.12338851E+01  0.12255140E+01
  0.12170569E+01  0.12085339E+01  0.11999660E+01  0.11913748E+01  0.11827822E+01
  0.11742101E+01  0.11656806E+01  0.11572151E+01  0.11488348E+01  0.11405601E+01
  0.11324106E+01  0.11244047E+01  0.11165597E+01  0.11088914E+01  0.11014141E+01
  0.10941407E+01  0.10870821E+01  0.10802476E+01  0.10736447E+01  0.10672787E+01
  0.10611533E+01  0.10552701E+01  0.10496290E+01  0.10442277E+01  0.10390623E+01
  0.10341269E+01  0.10294142E+01  0.10249150E+01  0.10206188E+01  0.10165135E+01
  0.10125860E+01  0.10088219E+01  0.10052060E+01  0.10017221E+01  0.99835365E+00
  0.99508338E+00  0.99189382E+00  0.98876729E+00  0.98568617E+00  0.98263301E+00
  0.97959066E+00  0.97654252E+00  0.97347258E+00  0.97036564E+00  0.96720742E+00
  0.96398465E+00  0.96068520E+00  0.95729819E+00  0.95381404E+00  0.95022453E+00
  0.94652288E+00  0.94270377E+00  0.93876337E+00  0.93469937E+00  0.93051094E+00
  0.92619876E+00  0.92176495E+00  0.91721307E+00  0.91254801E+00  0.90777597E+00
  0.90290437E+00  0.89794172E+00  0.89289754E+00  0.88778228E+00  0.88260716E+00
  0.87738408E+00  0.87212546E+00  0.86684418E+00  0.86155337E+00  0.85626636E+00
  0.85099650E+00  0.84575702E+00  0.84056097E+00  0.83542100E+00  0.83034933E+00
  0.82535758E+00  0.82045668E+00  0.81565677E+00  0.81096714E+00  0.80639611E+00
  0.80195099E+00  0.79763802E+00  0.79346234E+00  0.78942792E+00  0.78553758E+00
  0.78179292E+00  0.77819439E+00  0.77474122E+00  0.77143149E+00  0.76826217E+00
  0.76522909E+00  0.76232711E+00  0.75955005E+00  0.75689088E+00  0.75434173E+00
  0.75189399E+00  0.74953842E+00  0.74726520E+00  0.74506409E+00  0.74292448E+00
  0.74083550E+00  0.73878615E+00  0.73676537E+00  0.73476216E+00  0.73276570E+00
  0.73076541E+00  0.72875111E+00  0.72671305E+00  0.72464202E+00  0.72252945E+00
  0.72036744E+00  0.71814887E+00  0.71586741E+00  0.71351760E+00  0.71109487E+00
  0.70859557E+00  0.70601700E+00  0.70335743E+00  0.70061609E+00  0.69779318E+00
  0.69488982E+00  0.69190809E+00  0.68885094E+00  0.68572218E+00  0.68252641E+00
  0.67926898E+00  0.67595590E+00  0.67259382E+00  0.66918991E+00  0.66575179E+00
  0.66228749E+00  0.65880534E+00  0.65531387E+00  0.65182176E+00  0.64833775E+00
  0.64487052E+00  0.64142867E+00  0.63802055E+00  0.63465426E+00  0.63133753E+00
  0.62807764E+00  0.62488141E+00  0.62175506E+00  0.61870424E+00  0.61573393E+00
  0.61284842E+00  0.61005126E+00  0.60734526E+00  0.60473247E+00  0.60221413E+00
  0.59979071E+00  0.59746187E+00  0.59522652E+00  0.59308278E+00  0.59102807E+00
  0.58905909E+00  0.58717188E+00  0.58536187E+00  0.58362395E+00  0.58195247E+00
  0.58034136E+00  0.57878416E+00  0.57727407E+00  0.57580406E+00  0.57436691E+00
  0.57295525E+00  0.57156171E+00  0.57017891E+00  0.56879959E+00  0.56741662E+00
  0.56602315E+00  0.56461258E+00  0.56317870E+00  0.56171568E+00  0.56021816E+00
  0.55868129E+00  0.55710075E+00  0.55547279E+00  0.55379428E+00  0.55206269E+00
  0.55027614E+00  0.54843342E+00  0.54653395E+00  0.54457783E+00  0.54256580E+00
  0.54049922E+00  0.53838008E+00  0.53621097E+00  0.53399498E+00  0.53173577E+00
  0.52943743E+00  0.52710449E+00  0.52474186E+00  0.52235476E+00  0.51994870E+00
  0.51752940E+00  0.51510275E+00  0.51267471E+00  0.51025133E+00  0.50783861E+00
  0.50544248E+00  0.50306875E+00  0.50072303E+00  0.49841067E+00  0.49613674E+00
  0.49390599E+00  0.49172277E+00  0.48959099E+00  0.48751416E+00  0.48549527E+00
  0.48353683E+00  0.48164083E+00  0.47980869E+00  0.47804134E+00  0.47633910E+00
  0.47470178E+00  0.47312863E+00  0.47161837E+00  0.47016920E+00  0.46877883E+00
  0.46744452E+00  0.46616309E+00  0.46493097E+00  0.46374422E+00  0.46259860E+00
  0.46148959E+00  0.46041243E+00  0.45936219E+00  0.45833380E+00  0.45732211E+00
  0.45632192E+00  0.45532806E+00  0.45433541E+00  0.45333897E+00  0.45233392E+00
  0.45131562E+00  0.45027969E+00  0.44922204E+00  0.44813891E+00  0.44702687E+00
  0.44588289E+00  0.44470435E+00  0.44348904E+00  0.44223520E+00  0.44094152E+00
  0.43960718E+00  0.43823178E+00  0.43681544E+00  0.43535872E+00  0.43386262E+00
  0.43232859E+00  0.43075851E+00  0.42915462E+00  0.42751957E+00  0.42585629E+00
  0.42416807E+00  0.42245843E+00  0.42073113E+00  0.41899015E+00  0.41723959E+00
  0.41548370E+00  0.41372678E+00  0.41197316E+00  0.41022718E+00  0.40849310E+00
  0.40677509E+00  0.40507718E+00  0.40340322E+00  0.40175686E+00  0.40014149E+00
  0.39856024E+00  0.39701592E+00  0.39551102E+00  0.39404769E+00  0.39262771E+00
  0.39125249E+00  0.38992305E+00  0.38864001E+00  0.38740358E+00  0.38621357E+00
  0.38506942E+00  0.38397016E+00  0.38291445E+00  0.38190059E+00  0.38092657E+00
  0.37999005E+00  0.37908840E+00  0.37821873E+00  0.37737795E+00  0.37656273E+00
  0.37576961E+00  0.37499497E+00  0.37423511E+00  0.37348627E+00  0.37274465E+00
  0.37200649E+00  0.37126805E+00  0.37052569E+00  0.36977591E+00  0.36901534E+00
  0.36824080E+00  0.36744934E+00  0.36663822E+00  0.36580499E+00  0.36494746E+00
  0.36406376E+00  0.36315230E+00  0.36221186E+00  0.36124152E+00  0.36024073E+00
  0.35920927E+00  0.35814727E+00  0.35705520E+00  0.35593387E+00  0.35478440E+00
  0.35360822E+00  0.35240706E+00  0.35118289E+00  0.34993796E+00  0.34867471E+00
  0.34739580E+00  0.34610405E+00  0.34480242E+00  0.34349398E+00  0.34218190E+00
  0.34086938E+00  0.33955964E+00  0.33825591E+00  0.33696135E+00  0.33567904E+00
  0.33441198E+00  0.33316300E+00  0.33193479E+00  0.33072985E+00  0.32955046E+00
  0.32839869E+00  0.32727636E+00  0.32618502E+00  0.32512595E+00  0.32410017E+00
  0.32310836E+00  0.32215096E+00  0.32122805E+00  0.32033946E+00  0.31948469E+00
  0.31866298E+00  0.31787326E+00  0.31711422E+00  0.31638430E+00  0.31568170E+00
  0.31500442E+00  0.31435026E+00  0.31371685E+00  0.31310168E+00  0.31250212E+00
  0.31191545E+00  0.31133885E+00  0.31076951E+00  0.31020455E+00  0.30964116E+00
  0.30907653E+00  0.30850794E+00  0.30793277E+00  0.30734852E+00  0.30675281E+00
  0.30614347E+00  0.30551847E+00  0.30487600E+00  0.30421447E+00  0.30353251E+00
  0.30282898E+00  0.30210302E+00  0.30135399E+00  0.30058153E+00  0.29978555E+00
  0.29896621E+00  0.29812393E+00  0.29725939E+00  0.29637350E+00  0.29546740E+00
  0.29454246E+00  0.29360023E+00  0.29264246E+00  0.29167106E+00  0.29068808E+00
  0.28969571E+00  0.28869622E+00  0.28769198E+00  0.28668542E+00  0.28567899E+00
  0.28467515E+00  0.28367637E+00  0.28268504E+00  0.28170352E+00  0.28073405E+00
  0.27977879E+00  0.27883976E+00  0.27791884E+00  0.27701772E+00  0.27613796E+00
  0.27528088E+00  0.27444765E+00  0.27363917E+00  0.27285618E+00  0.27209914E+00
  0.27136833E+00  0.27066376E+00  0.26998522E+00  0.26933229E+00  0.26870430E+00
  0.26810041E+00  0.26751954E+00  0.26696044E+00  0.26642169E+00  0.26590169E+00
  0.26539873E+00  0.26491095E+00  0.26443639E+00  0.26397299E+00  0.26351865E+00
  0.26307117E+00  0.26262839E+00  0.26218808E+00  0.26174808E+00  0.26130623E+00
  0.26086046E+00  0.26040876E+00  0.25994923E+00  0.25948007E+00  0.25899963E+00
  0.25850640E+00  0.25799902E+00  0.25747630E+00  0.25693725E+00  0.25638104E+00
  0.25580705E+00  0.25521486E+00  0.25460425E+00  0.25397521E+00  0.25332793E+00
  0.25266279E+00  0.25198039E+00  0.25128149E+00  0.25056704E+00  0.24983815E+00
  0.24909607E+00  0.24834221E+00  0.24757810E+00  0.24680537E+00  0.24602575E+00
  0.24524104E+00  0.24445311E+00  0.24366385E+00  0.24287521E+00  0.24208910E+00
  0.24130743E+00  0.24053207E+00  0.23976484E+00  0.23900747E+00  0.23826163E+00
  0.23752886E+00  0.23681058E+00  0.23610810E+00  0.23542258E+00  0.23475501E+00
  0.23410624E+00  0.23347695E+00  0.23286764E+00  0.23227864E+00  0.23171009E+00
  0.23116194E+00  0.23063398E+00  0.23012582E+00  0.22963688E+00  0.22916644E+00
  0.22871361E+00  0.22827735E+00  0.22785651E+00  0.22744980E+00  0.22705582E+00
  0.22667310E+00  0.22630005E+00  0.22593504E+00  0.22557639E+00  0.22522238E+00
  0.22487128E+00  0.22452135E+00  0.22417089E+00  0.22381820E+00  0.22346168E+00
  0.22309976E+00  0.22273097E+00  0.22235393E+00  0.22196737E+00  0.22157014E+00
  0.22116121E+00  0.22073970E+00  0.22030486E+00  0.21985610E+00  0.21939298E+00
  0.21891523E+00  0.21842274E+00  0.21791554E+00  0.21739385E+00  0.21685804E+00
  0.21630863E+00  0.21574627E+00  0.21517178E+00  0.21458606E+00  0.21399018E+00
  0.21338529E+00  0.21277262E+00  0.21215351E+00  0.21152936E+00  0.21090162E+00
  0.21027180E+00  0.20964141E+00  0.20901201E+00  0.20838511E+00  0.20776223E+00
  0.20714486E+00  0.20653441E+00  0.20593225E+00  0.20533968E+00  0.20475789E+00
  0.20418799E+00  0.20363097E+00  0.20308772E+00  0.20255900E+00  0.20204542E+00
  0.20154748E+00  0.20106553E+00  0.20059977E+00  0.20015027E+00  0.19971694E+00
  0.19929954E+00  0.19889772E+00  0.19851097E+00  0.19813864E+00  0.19778000E+00
  0.19743416E+00  0.19710017E+00  0.19677695E+00  0.19646336E+00  0.19615818E+00
  0.19586012E+00  0.19556787E+00  0.19528004E+00  0.19499527E+00  0.19471214E+00
  0.19442929E+00  0.19414533E+00  0.19385893E+00  0.19356882E+00  0.19327376E+00
  0.19297260E+00  0.19266427E+00  0.19234776E+00  0.19202221E+00  0.19168683E+00
  0.19134094E+00  0.19098400E+00  0.19061557E+00  0.19023537E+00  0.18984322E+00
  0.18943907E+00  0.18902303E+00  0.18859532E+00  0.18815628E+00  0.18770637E+00
  0.18724619E+00  0.18677642E+00  0.18629786E+00  0.18581138E+00  0.18531795E+00
  0.18481861E+00  0.18431445E+00  0.18380664E+00  0.18329638E+00  0.18278487E+00
  0.18227337E+00  0.18176313E+00  0.18125537E+00  0.18075133E+00  0.18025217E+00
  0.17975906E+00  0.17927305E+00  0.17879519E+00  0.17832640E+00  0.17786756E+00
  0.17741943E+00  0.17698268E+00  0.17655790E+00  0.17614554E+00  0.17574596E+00
  0.17535939E+00  0.17498594E+00  0.17462563E+00  0.17427833E+00  0.17394381E+00
  0.17362171E+00  0.17331159E+00  0.17301288E+00  0.17272493E+00  0.17244700E+00
  0.17217826E+00  0.17191782E+00  0.17166471E+00  0.17141792E+00  0.17117638E+00
  0.17093899E+00  0.17070464E+00  0.17047219E+00  0.17024049E+00  0.17000843E+00
  0.16977489E+00  0.16953880E+00  0.16929914E+00  0.16905492E+00  0.16880522E+00
  0.16854921E+00  0.16828609E+00  0.16801520E+00  0.16773592E+00  0.16744775E+00
  0.16715029E+00  0.16684323E+00  0.16652636E+00  0.16619961E+00  0.16586299E+00
 gradient corrections used for XC
           5
 core charge-density (partial)
  0.32970131E+01  0.32952689E+01  0.32900415E+01  0.32813471E+01  0.32692124E+01
  0.32536748E+01  0.32347818E+01  0.32125911E+01  0.31871701E+01  0.31585957E+01
  0.31269537E+01  0.30923385E+01  0.30548528E+01  0.30146065E+01  0.29717168E+01
  0.29263073E+01  0.28785076E+01  0.28284522E+01  0.27762806E+01  0.27221359E+01
  0.26661648E+01  0.26085164E+01  0.25493421E+01  0.24887943E+01  0.24270265E+01
  0.23641919E+01  0.23004435E+01  0.22359331E+01  0.21708107E+01  0.21052244E+01
  0.20393192E+01  0.19732371E+01  0.19071166E+01  0.18410919E+01  0.17752927E+01
  0.17098443E+01  0.16448664E+01  0.15804736E+01  0.15167748E+01  0.14538730E+01
  0.13918653E+01  0.13308427E+01  0.12708897E+01  0.12120847E+01  0.11544996E+01
  0.10982002E+01  0.10432457E+01  0.98968898E+00  0.93757692E+00  0.88695013E+00
  0.83784325E+00  0.79028507E+00  0.74429866E+00  0.69990159E+00  0.65710609E+00
  0.61591928E+00  0.57634335E+00  0.53837584E+00  0.50200984E+00  0.46723425E+00
  0.43403400E+00  0.40239035E+00  0.37228112E+00  0.34368093E+00  0.31656147E+00
  0.29089177E+00  0.26663844E+00  0.24376588E+00  0.22223661E+00  0.20201141E+00
  0.18304963E+00  0.16530936E+00  0.14874770E+00  0.13332090E+00  0.11898463E+00
  0.10569414E+00  0.93404442E-01  0.82070476E-01  0.71647293E-01  0.62090197E-01
  0.53354886E-01  0.45397589E-01  0.38175190E-01  0.31645337E-01  0.25766545E-01
  0.20498293E-01  0.15801106E-01  0.11636625E-01  0.79676795E-02  0.47583374E-02
  0.19739558E-02 -0.41878099E-03 -0.24518293E-02 -0.41557628E-02 -0.55597554E-02
 -0.66915719E-02 -0.75775645E-02 -0.82426752E-02 -0.87104447E-02 -0.90030256E-02
 -0.91412013E-02 -0.91444087E-02 -0.90307655E-02 -0.88171010E-02 -0.85189901E-02
 -0.81507907E-02 -0.77256832E-02 -0.72557124E-02 -0.67518318E-02 -0.62239486E-02
 -0.56809709E-02 -0.51308552E-02 -0.45806550E-02 -0.40365695E-02 -0.35039929E-02
 -0.29875633E-02 -0.24912114E-02 -0.20182086E-02 -0.15712147E-02 -0.11523243E-02
 -0.76311286E-03 -0.40468062E-03 -0.77696071E-04  0.21756243E-03  0.48116648E-03
  0.71349902E-03  0.91521750E-03  0.10872187E-02  0.12306053E-02  0.13466545E-02
  0.14367885E-02  0.15025462E-02  0.15455578E-02  0.15675205E-02  0.15701763E-02
  0.15552919E-02  0.15246395E-02  0.14799808E-02  0.14230511E-02  0.13555465E-02
  0.12791116E-02  0.11953292E-02  0.11057119E-02  0.10116942E-02  0.91462647E-03
  0.81577030E-03  0.71629472E-03  0.61727367E-03  0.51968447E-03  0.42440728E-03
  0.33222537E-03  0.24382623E-03  0.15980343E-03  0.80659025E-04  0.68066451E-05
 -0.61424989E-04 -0.12378809E-03 -0.18011146E-03 -0.23029588E-03 -0.27430918E-03
 -0.31218124E-03 -0.34399876E-03 -0.36989999E-03 -0.39006949E-03 -0.40473278E-03
 -0.41415119E-03 -0.41861667E-03 -0.41844685E-03 -0.41398016E-03 -0.40557121E-03
 -0.39358631E-03 -0.37839931E-03 -0.36038756E-03 -0.33992829E-03 -0.31739512E-03
 -0.29315493E-03 -0.26756499E-03 -0.24097038E-03 -0.21370172E-03 -0.18607315E-03
 -0.15838063E-03 -0.13090047E-03 -0.10388824E-03 -0.77577756E-04 -0.52180530E-04
 -0.27885290E-04 -0.48578139E-05  0.16759046E-04  0.36845140E-04  0.55302618E-04
  0.72055351E-04  0.87048208E-04  0.10024619E-03  0.11163346E-03  0.12121223E-03
  0.12900163E-03  0.13503641E-03  0.13936567E-03  0.14205153E-03  0.14316768E-03
  0.14279808E-03  0.14103549E-03  0.13798014E-03  0.13373833E-03  0.12842109E-03
  0.12214291E-03  0.11502048E-03  0.10717149E-03  0.98713531E-04  0.89762981E-04
  0.80434067E-04  0.70837932E-04  0.61081809E-04  0.51268275E-04  0.41494589E-04
  0.31852113E-04  0.22425819E-04  0.13293886E-04  0.45273694E-05 -0.38100412E-05
 -0.11662185E-04 -0.18980523E-04 -0.25724152E-04 -0.31859755E-04 -0.37361491E-04
 -0.42210812E-04 -0.46396240E-04 -0.49913089E-04 -0.52763137E-04 -0.54954263E-04
 -0.56500056E-04 -0.57419379E-04 -0.57735927E-04 -0.57477751E-04 -0.56676782E-04
 -0.55368332E-04 -0.53590605E-04 -0.51384194E-04 -0.48791599E-04 -0.45856735E-04
 -0.42624470E-04 -0.39140163E-04 -0.35449236E-04 -0.31596752E-04 -0.27627030E-04
 -0.23583278E-04 -0.19507261E-04 -0.15438990E-04 -0.11416447E-04 -0.74753434E-05
 -0.36489067E-05  0.32300692E-07  0.35405274E-05  0.68509487E-05  0.99417505E-05
  0.12794183E-04  0.15392582E-04  0.17724368E-04  0.19780011E-04  0.21552973E-04
  0.23039627E-04  0.24239156E-04  0.25153428E-04  0.25786851E-04  0.26146223E-04
  0.26240556E-04  0.26080891E-04  0.25680112E-04  0.25052739E-04  0.24214729E-04
  0.23183261E-04  0.21976528E-04  0.20613530E-04  0.19113862E-04  0.17497511E-04
  0.15784662E-04  0.13995501E-04  0.12150038E-04  0.10267930E-04  0.83683191E-05
  0.64696846E-05  0.45897017E-05  0.27451180E-05  0.95164140E-06 -0.77615707E-06
 -0.24249265E-05 -0.39826049E-05 -0.54384737E-05 -0.67831976E-05 -0.80088514E-05
 -0.91089319E-05 -0.10078358E-04 -0.10913456E-04 -0.11611936E-04 -0.12172856E-04
 -0.12596573E-04 -0.12884687E-04 -0.13039977E-04 -0.13066327E-04 -0.12968645E-04
 -0.12752781E-04 -0.12425430E-04 -0.11994046E-04 -0.11466735E-04 -0.10852164E-04
 -0.10159453E-04 -0.93980827E-05 -0.85777877E-05 -0.77084622E-05 -0.68000636E-05
 -0.58625202E-05 -0.49056425E-05 -0.39390393E-05 -0.29720389E-05 -0.20136153E-05
 -0.10723214E-05 -0.15622743E-06  0.72713332E-06  0.15708120E-05  0.23684847E-05
  0.31144863E-05  0.38038360E-05  0.44322574E-05  0.49961902E-05  0.54927957E-05
  0.59199556E-05  0.62762644E-05  0.65610156E-05  0.67741825E-05  0.69163932E-05
  0.69889013E-05  0.69935513E-05  0.69327407E-05  0.68093784E-05  0.66268394E-05
  0.63889184E-05  0.60997794E-05  0.57639058E-05  0.53860482E-05  0.49711716E-05
  0.45244037E-05  0.40509823E-05  0.35562045E-05  0.30453765E-05  0.25237657E-05
  0.19965543E-05  0.14687957E-05  0.94537334E-06  0.43096232E-06 -0.70005232E-07
 -0.55337200E-06 -0.10152834E-05 -0.14522122E-05 -0.18609788E-05 -0.22387683E-05
 -0.25831436E-05 -0.28920541E-05 -0.31638419E-05 -0.33972427E-05 -0.35913846E-05
 -0.37457823E-05 -0.38603293E-05 -0.39352852E-05 -0.39712622E-05 -0.39692073E-05
 -0.39303827E-05 -0.38563443E-05 -0.37489180E-05 -0.36101741E-05 -0.34424009E-05
 -0.32480766E-05 -0.30298415E-05 -0.27904679E-05 -0.25328319E-05 -0.22598833E-05
 -0.19746170E-05 -0.16800443E-05 -0.13791657E-05 -0.10749436E-05 -0.77027713E-06
 -0.46797786E-06 -0.17074732E-06  0.11884395E-06  0.39837547E-06  0.66559394E-06
  0.91842832E-06  0.11550028E-05  0.13736478E-05  0.15729083E-05  0.17515506E-05
  0.19085666E-05  0.20431757E-05  0.21548253E-05  0.22431882E-05  0.23081592E-05
  0.23498489E-05  0.23685765E-05  0.23648601E-05  0.23394067E-05  0.22930994E-05
  0.22269845E-05  0.21422573E-05  0.20402465E-05  0.19223986E-05  0.17902611E-05
  0.16454654E-05  0.14897101E-05  0.13247432E-05  0.11523451E-05  0.97431181E-06
  0.79243767E-06  0.60849982E-06  0.42424241E-06  0.24136187E-06  0.61492989E-07
 -0.11380402E-06 -0.28305544E-06 -0.44488486E-06 -0.59802277E-06 -0.74131495E-06
 -0.87372958E-06 -0.99436303E-06 -0.11024444E-05 -0.11973386E-05 -0.12785484E-05
 -0.13457147E-05 -0.13986164E-05 -0.14371680E-05 -0.14614166E-05 -0.14715381E-05
 -0.14678317E-05 -0.14507141E-05 -0.14207120E-05 -0.13784545E-05 -0.13246650E-05
 -0.12601513E-05 -0.11857965E-05 -0.11025491E-05 -0.10114120E-05 -0.91343283E-06
 -0.80969242E-06 -0.70129476E-06 -0.58935618E-06 -0.47499495E-06 -0.35932117E-06
 -0.24342700E-06 -0.12837725E-06 -0.15200539E-07  0.95119022E-07  0.20164950E-06
  0.30351816E-06  0.39991775E-06  0.49011207E-06  0.57344068E-06  0.64932289E-06
  0.71726088E-06  0.77684197E-06  0.82774019E-06  0.86971684E-06  0.90262044E-06
  0.92638579E-06  0.94103229E-06  0.94666160E-06  0.94345457E-06  0.93166755E-06
  0.91162816E-06  0.88373048E-06  0.84842977E-06  0.80623682E-06  0.75771191E-06
  0.70345851E-06  0.64411670E-06  0.58035649E-06  0.51287104E-06  0.44236978E-06
  0.36957162E-06  0.29519822E-06  0.21996744E-06  0.14458693E-06  0.69747997E-07
 -0.38801739E-08 -0.75656048E-07 -0.14497082E-06 -0.21125308E-06 -0.27397308E-06
 -0.33264643E-06 -0.38683737E-06 -0.43616151E-06 -0.48028802E-06 -0.51894129E-06
 -0.55190210E-06 -0.57900817E-06 -0.60015427E-06 -0.61529178E-06 -0.62442771E-06
 -0.62762336E-06 -0.62499239E-06 -0.61669856E-06 -0.60295304E-06 -0.58401137E-06
 -0.56017008E-06 -0.53176305E-06 -0.49915759E-06 -0.46275034E-06 -0.42296299E-06
 -0.38023788E-06 -0.33503353E-06 -0.28782011E-06 -0.23907493E-06 -0.18927798E-06
 -0.13890749E-06 -0.88435741E-07 -0.38324855E-07  0.10977073E-07  0.59039715E-07
  0.10545397E-06  0.14983518E-06  0.19182598E-06  0.23109895E-06  0.26735886E-06
  0.30034455E-06  0.32983056E-06  0.35562830E-06  0.37758692E-06  0.39559382E-06
  0.40957478E-06  0.41949373E-06  0.42535226E-06  0.42718871E-06  0.42507700E-06
  0.41912517E-06  0.40947361E-06  0.39629310E-06  0.37978256E-06  0.36016663E-06
  0.33769306E-06  0.31262999E-06  0.28526302E-06  0.25589230E-06  0.22482948E-06
  0.19239462E-06  0.15891316E-06  0.12471282E-06  0.90120642E-07  0.55460003E-07
  0.21047818E-07 -0.12808189E-07 -0.45812064E-07 -0.77682031E-07 -0.10815272E-06
 -0.13697722E-06 -0.16392888E-06 -0.18880293E-06 -0.21141784E-06 -0.23161649E-06
 -0.24926702E-06 -0.26426348E-06 -0.27652624E-06 -0.28600217E-06 -0.29266448E-06
 -0.29651247E-06 -0.29757094E-06 -0.29588943E-06 -0.29154125E-06 -0.28462230E-06
 -0.27524977E-06 -0.26356056E-06 -0.24970969E-06 -0.23386851E-06 -0.21622276E-06
 -0.19697067E-06 -0.17632084E-06 -0.15449019E-06 -0.13170180E-06 -0.10818278E-06
 -0.84162143E-07 -0.59868680E-07 -0.35528923E-07 -0.11365135E-07  0.12406604E-07
  0.35578217E-07  0.57951343E-07  0.79338929E-07  0.99566679E-07  0.11847437E-06
  0.13591701E-06  0.15176584E-06  0.16590913E-06  0.17825290E-06  0.18872136E-06
  0.19725723E-06  0.20382190E-06  0.20839538E-06  0.21097614E-06  0.21158070E-06
  0.21024316E-06  0.20701452E-06  0.20196186E-06  0.19516748E-06  0.18672779E-06
  0.17675216E-06  0.16536171E-06  0.15268799E-06  0.13887152E-06  0.12406042E-06
  0.10840887E-06  0.92075628E-07  0.75222505E-07  0.58012832E-07  0.40609964E-07
  0.23175807E-07  0.58693829E-08 -0.11154548E-07 -0.27746800E-07 -0.43765000E-07
 -0.59074736E-07 -0.73550622E-07 -0.87077247E-07 -0.99550027E-07 -0.11087594E-06
 -0.12097414E-06 -0.12977645E-06 -0.13722774E-06 -0.14328616E-06 -0.14792328E-06
 -0.15112409E-06 -0.15288685E-06 -0.15322288E-06 -0.15215621E-06 -0.14972312E-06
 -0.14597154E-06 -0.14096046E-06 -0.13475914E-06 -0.12744633E-06 -0.11910933E-06
 -0.10984309E-06 -0.99749175E-07 -0.88934757E-07 -0.77511507E-07 -0.65594527E-07
 -0.53301238E-07 -0.40750281E-07 -0.28060420E-07 -0.15349471E-07 -0.27332567E-08
  0.96754051E-08  0.21767660E-07  0.33439530E-07  0.44592756E-07  0.55135585E-07
  0.64983476E-07  0.74059728E-07  0.82296032E-07  0.89632931E-07  0.96020196E-07
  0.10141711E-06  0.10579266E-06  0.10912566E-06  0.11140471E-06  0.11262818E-06
  0.11280403E-06  0.11194955E-06  0.11009105E-06  0.10726344E-06  0.10350978E-06
  0.98880761E-07  0.93434056E-07  0.87233725E-07  0.80349499E-07  0.72856056E-07
  0.64832258E-07  0.56360361E-07  0.47525218E-07  0.38413461E-07  0.29112693E-07
  0.19710677E-07  0.10294542E-07  0.95000823E-09 -0.82393626E-08 -0.17192883E-07
 -0.25833416E-07 -0.34088012E-07 -0.41888491E-07 -0.49171975E-07 -0.55881364E-07
 -0.61965749E-07 -0.67380763E-07 -0.72088870E-07 -0.76059585E-07 -0.79269621E-07
 -0.81702983E-07 -0.83350980E-07 -0.84212180E-07 -0.84292294E-07 -0.83604007E-07
 -0.82166741E-07 -0.80006360E-07 -0.77154833E-07 -0.73649835E-07 -0.69534314E-07
 -0.64856008E-07 -0.59666938E-07 -0.54022862E-07 -0.47982707E-07 -0.41607988E-07
 -0.34962204E-07 -0.28110236E-07 -0.21117732E-07 -0.14050507E-07 -0.69739441E-08
  0.47590469E-10  0.69513077E-08  0.13676538E-07  0.20165244E-07  0.26362497E-07
  0.32216926E-07  0.37681117E-07  0.42711979E-07  0.47271056E-07  0.51324804E-07
  0.54844806E-07  0.57807945E-07  0.60196529E-07  0.61998355E-07  0.63206732E-07
  0.63820449E-07  0.63843699E-07  0.63285947E-07  0.62161761E-07  0.60490599E-07
  0.58296547E-07  0.55608032E-07  0.52457492E-07  0.48881017E-07  0.44917965E-07
  0.40610554E-07  0.36003432E-07  0.31143238E-07  0.26078144E-07  0.20857401E-07
  0.15530873E-07  0.10148578E-07  0.47602328E-08 -0.58518703E-09 -0.58398820E-08
 -0.10957639E-07 -0.15894224E-07 -0.20607747E-07 -0.25059009E-07 -0.29211804E-07
 -0.33033208E-07 -0.36493816E-07 -0.39567955E-07 -0.42233856E-07 -0.44473790E-07
 -0.46274162E-07 -0.47625569E-07 -0.48522820E-07 -0.48964914E-07 -0.48954986E-07
 -0.48500212E-07 -0.47611679E-07 -0.46304227E-07 -0.44596254E-07 -0.42509497E-07
 -0.40068779E-07 -0.37301739E-07 -0.34238541E-07 -0.30911559E-07 -0.27355052E-07
 -0.23604824E-07 -0.19697879E-07 -0.15672066E-07 -0.11565726E-07 -0.74173379E-08
 -0.32651678E-08  0.85307199E-09  0.49005554E-08  0.88416616E-08  0.12642278E-07
  0.16270084E-07  0.19694819E-07  0.22888519E-07  0.25825739E-07  0.28483739E-07
  0.30842655E-07  0.32885629E-07  0.34598916E-07  0.35971965E-07  0.36997462E-07
  0.37671348E-07  0.37992807E-07  0.37964225E-07  0.37591119E-07  0.36882039E-07
  0.35848450E-07  0.34504578E-07  0.32867247E-07  0.30955682E-07  0.28791304E-07
  0.26397502E-07  0.23799391E-07  0.21023563E-07  0.18097823E-07  0.15050917E-07
  0.11912265E-07  0.87116803E-08  0.54790951E-08  0.22442898E-08 -0.96337395E-09
 -0.41152130E-08 -0.71834710E-08 -0.10141556E-07 -0.12964262E-07 -0.15627979E-07
 -0.18110881E-07 -0.20393095E-07 -0.22456856E-07 -0.24286635E-07 -0.25869245E-07
 -0.27193929E-07 -0.28252417E-07 -0.29038971E-07 -0.29550396E-07 -0.29786030E-07
 -0.29747719E-07 -0.29439761E-07 -0.28868829E-07 -0.28043883E-07 -0.26976049E-07
 -0.25678494E-07 -0.24166273E-07 -0.22456167E-07 -0.20566507E-07 -0.18516989E-07
 -0.16328471E-07 -0.14022774E-07 -0.11622465E-07 -0.91506483E-08 -0.66307465E-08
 -0.40862841E-08 -0.15406745E-08  0.98299040E-09  0.34621437E-08  0.58749401E-08
  0.82004434E-08  0.10418802E-07  0.12511413E-07  0.14461075E-07  0.16252117E-07
  0.17870529E-07  0.19304055E-07  0.20542285E-07  0.21576722E-07  0.22400830E-07
  0.23010068E-07  0.23401904E-07  0.23575806E-07  0.23533222E-07  0.23277540E-07
  0.22814027E-07  0.22149759E-07  0.21293530E-07  0.20255750E-07  0.19048327E-07
  0.17684540E-07  0.16178900E-07  0.14547004E-07  0.12805373E-07  0.10971297E-07
  0.90626648E-08  0.70977956E-08  0.50952659E-08  0.30737395E-08  0.10517977E-08
 -0.95222778E-09 -0.29204169E-08 -0.48354175E-08 -0.66805943E-08 -0.84401692E-08
 -0.10099353E-07 -0.11644464E-07 -0.13063039E-07 -0.14343926E-07 -0.15477372E-07
 -0.16455087E-07 -0.17270302E-07 -0.17917810E-07 -0.18393991E-07 -0.18696824E-07
 -0.18825883E-07 -0.18782320E-07 -0.18568835E-07 -0.18189627E-07 -0.17650340E-07
 -0.16957991E-07 -0.16120887E-07 -0.15148538E-07 -0.14051548E-07 -0.12841508E-07
 -0.11530882E-07 -0.10132876E-07 -0.86613114E-08 -0.71304958E-08 -0.55550821E-08
 -0.39499342E-08 -0.23299894E-08 -0.71012278E-09  0.89498685E-09  0.24709865E-08
  0.40039748E-08  0.54806211E-08  0.68882791E-08  0.82150916E-08  0.94500877E-08
  0.10583270E-07  0.11605692E-07  0.12509528E-07  0.13288122E-07  0.13936043E-07
  0.14449110E-07  0.14824415E-07  0.15060337E-07  0.15156534E-07  0.15113936E-07
  0.14934715E-07  0.14622249E-07  0.14181083E-07  0.13616865E-07  0.12936284E-07
  0.12146996E-07  0.11257545E-07  0.10277268E-07  0.92162080E-08  0.80850093E-08
  0.68948151E-08  0.56571609E-08  0.43838646E-08  0.30869166E-08  0.17783690E-08
  0.47022608E-09 -0.82566348E-09 -0.20977118E-08 -0.33346933E-08 -0.45258412E-08
 -0.56609393E-08 -0.67304073E-08 -0.77253791E-08 -0.86377743E-08 -0.94603610E-08
 -0.10186811E-07 -0.10811744E-07 -0.11330767E-07 -0.11740499E-07 -0.12038592E-07
 -0.12223736E-07 -0.12295659E-07 -0.12255117E-07 -0.12103874E-07 -0.11844676E-07
 -0.11481209E-07 -0.11018057E-07 -0.10460650E-07 -0.98152042E-08 -0.90886541E-08
 -0.82885833E-08 -0.74231468E-08 -0.65009906E-08 -0.55311676E-08 -0.45230505E-08
 -0.34862435E-08 -0.24304924E-08 -0.13655951E-08 -0.30131212E-09  0.75272085E-09
  0.17870787E-08  0.27926292E-08  0.37606125E-08  0.46827150E-08  0.55511397E-08
  0.63586699E-08  0.70987275E-08  0.77654249E-08  0.83536094E-08  0.88589013E-08
  0.92777237E-08  0.96073253E-08  0.98457956E-08  0.99920714E-08  0.10045937E-07
  0.10008014E-07  0.98797486E-08  0.96633869E-08  0.93619445E-08  0.89791710E-08
  0.85195071E-08  0.79880358E-08  0.73904295E-08  0.67328911E-08  0.60220916E-08
 kinetic energy density (partial)
  0.31618065E+03  0.31601961E+03  0.31553695E+03  0.31473409E+03  0.31361337E+03
  0.31217806E+03  0.31043234E+03  0.30838127E+03  0.30603077E+03  0.30338760E+03
  0.30045931E+03  0.29725422E+03  0.29378138E+03  0.29005050E+03  0.28607194E+03
  0.28185666E+03  0.27741614E+03  0.27276234E+03  0.26790767E+03  0.26286492E+03
  0.25764719E+03  0.25226784E+03  0.24674048E+03  0.24107882E+03  0.23529672E+03
  0.22940807E+03  0.22342674E+03  0.21736657E+03  0.21124126E+03  0.20506439E+03
  0.19884930E+03  0.19260912E+03  0.18635667E+03  0.18010445E+03  0.17386461E+03
  0.16764889E+03  0.16146860E+03  0.15533462E+03  0.14925734E+03  0.14324663E+03
  0.13731189E+03  0.13146194E+03  0.12570508E+03  0.12004905E+03  0.11450102E+03
  0.10906760E+03  0.10375484E+03  0.98568186E+02  0.93512561E+02  0.88592306E+02
  0.83811213E+02  0.79172532E+02  0.74678983E+02  0.70332765E+02  0.66135575E+02
  0.62088623E+02  0.58192647E+02  0.54447934E+02  0.50854341E+02  0.47411311E+02
  0.44117898E+02  0.40972785E+02  0.37974311E+02  0.35120489E+02  0.32409033E+02
  0.29837375E+02  0.27402695E+02  0.25101936E+02  0.22931835E+02  0.20888937E+02
  0.18969621E+02  0.17170122E+02  0.15486551E+02  0.13914912E+02  0.12451127E+02
  0.11091052E+02  0.98304932E+01  0.86652290E+01  0.75910223E+01  0.66036383E+01
  0.56988582E+01  0.48724941E+01  0.41204010E+01  0.34384892E+01  0.28227357E+01
  0.22691942E+01  0.17740042E+01  0.13333998E+01  0.94371717E+00  0.60140120E+00
  0.30301130E+00  0.45226517E-01 -0.17515024E+00 -0.36118871E+00 -0.51582858E+00
 -0.64187737E+00 -0.74200914E+00 -0.81876375E+00 -0.87454667E+00 -0.91162951E+00
 -0.93215095E+00 -0.93811818E+00 -0.93140890E+00 -0.91377359E+00 -0.88683831E+00
 -0.85210772E+00 -0.81096851E+00 -0.76469308E+00 -0.71444342E+00 -0.66127527E+00
 -0.60614240E+00 -0.54990106E+00 -0.49331457E+00 -0.43705797E+00 -0.38172271E+00
 -0.32782142E+00 -0.27579267E+00 -0.22600571E+00 -0.17876517E+00 -0.13431576E+00
 -0.92846772E-01 -0.54496655E-01 -0.19357334E-01  0.12521498E-01  0.41128261E-01
  0.66485504E-01  0.88646078E-01  0.10768947E+00  0.12371831E+00  0.13685505E+00
  0.14723882E+00  0.15502249E+00  0.16036988E+00  0.16345317E+00  0.16445054E+00
  0.16354391E+00  0.16091694E+00  0.15675317E+00  0.15123436E+00  0.14453897E+00
  0.13684084E+00  0.12830800E+00  0.11910171E+00  0.10937551E+00  0.99274586E-01
  0.88935113E-01  0.78483836E-01  0.68037717E-01  0.57703711E-01  0.47578643E-01
  0.37749188E-01  0.28291926E-01  0.19273494E-01  0.10750798E-01  0.27712979E-02
 -0.46266535E-02 -0.11413422E-01 -0.17567657E-01 -0.23075825E-01 -0.27931707E-01
 -0.32135882E-01 -0.35695183E-01 -0.38622148E-01 -0.40934465E-01 -0.42654410E-01
 -0.43808294E-01 -0.44425916E-01 -0.44540024E-01 -0.44185797E-01 -0.43400340E-01
 -0.42222200E-01 -0.40690909E-01 -0.38846548E-01 -0.36729339E-01 -0.34379268E-01
 -0.31835733E-01 -0.29137226E-01 -0.26321042E-01 -0.23423026E-01 -0.20477336E-01
 -0.17516258E-01 -0.14570030E-01 -0.11666709E-01 -0.88320630E-02 -0.60894872E-02
 -0.34599503E-02 -0.96196455E-03  0.13884211E-02  0.35776049E-02  0.55943966E-02
  0.74299626E-02  0.90777536E-02  0.10533417E-01  0.11794698E-01  0.12861321E-01
  0.13734875E-01  0.14418673E-01  0.14917619E-01  0.15238061E-01  0.15387646E-01
  0.15375168E-01  0.15210416E-01  0.14904029E-01  0.14467340E-01  0.13912235E-01
  0.13251012E-01  0.12496240E-01  0.11660631E-01  0.10756915E-01  0.97977215E-02
  0.87954713E-02  0.77622745E-02  0.67098383E-02  0.56493828E-02  0.45915671E-02
  0.35464234E-02  0.25233016E-02  0.15308221E-02  0.57683836E-03 -0.33159188E-03
 -0.11882267E-02 -0.19876519E-02 -0.27252844E-02 -0.33973685E-02 -0.40009654E-02
 -0.45339348E-02 -0.49949118E-02 -0.53832773E-02 -0.56991239E-02 -0.59432167E-02
 -0.61169507E-02 -0.62223052E-02 -0.62617943E-02 -0.62384164E-02 -0.61556017E-02
 -0.60171581E-02 -0.58272173E-02 -0.55901803E-02 -0.53106638E-02 -0.49934466E-02
 -0.46434185E-02 -0.42655297E-02 -0.38647425E-02 -0.34459863E-02 -0.30141134E-02
 -0.25738592E-02 -0.21298049E-02 -0.16863432E-02 -0.12476474E-02 -0.81764463E-03
 -0.39999161E-03  0.19452567E-05  0.38510663E-03  0.74675328E-03  0.10844757E-02
  0.13962002E-02  0.16801921E-02  0.19350553E-02  0.21597289E-02  0.23534815E-02
  0.25159021E-02  0.26468891E-02  0.27466370E-02  0.28156207E-02  0.28545784E-02
  0.28644930E-02  0.28465718E-02  0.28022253E-02  0.27330454E-02  0.26407825E-02
  0.25273226E-02  0.23946641E-02  0.22448946E-02  0.20801680E-02  0.19026818E-02
  0.17146556E-02  0.15183095E-02  0.13158443E-02  0.11094219E-02  0.90114790E-03
  0.69305447E-03  0.48708520E-03  0.28508125E-03  0.88768999E-04 -0.10025078E-03
 -0.28051207E-03 -0.45069130E-03 -0.60961328E-03 -0.75625570E-03 -0.88975201E-03
 -0.10093928E-02 -0.11146256E-02 -0.12050536E-02 -0.12804328E-02 -0.13406676E-02
 -0.13858060E-02 -0.14160334E-02 -0.14316647E-02 -0.14331367E-02 -0.14209992E-02
 -0.13959052E-02 -0.13586012E-02 -0.13099160E-02 -0.12507509E-02 -0.11820678E-02
 -0.11048783E-02 -0.10202327E-02 -0.92920906E-03 -0.83290186E-03 -0.73241184E-03
 -0.62883559E-03 -0.52325581E-03 -0.41673203E-03 -0.31029183E-03 -0.20492284E-03
 -0.10156519E-03 -0.11049176E-05  0.95632116E-04  0.18788538E-03  0.27496411E-03
  0.35625097E-03  0.43120487E-03  0.49936303E-03  0.56034226E-03  0.61383947E-03
  0.65963143E-03  0.69757389E-03  0.72759994E-03  0.74971776E-03  0.76400787E-03
  0.77061967E-03  0.76976762E-03  0.76172697E-03  0.74682899E-03  0.72545599E-03
  0.69803604E-03  0.66503739E-03  0.62696284E-03  0.58434392E-03  0.53773505E-03
  0.48770775E-03  0.43484477E-03  0.37973449E-03  0.32296534E-03  0.26512050E-03
  0.20677275E-03  0.14847969E-03  0.90779152E-04  0.34185076E-04 -0.20816376E-04
 -0.73770257E-04 -0.12425589E-03 -0.17188949E-03 -0.21632644E-03 -0.25726302E-03
 -0.29443782E-03 -0.32763265E-03 -0.35667309E-03 -0.38142858E-03 -0.40181214E-03
 -0.41777972E-03 -0.42932913E-03 -0.43649872E-03 -0.43936564E-03 -0.43804391E-03
 -0.43268212E-03 -0.42346100E-03 -0.41059068E-03 -0.39430789E-03 -0.37487286E-03
 -0.35256629E-03 -0.32768608E-03 -0.30054411E-03 -0.27146293E-03 -0.24077255E-03
 -0.20880713E-03 -0.17590191E-03 -0.14239007E-03 -0.10859980E-03 -0.74851496E-04
 -0.41455084E-04 -0.87075516E-05  0.23109337E-04  0.53731119E-04  0.82912486E-04
  0.11042891E-03  0.13607803E-03  0.15968080E-03  0.18108239E-03  0.20015284E-03
  0.21678748E-03  0.23090707E-03  0.24245780E-03  0.25141094E-03  0.25776237E-03
  0.26153186E-03  0.26276216E-03  0.26151795E-03  0.25788454E-03  0.25196654E-03
  0.24388627E-03  0.23378217E-03  0.22180705E-03  0.20812626E-03  0.19291585E-03
  0.17636064E-03  0.15865230E-03  0.13998738E-03  0.12056543E-03  0.10058709E-03
  0.80252221E-04  0.59758128E-04  0.39297862E-04  0.19058580E-04 -0.77997501E-06
 -0.20046889E-04 -0.38581371E-04 -0.56233916E-04 -0.72867336E-04 -0.88357654E-04
 -0.10259484E-03 -0.11548344E-03 -0.12694296E-03 -0.13690826E-03 -0.14532965E-03
 -0.15217290E-03 -0.15741917E-03 -0.16106469E-03 -0.16312039E-03 -0.16361143E-03
 -0.16257651E-03 -0.16006718E-03 -0.15614703E-03 -0.15089074E-03 -0.14438315E-03
 -0.13671816E-03 -0.12799765E-03 -0.11833037E-03 -0.10783071E-03 -0.96617556E-04
 -0.84813078E-04 -0.72541523E-04 -0.59928046E-04 -0.47097548E-04 -0.34173552E-04
 -0.21277123E-04 -0.85258348E-05  0.39671979E-05  0.16094227E-04  0.27753703E-04
  0.38851030E-04  0.49299235E-04  0.59019559E-04  0.67941949E-04  0.76005461E-04
  0.83158581E-04  0.89359432E-04  0.94575911E-04  0.98785719E-04  0.10197631E-03
  0.10414474E-03  0.10529748E-03  0.10545005E-03  0.10462672E-03  0.10285999E-03
  0.10019016E-03  0.96664685E-04  0.92337639E-04  0.87268999E-04  0.81523978E-04
  0.75172294E-04  0.68287429E-04  0.60945862E-04  0.53226305E-04  0.45208935E-04
  0.36974626E-04  0.28604204E-04  0.20177715E-04  0.11773718E-04  0.34686129E-05
 -0.46639975E-05 -0.12553906E-04 -0.20134850E-04 -0.27345017E-04 -0.34127492E-04
 -0.40430652E-04 -0.46208505E-04 -0.51420966E-04 -0.56034079E-04 -0.60020167E-04
 -0.63357941E-04 -0.66032524E-04 -0.68035443E-04 -0.69364538E-04 -0.70023841E-04
 -0.70023378E-04 -0.69378944E-04 -0.68111816E-04 -0.66248428E-04 -0.63820013E-04
 -0.60862199E-04 -0.57414588E-04 -0.53520300E-04 -0.49225496E-04 -0.44578894E-04
 -0.39631264E-04 -0.34434919E-04 -0.29043206E-04 -0.23510002E-04 -0.17889207E-04
 -0.12234262E-04 -0.65976715E-05 -0.10305518E-05  0.44177992E-05  0.97003070E-05
  0.14772495E-04  0.19592825E-04  0.24123011E-04  0.28328283E-04  0.32177627E-04
  0.35643977E-04  0.38704371E-04  0.41340063E-04  0.43536597E-04  0.45283843E-04
  0.46575986E-04  0.47411484E-04  0.47792981E-04  0.47727196E-04  0.47224761E-04
  0.46300044E-04  0.44970931E-04  0.43258587E-04  0.41187187E-04  0.38783637E-04
  0.36077263E-04  0.33099495E-04  0.29883534E-04  0.26464013E-04  0.22876651E-04
  0.19157907E-04  0.15344633E-04  0.11473730E-04  0.75818153E-05  0.37048956E-05
 -0.12194474E-06 -0.38648418E-05 -0.74914318E-05 -0.10971111E-04 -0.14275276E-04
 -0.17377538E-04 -0.20253914E-04 -0.22882990E-04 -0.25246066E-04 -0.27327259E-04
 -0.29113589E-04 -0.30595038E-04 -0.31764572E-04 -0.32618143E-04 -0.33154663E-04
 -0.33375949E-04 -0.33286645E-04 -0.32894122E-04 -0.32208351E-04 -0.31241758E-04
 -0.30009064E-04 -0.28527094E-04 -0.26814592E-04 -0.24892001E-04 -0.22781249E-04
 -0.20505515E-04 -0.18088997E-04 -0.15556668E-04 -0.12934036E-04 -0.10246901E-04
 -0.75211163E-05 -0.47823519E-05 -0.20558670E-05  0.63371058E-06  0.32625944E-05
  0.58080374E-05  0.82485167E-05  0.10563903E-04  0.12735615E-04  0.14746756E-04
  0.16582231E-04  0.18228849E-04  0.19675403E-04  0.20912729E-04  0.21933751E-04
  0.22733503E-04  0.23309128E-04  0.23659863E-04  0.23787005E-04  0.23693857E-04
  0.23385658E-04  0.22869498E-04  0.22154213E-04  0.21250276E-04  0.20169664E-04
  0.18925724E-04  0.17533022E-04  0.16007189E-04  0.14364759E-04  0.12622996E-04
  0.10799732E-04  0.89131881E-05  0.69818023E-05  0.50240615E-05  0.30583303E-05
  0.11026886E-05 -0.82522741E-06 -0.27083759E-05 -0.45304520E-05 -0.62760216E-05
 -0.79306439E-05 -0.94809831E-05 -0.10914908E-04 -0.12221577E-04 -0.13391515E-04
 -0.14416670E-04 -0.15290458E-04 -0.16007799E-04 -0.16565128E-04 -0.16960404E-04
 -0.17193097E-04 -0.17264163E-04 -0.17176009E-04 -0.16932443E-04 -0.16538612E-04
 -0.16000933E-04 -0.15327008E-04 -0.14525534E-04 -0.13606202E-04 -0.12579595E-04
 -0.11457071E-04 -0.10250647E-04 -0.89728783E-05 -0.76367349E-05 -0.62554759E-05
 -0.48425240E-05 -0.34113413E-05 -0.19753062E-05 -0.54759433E-06  0.85893743E-06
  0.22318613E-05  0.35592831E-05  0.48299406E-05  0.60332934E-05  0.71596053E-05
  0.82000178E-05  0.91466143E-05  0.99924745E-05  0.10731719E-04  0.11359544E-04
  0.11872243E-04  0.12267225E-04  0.12543013E-04  0.12699241E-04  0.12736633E-04
  0.12656982E-04  0.12463110E-04  0.12158827E-04  0.11748878E-04  0.11238880E-04
  0.10635263E-04  0.99451878E-05  0.91764770E-05  0.83375262E-05  0.74372207E-05
  0.64848454E-05  0.54899941E-05  0.44624766E-05  0.34122268E-05  0.23492096E-05
  0.12833311E-05  0.22434929E-06 -0.81821157E-06 -0.18351430E-05 -0.28176302E-05
 -0.37573251E-05 -0.46464136E-05 -0.54776773E-05 -0.62445482E-05 -0.69411571E-05
 -0.75623744E-05 -0.81038441E-05 -0.85620096E-05 -0.89341319E-05 -0.92183008E-05
 -0.94134376E-05 -0.95192905E-05 -0.95364230E-05 -0.94661944E-05 -0.93107343E-05
 -0.90729098E-05 -0.87562871E-05 -0.83650872E-05 -0.79041367E-05 -0.73788134E-05
 -0.67949889E-05 -0.61589665E-05 -0.54774168E-05 -0.47573116E-05 -0.40058550E-05
 -0.32304150E-05 -0.24384531E-05 -0.16374561E-05 -0.83486718E-06 -0.38019579E-07
  0.74592811E-06  0.15100538E-05  0.22477308E-05  0.29526825E-05  0.36190340E-05
  0.42413581E-05  0.48147173E-05  0.53347003E-05  0.57974534E-05  0.61997061E-05
  0.65387908E-05  0.68126577E-05  0.70198824E-05  0.71596693E-05  0.72318479E-05
  0.72368644E-05  0.71757676E-05  0.70501893E-05  0.68623204E-05  0.66148814E-05
  0.63110897E-05  0.59546223E-05  0.55495746E-05  0.51004171E-05  0.46119484E-05
  0.40892467E-05  0.35376193E-05  0.29625508E-05  0.23696503E-05  0.17645992E-05
  0.11530978E-05  0.54081420E-06 -0.66667110E-07 -0.66389428E-06 -0.12455954E-05
 -0.18067233E-05 -0.23424978E-05 -0.28484448E-05 -0.33204317E-05 -0.37546996E-05
 -0.41478916E-05 -0.44970764E-05 -0.47997686E-05 -0.50539439E-05 -0.52580502E-05
 -0.54110144E-05 -0.55122444E-05 -0.55616272E-05 -0.55595221E-05 -0.55067501E-05
 -0.54045797E-05 -0.52547077E-05 -0.50592379E-05 -0.48206552E-05 -0.45417974E-05
 -0.42258240E-05 -0.38761825E-05 -0.34965730E-05 -0.30909104E-05 -0.26632859E-05
 -0.22179271E-05 -0.17591578E-05 -0.12913569E-05 -0.81891857E-06 -0.34621164E-06
  0.12245932E-06  0.58289204E-06  0.10310231E-05  0.14629626E-05  0.18750266E-05
  0.22637677E-05  0.26260023E-05  0.29588359E-05  0.32596842E-05  0.35262925E-05
  0.37567511E-05  0.39495069E-05  0.41033725E-05  0.42175314E-05  0.42915398E-05
  0.43253249E-05  0.43191801E-05  0.42737570E-05  0.41900539E-05  0.40694018E-05
  0.39134472E-05  0.37241324E-05  0.35036740E-05  0.32545382E-05  0.29794151E-05
  0.26811907E-05  0.23629183E-05  0.20277880E-05  0.16790958E-05  0.13202126E-05
  0.95455190E-06  0.58553885E-06  0.21657874E-06 -0.14897350E-06 -0.50784290E-06
 -0.85686302E-06 -0.11930030E-05 -0.15133930E-05 -0.18153479E-05 -0.20963890E-05
 -0.23542634E-05 -0.25869610E-05 -0.27927295E-05 -0.29700862E-05 -0.31178279E-05
 -0.32350372E-05 -0.33210875E-05 -0.33756436E-05 -0.33986612E-05 -0.33903830E-05
 -0.33513320E-05 -0.32823031E-05 -0.31843521E-05 -0.30587820E-05 -0.29071280E-05
 -0.27311401E-05 -0.25327645E-05 -0.23141225E-05 -0.20774897E-05 -0.18252724E-05
 -0.15599845E-05 -0.12842227E-05 -0.10006423E-05 -0.71193211E-06 -0.42078952E-06
 -0.12989607E-06  0.15810666E-06  0.44064042E-06  0.71521272E-06  0.97943826E-06
  0.12310590E-05  0.14679629E-05  0.16882009E-05  0.18900023E-05  0.20717886E-05
  0.22321846E-05  0.23700287E-05  0.24843797E-05  0.25745229E-05  0.26399731E-05
  0.26804761E-05  0.26960073E-05  0.26867693E-05  0.26531867E-05  0.25958992E-05
  0.25157527E-05  0.24137890E-05  0.22912339E-05  0.21494829E-05  0.19900869E-05
  0.18147357E-05  0.16252407E-05  0.14235172E-05  0.12115653E-05  0.99145074E-06
  0.76528530E-06  0.53520705E-06  0.30336059E-06  0.71877567E-07 -0.15714249E-06
 -0.38165074E-06 -0.59966691E-06 -0.80929631E-06 -0.10087459E-05 -0.11963390E-05
 -0.13705291E-05 -0.15299122E-05 -0.16732372E-05 -0.17994156E-05 -0.19075291E-05
 -0.19968355E-05 -0.20667732E-05 -0.21169640E-05 -0.21472137E-05 -0.21575117E-05
 -0.21480287E-05 -0.21191127E-05 -0.20712832E-05 -0.20052247E-05 -0.19217781E-05
 -0.18219308E-05 -0.17068062E-05 -0.15776516E-05 -0.14358251E-05 -0.12827819E-05
 -0.11200602E-05 -0.94926557E-06 -0.77205602E-06 -0.59012603E-06 -0.40519082E-06
 -0.21897051E-06 -0.33174453E-07  0.15051405E-06  0.33045274E-06  0.50505467E-06
  0.67280192E-06  0.83225845E-06  0.98208202E-06  0.11210352E-05  0.12479950E-05
  0.13619620E-05  0.14620675E-05  0.15475796E-05  0.16179084E-05  0.16726093E-05
  0.17113852E-05  0.17340875E-05  0.17407150E-05  0.17314127E-05  0.17064683E-05
  0.16663076E-05  0.16114891E-05  0.15426974E-05  0.14607349E-05  0.13665136E-05
  0.12610450E-05  0.11454300E-05  0.10208475E-05  0.88854302E-06  0.74981624E-06
  0.60600889E-06  0.45849183E-06  0.30865235E-06  0.15788138E-06  0.75608231E-08
 -0.14094884E-06 -0.28632059E-06 -0.42727251E-06 -0.56257882E-06 -0.69108026E-06
 -0.81169381E-06 -0.92342149E-06 -0.10253584E-05 -0.11166998E-05 -0.11967469E-05
 -0.12649123E-05 -0.13207236E-05 -0.13638263E-05 -0.13939857E-05 -0.14110874E-05
 -0.14151369E-05 -0.14062581E-05 -0.13846907E-05 -0.13507865E-05 -0.13050051E-05
 -0.12479080E-05 -0.11801527E-05 -0.11024853E-05 -0.10157327E-05 -0.92079413E-06
 -0.81863208E-06 -0.71026293E-06 -0.59674695E-06 -0.47917824E-06 -0.35867435E-06
 -0.23636589E-06 -0.11338613E-06  0.91392818E-08  0.13010248E-06  0.24842316E-06
  0.36305805E-06  0.47300992E-06  0.57733604E-06  0.67515610E-06  0.76565941E-06
  0.84811142E-06  0.92185946E-06  0.98633766E-06  0.10410711E-05  0.10856788E-05
  0.11198764E-05  0.11434773E-05  0.11563934E-05  0.11586345E-05  0.11503071E-05
  0.11316124E-05  0.11028433E-05  0.10643807E-05  0.10166887E-05  0.96030997E-06
  0.89585932E-06  0.82401766E-06  0.74552492E-06  0.66117263E-06  0.57179618E-06
 atomic pseudo charge-density
  0.60000000E+01  0.59866607E+01  0.59468313E+01  0.58810730E+01  0.57903027E+01
  0.56757674E+01  0.55390090E+01  0.53818231E+01  0.52062125E+01  0.50143371E+01
  0.48084639E+01  0.45909168E+01  0.43640303E+01  0.41301058E+01  0.38913738E+01
  0.36499612E+01  0.34078646E+01  0.31669300E+01  0.29288375E+01  0.26950927E+01
  0.24670215E+01  0.22457705E+01  0.20323097E+01  0.18274396E+01  0.16317994E+01
  0.14458775E+01  0.12700231E+01  0.11044583E+01  0.94929089E+00  0.80452673E+00
  0.67008224E+00  0.54579618E+00  0.43144090E+00  0.32673291E+00  0.23134264E+00
  0.14490341E+00  0.67019572E-01 -0.27260978E-02 -0.64765886E-01 -0.11954129E+00
 -0.16749793E+00 -0.20908108E+00 -0.24473184E+00 -0.27488388E+00 -0.29996067E+00
 -0.32037323E+00 -0.33651824E+00 -0.34877663E+00 -0.35751238E+00 -0.36307179E+00
 -0.36578283E+00 -0.36595492E+00 -0.36387876E+00 -0.35982639E+00 -0.35405148E+00
 -0.34678961E+00 -0.33825875E+00 -0.32865979E+00 -0.31817719E+00 -0.30697960E+00
 -0.29522061E+00 -0.28303946E+00 -0.27056181E+00 -0.25790051E+00 -0.24515634E+00
 -0.23241881E+00 -0.21976688E+00 -0.20726973E+00 -0.19498740E+00 -0.18297155E+00
 -0.17126612E+00 -0.15990789E+00 -0.14892719E+00 -0.13834840E+00 -0.12819052E+00
 -0.11846768E+00 -0.10918964E+00 -0.10036224E+00 -0.91987792E-01 -0.84065518E-01
 -0.76591899E-01 -0.69561017E-01 -0.62964871E-01 -0.56793672E-01 -0.51036108E-01
 -0.45679588E-01 -0.40710471E-01 -0.36114267E-01 -0.31875823E-01 -0.27979493E-01
 -0.24409291E-01 -0.21149022E-01 -0.18182411E-01 -0.15493207E-01 -0.13065279E-01
 -0.10882702E-01 -0.89298327E-02 -0.71913679E-02 -0.56524043E-02 -0.42984821E-02
 -0.31156244E-02 -0.20903688E-02 -0.12097922E-02 -0.46153001E-03  0.16620970E-03
  0.68463743E-03  0.11043773E-02  0.14354665E-02  0.16873575E-02  0.18689242E-02
  0.19884702E-02  0.20537395E-02  0.20719300E-02  0.20497074E-02  0.19932222E-02
  0.19081267E-02  0.17995941E-02  0.16723373E-02  0.15306297E-02  0.13783252E-02
  0.12188794E-02  0.10553705E-02  0.89052089E-03  0.72671742E-03  0.56603296E-03
  0.41024673E-03  0.26086463E-03  0.11913908E-03 -0.13911673E-04 -0.13748468E-03
 -0.25097412E-03 -0.35395372E-03 -0.44615986E-03 -0.52747532E-03 -0.59791384E-03
 -0.65760532E-03 -0.70678182E-03 -0.74576430E-03 -0.77495012E-03 -0.79480126E-03
 -0.80583333E-03 -0.80860530E-03 -0.80370994E-03 -0.79176504E-03 -0.77340525E-03
 -0.74927466E-03 -0.72002000E-03 -0.68628453E-03 -0.64870254E-03 -0.60789439E-03
 -0.56446220E-03 -0.51898605E-03 -0.47202069E-03 -0.42409280E-03 -0.37569864E-03
 -0.32730223E-03 -0.27933385E-03 -0.23218904E-03 -0.18622788E-03 -0.14177462E-03
 -0.99117644E-04 -0.58509729E-04 -0.20168515E-04  0.15722741E-04  0.49014228E-04
  0.79588439E-04  0.10735887E-03  0.13226858E-03  0.15428861E-03  0.17341631E-03
  0.18967363E-03  0.20310520E-03  0.21377656E-03  0.22177221E-03  0.22719367E-03
  0.23015764E-03  0.23079398E-03  0.22924393E-03  0.22565820E-03  0.22019518E-03
  0.21301922E-03  0.20429892E-03  0.19420551E-03  0.18291138E-03  0.17058857E-03
  0.15740745E-03  0.14353545E-03  0.12913589E-03  0.11436694E-03  0.99380637E-04
  0.84322021E-04  0.69328392E-04  0.54528645E-04  0.40042719E-04  0.25981138E-04
  0.12444652E-04 -0.47602522E-06 -0.12700392E-04 -0.24158247E-04 -0.34789691E-04
 -0.44545051E-04 -0.53384736E-04 -0.61279012E-04 -0.68207725E-04 -0.74159957E-04
 -0.79133632E-04 -0.83135078E-04 -0.86178535E-04 -0.88285643E-04 -0.89484887E-04
 -0.89811018E-04 -0.89304462E-04 -0.88010703E-04 -0.85979668E-04 -0.83265098E-04
 -0.79923925E-04 -0.76015656E-04 -0.71601757E-04 -0.66745063E-04 -0.61509194E-04
 -0.55958002E-04 -0.50155030E-04 -0.44163012E-04 -0.38043393E-04 -0.31855880E-04
 -0.25658036E-04 -0.19504899E-04 -0.13448644E-04 -0.75382824E-05 -0.18193958E-05
  0.36660875E-05  0.88800782E-05  0.13788474E-04  0.18361270E-04  0.22572627E-04
  0.26400913E-04  0.29828698E-04  0.32842724E-04  0.35433839E-04  0.37596902E-04
  0.39330657E-04  0.40637587E-04  0.41523734E-04  0.41998510E-04  0.42074475E-04
  0.41767112E-04  0.41094573E-04  0.40077426E-04  0.38738386E-04  0.37102037E-04
  0.35194559E-04  0.33043437E-04  0.30677187E-04  0.28125076E-04  0.25416843E-04
  0.22582433E-04  0.19651740E-04  0.16654351E-04  0.13619313E-04  0.10574907E-04
  0.75484360E-05  0.45660319E-05  0.16524776E-05 -0.11689537E-05 -0.38766406E-05
 -0.64507368E-05 -0.88732753E-05 -0.11128254E-04 -0.13201699E-04 -0.15081717E-04
 -0.16758516E-04 -0.18224420E-04 -0.19473857E-04 -0.20503335E-04 -0.21311400E-04
 -0.21898577E-04 -0.22267298E-04 -0.22421816E-04 -0.22368108E-04 -0.22113763E-04
 -0.21667867E-04 -0.21040869E-04 -0.20244453E-04 -0.19291390E-04 -0.18195398E-04
 -0.16970991E-04 -0.15633325E-04 -0.14198055E-04 -0.12681176E-04 -0.11098877E-04
 -0.94673986E-05 -0.78028862E-05 -0.61212578E-05 -0.44380721E-05 -0.27684063E-05
 -0.11267404E-05  0.47314848E-06  0.20182839E-05  0.34965771E-05  0.48969044E-05
  0.62091735E-05  0.74243796E-05  0.85346503E-05  0.95332792E-05  0.10414749E-04
  0.11174743E-04  0.11810148E-04  0.12319043E-04  0.12700683E-04  0.12955469E-04
  0.13084910E-04  0.13091581E-04  0.12979064E-04  0.12751890E-04  0.12415474E-04
  0.11976038E-04  0.11440536E-04  0.10816572E-04  0.10112315E-04  0.93364084E-05
  0.84978868E-05  0.76060808E-05  0.66705291E-05  0.57008887E-05  0.47068470E-05
  0.36980360E-05  0.26839493E-05  0.16738627E-05  0.67675845E-06 -0.29874504E-06
 -0.12444595E-05 -0.21526867E-05 -0.30162733E-05 -0.38286585E-05 -0.45839162E-05
 -0.52767900E-05 -0.59027216E-05 -0.64578724E-05 -0.69391382E-05 -0.73441571E-05
 -0.76713107E-05 -0.79197189E-05 -0.80892286E-05 -0.81803953E-05 -0.81944606E-05
 -0.81333228E-05 -0.79995036E-05 -0.77961093E-05 -0.75267886E-05 -0.71956861E-05
 -0.68073933E-05 -0.63668963E-05 -0.58795215E-05 -0.53508801E-05 -0.47868109E-05
 -0.41933227E-05 -0.35765369E-05 -0.29426301E-05 -0.22977781E-05 -0.16481007E-05
 -0.99960906E-06 -0.35815451E-06  0.27061936E-06  0.88132194E-06  0.14688574E-05
  0.20284631E-05  0.25557436E-05  0.30467012E-05  0.34977621E-05  0.39057981E-05
  0.42681435E-05  0.45826083E-05  0.48474864E-05  0.50615588E-05  0.52240940E-05
  0.53348421E-05  0.53940263E-05  0.54023296E-05  0.53608779E-05  0.52712199E-05
  0.51353032E-05  0.49554478E-05  0.47343163E-05  0.44748829E-05  0.41803990E-05
  0.38543579E-05  0.35004581E-05  0.31225653E-05  0.27246740E-05  0.23108687E-05
  0.18852853E-05  0.14520727E-05  0.10153552E-05  0.57919619E-06  0.14756291E-06
 -0.27570718E-06 -0.68693793E-06 -0.10826440E-05 -0.14595582E-05 -0.18146557E-05
 -0.21451763E-05 -0.24486434E-05 -0.27228802E-05 -0.29660225E-05 -0.31765292E-05
 -0.33531888E-05 -0.34951233E-05 -0.36017893E-05 -0.36729753E-05 -0.37087965E-05
 -0.37096873E-05 -0.36763900E-05 -0.36099420E-05 -0.35116600E-05 -0.33831222E-05
 -0.32261487E-05 -0.30427796E-05 -0.28352524E-05 -0.26059777E-05 -0.23575131E-05
 -0.20925378E-05 -0.18138254E-05 -0.15242171E-05 -0.12265943E-05 -0.92385187E-06
 -0.61887178E-06 -0.31449700E-06 -0.13506672E-07  0.28140778E-06  0.56766528E-06
  0.84281625E-06  0.11045622E-05  0.13507735E-05  0.15795052E-05  0.17890114E-05
  0.19777564E-05  0.21444252E-05  0.22879305E-05  0.24074183E-05  0.25022710E-05
  0.25721084E-05  0.26167864E-05  0.26363935E-05  0.26312458E-05  0.26018795E-05
  0.25490417E-05  0.24736794E-05  0.23769274E-05  0.22600936E-05  0.21246448E-05
  0.19721892E-05  0.18044599E-05  0.16232961E-05  0.14306247E-05  0.12284410E-05
  0.10187892E-05  0.80374261E-06  0.58538464E-06  0.36578930E-06  0.14700260E-06
 -0.68975656E-07 -0.28020916E-06 -0.48484161E-06 -0.68111216E-06 -0.86736967E-06
 -0.10420857E-05 -0.12038664E-05 -0.13514624E-05 -0.14837777E-05 -0.15998769E-05
 -0.16989908E-05 -0.17805202E-05 -0.18440385E-05 -0.18892921E-05 -0.19162001E-05
 -0.19248512E-05 -0.19155003E-05 -0.18885632E-05 -0.18446094E-05 -0.17843547E-05
 -0.17086514E-05 -0.16184787E-05 -0.15149311E-05 -0.13992061E-05 -0.12725920E-05
 -0.11364540E-05 -0.99222040E-06 -0.84136857E-06 -0.68541048E-06 -0.52587816E-06
 -0.36430942E-06 -0.20223356E-06 -0.41157596E-07  0.11744724E-06  0.27215831E-06
  0.42161379E-06  0.56452407E-06  0.69968236E-06  0.82597429E-06  0.94238657E-06
  0.10480145E-05  0.11420684E-05  0.12238788E-05  0.12929009E-05  0.13487169E-05
  0.13910378E-05  0.14197043E-05  0.14346854E-05  0.14360770E-05  0.14240987E-05
  0.13990894E-05  0.13615028E-05  0.13119007E-05  0.12509463E-05  0.11793963E-05
  0.10980925E-05  0.10079526E-05  0.90996024E-06  0.80515535E-06  0.69462316E-06
  0.57948374E-06  0.46088106E-06  0.33997203E-06  0.21791570E-06  0.95862513E-07
 -0.25056126E-07 -0.14373794E-06 -0.25911947E-06 -0.37018521E-06 -0.47597620E-06
 -0.57559789E-06 -0.66822740E-06 -0.75311986E-06 -0.82961407E-06 -0.89713719E-06
 -0.95520863E-06 -0.10034429E-05 -0.10415519E-05 -0.10693456E-05 -0.10867324E-05
 -0.10937188E-05 -0.10904070E-05 -0.10769930E-05 -0.10537631E-05 -0.10210900E-05
 -0.97942773E-06 -0.92930629E-06 -0.87132562E-06 -0.80614889E-06 -0.73449542E-06
 -0.65713314E-06 -0.57487073E-06 -0.48854957E-06 -0.39903539E-06 -0.30720997E-06
 -0.21396268E-06 -0.12018220E-06 -0.26748302E-07  0.65476124E-07  0.15565279E-06
  0.24297538E-06  0.32667647E-06  0.40603408E-06  0.48037757E-06  0.54909314E-06
  0.61162853E-06  0.66749729E-06  0.71628217E-06  0.75763802E-06  0.79129380E-06
  0.81705402E-06  0.83479937E-06  0.84448670E-06  0.84614823E-06  0.83989015E-06
  0.82589052E-06  0.80439653E-06  0.77572117E-06  0.74023939E-06  0.69838365E-06
  0.65063910E-06  0.59753829E-06  0.53965553E-06  0.47760099E-06  0.41201447E-06
  0.34355906E-06  0.27291468E-06  0.20077148E-06  0.12782337E-06  0.54761493E-07
 -0.17732142E-07 -0.88990810E-07 -0.15836904E-06 -0.22524830E-06 -0.28904229E-06
 -0.34920194E-06 -0.40521998E-06 -0.45663495E-06 -0.50303491E-06 -0.54406047E-06
 -0.57940740E-06 -0.60882866E-06 -0.63213581E-06 -0.64920000E-06 -0.65995223E-06
 -0.66438320E-06 -0.66254248E-06 -0.65453726E-06 -0.64053049E-06 -0.62073863E-06
 -0.59542883E-06 -0.56491574E-06 -0.52955795E-06 -0.48975402E-06 -0.44593820E-06
 -0.39857593E-06 -0.34815906E-06 -0.29520092E-06 -0.24023125E-06 -0.18379107E-06
 -0.12642746E-06 -0.68688463E-07 -0.11117910E-07  0.45749520E-07  0.10139316E-06
  0.15531098E-06  0.20702400E-06  0.25608043E-06  0.30205945E-06  0.34457475E-06
  0.38327759E-06  0.41785954E-06  0.44805479E-06  0.47364205E-06  0.49444597E-06
  0.51033816E-06  0.52123772E-06  0.52711137E-06  0.52797307E-06  0.52388331E-06
  0.51494784E-06  0.50131614E-06  0.48317938E-06  0.46076813E-06  0.43434965E-06
  0.40422491E-06  0.37072538E-06  0.33420946E-06  0.29505886E-06  0.25367470E-06
  0.21047354E-06  0.16588327E-06  0.12033901E-06  0.74278928E-07  0.28140182E-07
 -0.17645186E-07 -0.62654178E-07 -0.10647666E-06 -0.14871899E-06 -0.18900751E-06
 -0.22699169E-06 -0.26234715E-06 -0.29477829E-06 -0.32402068E-06 -0.34984311E-06
 -0.37204929E-06 -0.39047926E-06 -0.40501035E-06 -0.41555788E-06 -0.42207543E-06
 -0.42455476E-06 -0.42302545E-06 -0.41755404E-06 -0.40824301E-06 -0.39522933E-06
 -0.37868274E-06 -0.35880374E-06 -0.33582133E-06 -0.30999052E-06 -0.28158961E-06
 -0.25091729E-06 -0.21828961E-06 -0.18403683E-06 -0.14850012E-06 -0.11202827E-06
 -0.74974337E-07 -0.37692301E-07 -0.53375697E-09  0.36155333E-07  0.72037790E-07
  0.10678825E-06  0.14009605E-06  0.17166794E-06  0.20123056E-06  0.22853281E-06
  0.25334784E-06  0.27547489E-06  0.29474083E-06  0.31100143E-06  0.32414234E-06
  0.33407979E-06  0.34076096E-06  0.34416412E-06  0.34429843E-06  0.34120347E-06
  0.33494849E-06  0.32563142E-06  0.31337754E-06  0.29833805E-06  0.28068829E-06
  0.26062581E-06  0.23836827E-06  0.21415114E-06  0.18822532E-06  0.16085457E-06
  0.13231290E-06  0.10288190E-06  0.72848039E-07  0.42499872E-07  0.12125379E-07
 -0.17990740E-07 -0.47569679E-07 -0.76341054E-07 -0.10404533E-06 -0.13043609E-06
 -0.15528221E-06 -0.17836980E-06 -0.19950401E-06 -0.21851062E-06 -0.23523739E-06
 -0.24955525E-06 -0.26135921E-06 -0.27056905E-06 -0.27712977E-06 -0.28101180E-06
 -0.28221098E-06 -0.28074829E-06 -0.27666935E-06 -0.27004369E-06 -0.26096385E-06
 -0.24954419E-06 -0.23591962E-06 -0.22024403E-06 -0.20268870E-06 -0.18344044E-06
 -0.16269967E-06 -0.14067841E-06 -0.11759814E-06 -0.93687620E-07 -0.69180696E-07
 -0.44314019E-07 -0.19324819E-07  0.55513190E-08  0.30082636E-07  0.54043321E-07
  0.77215552E-07  0.99391435E-07  0.12037483E-06  0.13998304E-06  0.15804840E-06
  0.17441958E-06  0.18896293E-06  0.20156341E-06  0.21212553E-06  0.22057396E-06
  0.22685404E-06  0.23093203E-06  0.23279519E-06  0.23245167E-06  0.22993015E-06
  0.22527939E-06  0.21856751E-06  0.20988115E-06  0.19932442E-06  0.18701774E-06
  0.17309656E-06  0.15770987E-06  0.14101868E-06  0.12319437E-06  0.10441699E-06
  0.84873451E-07  0.64755700E-07  0.44258891E-07  0.23579509E-07  0.29135155E-08
 -0.17545470E-07 -0.37607958E-07 -0.57090316E-07 -0.75816415E-07 -0.93619197E-07
 -0.11034213E-06 -0.12584056E-06 -0.13998293E-06 -0.15265184E-06 -0.16374504E-06
 -0.17317615E-06 -0.18087535E-06 -0.18678981E-06 -0.19088401E-06 -0.19313987E-06
 -0.19355673E-06 -0.19215119E-06 -0.18895669E-06 -0.18402310E-06 -0.17741600E-06
 -0.16921594E-06 -0.15951747E-06 -0.14842818E-06 -0.13606745E-06 -0.12256528E-06
 -0.10806094E-06 -0.92701530E-07 -0.76640554E-07 -0.60036403E-07 -0.43050813E-07
 -0.25847322E-07 -0.85897160E-08  0.85595063E-08  0.25440639E-07  0.41898235E-07
  0.57782512E-07  0.72950696E-07  0.87268277E-07  0.10061018E-06  0.11286184E-06
  0.12392015E-06  0.13369430E-06  0.14210651E-06  0.14909259E-06  0.15460244E-06
  0.15860031E-06  0.16106502E-06  0.16198997E-06  0.16138310E-06  0.15926659E-06
  0.15567653E-06  0.15066246E-06  0.14428671E-06  0.13662372E-06  0.12775919E-06
  0.11778917E-06  0.10681904E-06  0.94962444E-07  0.82340104E-07  0.69078642E-07
  0.55309323E-07  0.41166774E-07  0.26787691E-07  0.12309535E-07 -0.21307623E-08
 -0.16398074E-07 -0.30360327E-07 -0.43889705E-07 -0.56863799E-07 -0.69166698E-07
 -0.80690008E-07 -0.91333784E-07 -0.10100738E-06 -0.10963019E-06 -0.11713233E-06
 -0.12345512E-06 -0.12855159E-06 -0.13238674E-06 -0.13493776E-06 -0.13619412E-06
 -0.13615756E-06 -0.13484188E-06 -0.13227278E-06 -0.12848741E-06 -0.12353396E-06
 -0.11747106E-06 -0.11036713E-06 -0.10229965E-06 -0.93354349E-07 -0.83624270E-07
 -0.73208872E-07 -0.62213008E-07 -0.50745895E-07 -0.38920043E-07 -0.26850164E-07
 -0.14652085E-07 -0.24416384E-08  0.96664127E-08  0.21559444E-07  0.33128003E-07
  0.44266799E-07  0.54875651E-07  0.64860370E-07  0.74133584E-07  0.82615486E-07
  0.90234504E-07  0.96927886E-07  0.10264220E-06  0.10733375E-06  0.11096887E-06
  0.11352413E-06  0.11498650E-06  0.11535330E-06  0.11463218E-06  0.11284090E-06
  0.11000708E-06  0.10616787E-06  0.10136944E-06  0.95666501E-07  0.89121718E-07
  0.81805008E-07  0.73792831E-07  0.65167403E-07  0.56015870E-07  0.46429441E-07
  0.36502490E-07  0.26331646E-07  0.16014855E-07  0.56504587E-08 -0.46637376E-08
 -0.14831374E-07 -0.24758426E-07 -0.34354062E-07 -0.43531461E-07 -0.52208592E-07
 -0.60308928E-07 -0.67762118E-07 -0.74504575E-07 -0.80480013E-07 -0.85639900E-07
 -0.89943834E-07 -0.93359845E-07 -0.95864608E-07 -0.97443581E-07 -0.98091049E-07
 -0.97810095E-07 -0.96612484E-07 -0.94518464E-07 -0.91556497E-07 -0.87762910E-07
 -0.83181477E-07 -0.77862934E-07 -0.71864438E-07 -0.65248969E-07 -0.58084679E-07
 -0.50444203E-07 -0.42403939E-07 -0.34043290E-07 -0.25443892E-07 -0.16688827E-07
 -0.78618317E-08  0.95349791E-09  0.96744849E-08  0.18220139E-07  0.26511902E-07
  0.34474354E-07  0.42035898E-07  0.49129389E-07  0.55692724E-07  0.61669369E-07
  0.67008846E-07  0.71667135E-07  0.75607037E-07  0.78798449E-07  0.81218578E-07
  0.82852091E-07  0.83691180E-07  0.83735568E-07  0.82992435E-07  0.81476285E-07
  0.79208735E-07  0.76218247E-07  0.72539795E-07  0.68214474E-07  0.63289060E-07
  0.57815513E-07  0.51850445E-07  0.45454541E-07  0.38691952E-07  0.31629665E-07
  0.24336843E-07  0.16884157E-07  0.93431126E-08  0.17853670E-08 -0.57179411E-08
 -0.13096855E-07 -0.20283243E-07 -0.27211424E-07 -0.33818756E-07 -0.40046196E-07
 -0.45838821E-07 -0.51146304E-07 -0.55923343E-07 -0.60130036E-07 -0.63732210E-07
 -0.66701681E-07 -0.69016469E-07 -0.70660941E-07 -0.71625903E-07 -0.71908621E-07
 -0.71512791E-07 -0.70448443E-07 -0.68731786E-07 -0.66385001E-07 -0.63435977E-07
   16.2516435017787      T
 Non local Part
           0           2   1.24080360885718     
   13.9088076706990        15.1828324785864        15.1828324785864     
   16.5749971685762     
 Reciprocal Space Part
 -0.19595324E+03 -0.19435743E+03 -0.18959584E+03 -0.18174557E+03 -0.17093345E+03
 -0.15733378E+03 -0.14116497E+03 -0.12268554E+03 -0.10218933E+03 -0.80000057E+02
 -0.56465391E+02 -0.31950633E+02 -0.68321130E+01  0.18509530E+02  0.43696077E+02
  0.68358312E+02  0.92142342E+02  0.11471553E+03  0.13577194E+03  0.15503714E+03
  0.17227237E+03  0.18727793E+03  0.19989573E+03  0.21001107E+03  0.21755344E+03
  0.22249657E+03  0.22485758E+03  0.22469535E+03  0.22210809E+03  0.21723031E+03
  0.21022909E+03  0.20129993E+03  0.19066212E+03  0.17855388E+03  0.16522717E+03
  0.15094262E+03  0.13596430E+03  0.12055470E+03  0.10496996E+03  0.89455419E+02
  0.74241492E+02  0.59540127E+02  0.45541723E+02  0.32412652E+02  0.20293366E+02
  0.92971378E+01 -0.49059435E+00 -0.90122695E+01 -0.16237672E+02 -0.22162861E+02
 -0.26808605E+02 -0.30218389E+02 -0.32456049E+02 -0.33603113E+02 -0.33755915E+02
 -0.33022565E+02 -0.31519844E+02 -0.29370108E+02 -0.26698254E+02 -0.23628830E+02
 -0.20283345E+02 -0.16777812E+02 -0.13220597E+02 -0.97105736E+01 -0.63356405E+01
 -0.31715850E+01 -0.28132029E+00  0.22855198E+01  0.44926382E+01  0.63168057E+01
  0.77472924E+01  0.87850354E+01  0.94415785E+01  0.97378276E+01  0.97026646E+01
  0.93714658E+01  0.87845676E+01  0.79857253E+01  0.70206029E+01  0.59353338E+01
  0.47751837E+01  0.35833447E+01  0.23998843E+01  0.12608646E+01  0.19764605E+00
 -0.76362069E+00 -0.16023135E+01 -0.23034728E+01 -0.28577616E+01 -0.32612643E+01
 -0.35151424E+01 -0.36251681E+01 -0.36011574E+01 -0.34563263E+01 -0.32065968E+01
 -0.28698735E+01 -0.24653181E+01 -0.20126405E+01 -0.15314291E+01 -0.10405359E+01
 Real Space Part
  0.60043486E+03  0.60019362E+03  0.59946990E+03  0.59826380E+03  0.59657546E+03
  0.59440510E+03  0.59175302E+03  0.58861960E+03  0.58500533E+03  0.58091081E+03
  0.57633678E+03  0.57128416E+03  0.56575403E+03  0.55974770E+03  0.55326672E+03
  0.54631290E+03  0.53888839E+03  0.53099567E+03  0.52263761E+03  0.51381751E+03
  0.50453918E+03  0.49480692E+03  0.48462564E+03  0.47400087E+03  0.46293885E+03
  0.45144656E+03  0.43953180E+03  0.42720326E+03  0.41447056E+03  0.40134436E+03
  0.38783639E+03  0.37395954E+03  0.35972794E+03  0.34515704E+03  0.33026363E+03
  0.31506601E+03  0.29958397E+03  0.28383890E+03  0.26785389E+03  0.25165373E+03
  0.23526502E+03  0.21871621E+03  0.20203765E+03  0.18526161E+03  0.16842233E+03
  0.15155606E+03  0.13470098E+03  0.11789727E+03  0.10118705E+03  0.84614292E+02
  0.68224787E+02  0.52066014E+02  0.36187010E+02  0.20638206E+02  0.54712195E+01
 -0.92613786E+01 -0.23506347E+02 -0.37210095E+02 -0.50319046E+02 -0.62780044E+02
 -0.74540810E+02 -0.85550440E+02 -0.95759938E+02 -0.10512281E+03 -0.11359565E+03
 -0.12113882E+03 -0.12771711E+03 -0.13330039E+03 -0.13786432E+03 -0.14139105E+03
 -0.14386982E+03 -0.14529762E+03 -0.14567973E+03 -0.14503024E+03 -0.14337242E+03
 -0.14073906E+03 -0.13717263E+03 -0.13272532E+03 -0.12745896E+03 -0.12144473E+03
 -0.11476278E+03 -0.10750163E+03 -0.99757361E+02 -0.91632808E+02 -0.83236410E+02
 -0.74681108E+02 -0.66082982E+02 -0.57559939E+02 -0.49230230E+02 -0.41211021E+02
 -0.33616920E+02 -0.26558553E+02 -0.20141199E+02 -0.14463523E+02 -0.96163731E+01
 -0.56819619E+01 -0.27328103E+01 -0.82541580E+00 -0.45272292E-01  0.00000000E+00
 Reciprocal Space Part
  0.18660718E+03  0.18512770E+03  0.18071316E+03  0.17343478E+03  0.16340975E+03
  0.15079910E+03  0.13580466E+03  0.11866531E+03  0.99652566E+02  0.79065602E+02
  0.57225744E+02  0.34470645E+02  0.11148195E+02 -0.12389683E+02 -0.35793246E+02
 -0.58721002E+02 -0.80845556E+02 -0.10185908E+03 -0.12147833E+03 -0.13944913E+03
 -0.15555017E+03 -0.16959616E+03 -0.18144020E+03 -0.19097541E+03 -0.19813570E+03
 -0.20289583E+03 -0.20527059E+03 -0.20531334E+03 -0.20311379E+03 -0.19879516E+03
 -0.19251083E+03 -0.18444041E+03 -0.17478559E+03 -0.16376557E+03 -0.15161233E+03
 -0.13856593E+03 -0.12486969E+03 -0.11076560E+03 -0.96489876E+02 -0.82268824E+02
 -0.68315120E+02 -0.54824472E+02 -0.41972796E+02 -0.29913918E+02 -0.18777824E+02
 -0.86694861E+01  0.33174316E+00  0.81721850E+01  0.14823351E+02  0.20280963E+02
  0.24563524E+02  0.27710482E+02  0.29780064E+02  0.30846828E+02  0.30999008E+02
  0.30335730E+02  0.28964153E+02  0.26996616E+02  0.24547851E+02  0.21732316E+02
  0.18661714E+02  0.15442736E+02  0.12175071E+02  0.89497092E+01  0.58475662E+01
  0.29384393E+01  0.28029803E+00 -0.20810928E+01 -0.41122299E+01 -0.57916279E+01
 -0.71093005E+01 -0.80659969E+01 -0.86722299E+01 -0.89471324E+01 -0.89171849E+01
 -0.86148526E+01 -0.80771758E+01 -0.73443520E+01 -0.64583468E+01 -0.54615695E+01
 -0.43956425E+01 -0.33002913E+01 -0.22123761E+01 -0.11650811E+01 -0.18727215E+00
  0.69697185E+00  0.14686534E+01  0.21139814E+01  0.26243350E+01  0.29960802E+01
  0.32302540E+01  0.33321364E+01  0.33107294E+01  0.31781658E+01  0.29490707E+01
  0.26398970E+01  0.22682576E+01  0.18522737E+01  0.14099583E+01  0.95865070E+00
 Real Space Part
 -0.54738786E+03 -0.54716717E+03 -0.54650509E+03 -0.54540171E+03 -0.54385716E+03
 -0.54187165E+03 -0.53944542E+03 -0.53657884E+03 -0.53327233E+03 -0.52952644E+03
 -0.52534185E+03 -0.52071938E+03 -0.51566002E+03 -0.51016494E+03 -0.50423556E+03
 -0.49787354E+03 -0.49108081E+03 -0.48385964E+03 -0.47621266E+03 -0.46814287E+03
 -0.45965373E+03 -0.45074920E+03 -0.44143375E+03 -0.43171243E+03 -0.42159096E+03
 -0.41107571E+03 -0.40017383E+03 -0.38889326E+03 -0.37724283E+03 -0.36523228E+03
 -0.35287236E+03 -0.34017489E+03 -0.32715281E+03 -0.31382026E+03 -0.30019267E+03
 -0.28628678E+03 -0.27212075E+03 -0.25771420E+03 -0.24308827E+03 -0.22826572E+03
 -0.21327095E+03 -0.19813003E+03 -0.18287081E+03 -0.16752289E+03 -0.15211768E+03
 -0.13668841E+03 -0.12127014E+03 -0.10589971E+03 -0.90615761E+02 -0.75458633E+02
 -0.60470332E+02 -0.45694416E+02 -0.31175867E+02 -0.16960950E+02 -0.30970139E+01
  0.10367719E+02  0.23384414E+02  0.35903918E+02  0.47877093E+02  0.59255194E+02
  0.69990283E+02  0.80035687E+02  0.89346494E+02  0.97880083E+02  0.10559669E+03
  0.11246001E+03  0.11843779E+03  0.12350248E+03  0.12763181E+03  0.13080951E+03
  0.13302580E+03  0.13427803E+03  0.13457117E+03  0.13391827E+03  0.13234082E+03
  0.12986904E+03  0.12654205E+03  0.12240789E+03  0.11752346E+03  0.11195422E+03
  0.10577387E+03  0.99063799E+02  0.91912325E+02  0.84413959E+02  0.76668348E+02
  0.68779263E+02  0.60853348E+02  0.52998909E+02  0.45324558E+02  0.37937895E+02
  0.30944160E+02  0.24444921E+02  0.18536824E+02  0.13310427E+02  0.88490996E+01
  0.52282671E+01  0.25144456E+01  0.75941794E+00  0.41646290E-01  0.00000000E+00
 Non local Part
           1           2   1.24080360885718     
   4.88372397502017        6.96365605283036        6.96365605283036     
   9.93508266952608     
 Reciprocal Space Part
  0.00000000E+00  0.67470641E+01  0.13316955E+02  0.19536242E+02  0.25238891E+02
  0.30269766E+02  0.34487886E+02  0.37769370E+02  0.40010018E+02  0.41127454E+02
  0.41062805E+02  0.39781861E+02  0.37275715E+02  0.33560860E+02  0.28678737E+02
  0.22694772E+02  0.15696900E+02  0.77936343E+01 -0.88829018E+00 -0.10206628E+02
 -0.20006636E+02 -0.30124317E+02 -0.40389818E+02 -0.50630908E+02 -0.60676463E+02
 -0.70359873E+02 -0.79522308E+02 -0.88015768E+02 -0.95705858E+02 -0.10247423E+03
 -0.10822063E+03 -0.11286459E+03 -0.11634655E+03 -0.11862867E+03 -0.11969507E+03
 -0.11955166E+03 -0.11822545E+03 -0.11576356E+03 -0.11223172E+03 -0.10771249E+03
 -0.10230316E+03 -0.96113388E+02 -0.89262725E+02 -0.81877903E+02 -0.74090147E+02
 -0.66032447E+02 -0.57836898E+02 -0.49632153E+02 -0.41541043E+02 -0.33678410E+02
 -0.26149195E+02 -0.19046818E+02 -0.12451860E+02 -0.64310857E+01 -0.10368009E+01
  0.36934545E+01  0.77368757E+01  0.11085048E+02  0.13743307E+02  0.15729829E+02
  0.17074486E+02  0.17817510E+02  0.18007991E+02  0.17702265E+02  0.16962231E+02
  0.15853638E+02  0.14444380E+02  0.12802858E+02  0.10996409E+02  0.90898780E+01
  0.71443229E+01  0.52158987E+01  0.33549286E+01  0.16051758E+01  0.33226456E-02
 -0.14213436E+01 -0.26470414E+01 -0.36594127E+01 -0.44512614E+01 -0.50221307E+01
 -0.53777391E+01 -0.55293003E+01 -0.54927504E+01 -0.52879099E+01 -0.49376059E+01
 -0.44667803E+01 -0.39016095E+01 -0.32686579E+01 -0.25940853E+01 -0.19029269E+01
 -0.12184610E+01 -0.56167400E+00  0.49166991E-01  0.59883057E+00  0.10753252E+01
  0.14699930E+01  0.17774979E+01  0.19957169E+01  0.21255431E+01  0.21706134E+01
 Real Space Part
  0.00000000E+00 -0.13227699E+02 -0.26421929E+02 -0.39549280E+02 -0.52576463E+02
 -0.65470373E+02 -0.78198145E+02 -0.90727217E+02 -0.10302540E+03 -0.11506091E+03
 -0.12680248E+03 -0.13821938E+03 -0.14928149E+03 -0.15995939E+03 -0.17022439E+03
 -0.18004860E+03 -0.18940504E+03 -0.19826764E+03 -0.20661137E+03 -0.21441227E+03
 -0.22164754E+03 -0.22829560E+03 -0.23433619E+03 -0.23975042E+03 -0.24452084E+03
 -0.24863154E+03 -0.25206822E+03 -0.25481828E+03 -0.25687089E+03 -0.25821707E+03
 -0.25884979E+03 -0.25876404E+03 -0.25795692E+03 -0.25642775E+03 -0.25417811E+03
 -0.25121197E+03 -0.24753577E+03 -0.24315845E+03 -0.23809163E+03 -0.23234958E+03
 -0.22594940E+03 -0.21891099E+03 -0.21125719E+03 -0.20301382E+03 -0.19420968E+03
 -0.18487663E+03 -0.17504963E+03 -0.16476666E+03 -0.15406882E+03 -0.14300021E+03
 -0.13160792E+03 -0.11994192E+03 -0.10805498E+03 -0.96002494E+02 -0.83842333E+02
 -0.71634597E+02 -0.59441375E+02 -0.47326433E+02 -0.35354861E+02 -0.23592682E+02
 -0.12106393E+02 -0.96246805E+00  0.97731924E+01  0.20035863E+02  0.29762639E+02
  0.38893120E+02  0.47370139E+02  0.55140505E+02  0.62155776E+02  0.68373033E+02
  0.73755647E+02  0.78274028E+02  0.81906334E+02  0.84639119E+02  0.86467912E+02
  0.87397722E+02  0.87443387E+02  0.86629831E+02  0.84992191E+02  0.82575724E+02
  0.79435618E+02  0.75636600E+02  0.71252335E+02  0.66364745E+02  0.61063035E+02
  0.55442711E+02  0.49604319E+02  0.43652206E+02  0.37693083E+02  0.31834607E+02
  0.26183892E+02  0.20846039E+02  0.15922700E+02  0.11510703E+02  0.77007530E+01
  0.45763653E+01  0.22127540E+01  0.67300569E+00  0.27259340E-01  0.00000000E+00
 Reciprocal Space Part
  0.00000000E+00 -0.43316328E+01 -0.85437385E+01 -0.12519338E+02 -0.16146494E+02
 -0.19320687E+02 -0.21947042E+02 -0.23942325E+02 -0.25236703E+02 -0.25775196E+02
 -0.25518817E+02 -0.24445356E+02 -0.22549807E+02 -0.19844425E+02 -0.16358409E+02
 -0.12137236E+02 -0.72416409E+01 -0.17462919E+01  0.42618264E+01  0.10685273E+02
  0.17418213E+02  0.24348640E+02  0.31360696E+02  0.38337055E+02  0.45161296E+02
  0.51720235E+02  0.57906148E+02  0.63618849E+02  0.68767579E+02  0.73272661E+02
  0.77066902E+02  0.80096697E+02  0.82322839E+02  0.83721006E+02  0.84281931E+02
  0.84011255E+02  0.82929066E+02  0.81069163E+02  0.78478040E+02  0.75213642E+02
  0.71343911E+02  0.66945174E+02  0.62100393E+02  0.56897342E+02  0.51426737E+02
  0.45780365E+02  0.40049259E+02  0.34321952E+02  0.28682847E+02  0.23210734E+02
  0.17977490E+02  0.13046967E+02  0.84741055E+01  0.43042723E+01  0.57282836E+00
 -0.26950652E+01 -0.54844154E+01 -0.77901465E+01 -0.96166477E+01 -0.10977136E+02
 -0.11892860E+02 -0.12392167E+02 -0.12509465E+02 -0.12284105E+02 -0.11759216E+02
 -0.10980523E+02 -0.99951730E+01 -0.88505980E+01 -0.75934430E+01 -0.62685757E+01
 -0.49182011E+01 -0.35810948E+01 -0.22919667E+01 -0.10809646E+01  0.26680405E-01
  0.10108645E+01  0.18566821E+01  0.25543640E+01  0.30990913E+01  0.34906991E+01
  0.37332831E+01  0.38347261E+01  0.38061620E+01  0.36613941E+01  0.34162873E+01
  0.30881516E+01  0.26951329E+01  0.22556288E+01  0.17877412E+01  0.13087803E+01
  0.83482862E+00  0.38037327E+00 -0.41987793E-01 -0.42176247E+00 -0.75070367E+00
 -0.10228721E+01 -0.12346267E+01 -0.13845469E+01 -0.14732959E+01 -0.15034306E+01
 Real Space Part
  0.00000000E+00  0.93057597E+01  0.18588107E+02  0.27823673E+02  0.36989171E+02
  0.46061443E+02  0.55017500E+02  0.63834564E+02  0.72490113E+02  0.80961921E+02
  0.89228107E+02  0.97267172E+02  0.10505805E+03  0.11258015E+03  0.11981339E+03
  0.12673827E+03  0.13333589E+03  0.13958802E+03  0.14547713E+03  0.15098644E+03
  0.15610001E+03  0.16080270E+03  0.16508033E+03  0.16891966E+03  0.17230846E+03
  0.17523557E+03  0.17769095E+03  0.17966575E+03  0.18115236E+03  0.18214444E+03
  0.18263704E+03  0.18262658E+03  0.18211099E+03  0.18108972E+03  0.17956381E+03
  0.17753595E+03  0.17501055E+03  0.17199381E+03  0.16849372E+03  0.16452018E+03
  0.16008503E+03  0.15520208E+03  0.14988717E+03  0.14415823E+03  0.13803526E+03
  0.13154041E+03  0.12469796E+03  0.11753433E+03  0.11007808E+03  0.10235991E+03
  0.94412554E+02  0.86270798E+02  0.77971362E+02  0.69552810E+02  0.61055426E+02
  0.52521068E+02  0.43992980E+02  0.35515585E+02  0.27134245E+02  0.18894977E+02
  0.10844147E+02  0.30281179E+01 -0.45071296E+01 -0.11716416E+02 -0.18555810E+02
 -0.24983105E+02 -0.30958325E+02 -0.36444242E+02 -0.41406910E+02 -0.45816207E+02
 -0.49646371E+02 -0.52876515E+02 -0.55491126E+02 -0.57480517E+02 -0.58841229E+02
 -0.59576387E+02 -0.59695943E+02 -0.59216858E+02 -0.58163193E+02 -0.56566051E+02
 -0.54463442E+02 -0.51900022E+02 -0.48926671E+02 -0.45600031E+02 -0.41981824E+02
 -0.38138182E+02 -0.34138761E+02 -0.30055898E+02 -0.25963599E+02 -0.21936565E+02
 -0.18049156E+02 -0.14374366E+02 -0.10982833E+02 -0.79418748E+01 -0.53145894E+01
 -0.31591129E+01 -0.15278432E+01 -0.46479475E+00 -0.18813291E-01  0.00000000E+00
 Non local Part
           2           1   1.24080360885718     
   14.0781321971840     
 Reciprocal Space Part
  0.00000000E+00  0.24001314E-01  0.95581607E-01  0.21347801E+00  0.37561253E+00
  0.57913161E+00  0.82046039E+00  0.10953705E+01  0.13990598E+01  0.17262432E+01
  0.20712508E+01  0.24281344E+01  0.27907766E+01  0.31530030E+01  0.35086947E+01
  0.38518971E+01  0.41769254E+01  0.44784633E+01  0.47516528E+01  0.49921741E+01
  0.51963142E+01  0.53610226E+01  0.54839531E+01  0.55634916E+01  0.55987692E+01
  0.55896612E+01  0.55367715E+01  0.54414036E+01  0.53055188E+01  0.51316835E+01
  0.49230055E+01  0.46830623E+01  0.44158223E+01  0.41255612E+01  0.38167744E+01
  0.34940889E+01  0.31621753E+01  0.28256617E+01  0.24890525E+01  0.21566513E+01
  0.18324924E+01  0.15202789E+01  0.12233305E+01  0.94454101E+00  0.68634612E+00
  0.45070175E+00  0.23907288E+00  0.52432750E-01 -0.10872798E+00 -0.24438281E+00
 -0.35494258E+00 -0.44122104E+00 -0.50439412E+00 -0.54595400E+00 -0.56765915E+00
 -0.57148181E+00 -0.55955404E+00 -0.53411366E+00 -0.49745135E+00 -0.45185991E+00
 -0.39958674E+00 -0.34279043E+00 -0.28350229E+00 -0.22359316E+00 -0.16474628E+00
 -0.10843616E+00 -0.55913805E-01 -0.81980797E-02  0.33926879E-01  0.69908580E-01
  0.99417855E-01  0.12233586E+00  0.13873701E+00  0.14886859E+00  0.15312772E+00
  0.15203646E+00  0.14621580E+00  0.13635936E+00  0.12320730E+00  0.10752131E+00
  0.90061127E-01  0.71563074E-01  0.52721138E-01  0.34170792E-01  0.16475851E-01
  0.11846862E-03 -0.14507683E-01 -0.27101118E-01 -0.37453248E-01 -0.45446319E-01
 -0.51048850E-01 -0.54308884E-01 -0.55345433E-01 -0.54338490E-01 -0.51518021E-01
 -0.47152340E-01 -0.41536255E-01 -0.34979369E-01 -0.27794864E-01 -0.20289084E-01
 Real Space Part
  0.00000000E+00  0.31999297E-02  0.12795210E-01  0.28772305E-01  0.51108607E-01
  0.79772382E-01  0.11472268E+00  0.15590920E+00  0.20327221E+00  0.25674232E+00
  0.31624033E+00  0.38167703E+00  0.45295295E+00  0.52995812E+00  0.61257181E+00
  0.70066222E+00  0.79408620E+00  0.89268888E+00  0.99630339E+00  0.11047505E+01
  0.12178381E+01  0.13353611E+01  0.14571010E+01  0.15828253E+01  0.17122871E+01
  0.18452252E+01  0.19813632E+01  0.21204093E+01  0.22620562E+01  0.24059804E+01
  0.25518423E+01  0.26992855E+01  0.28479369E+01  0.29974067E+01  0.31472878E+01
  0.32971563E+01  0.34465710E+01  0.35950742E+01  0.37421913E+01  0.38874319E+01
  0.40302895E+01  0.41702428E+01  0.43067563E+01  0.44392814E+01  0.45672576E+01
  0.46901140E+01  0.48072708E+01  0.49181418E+01  0.50221361E+01  0.51186613E+01
  0.52071258E+01  0.52869426E+01  0.53575326E+01  0.54183289E+01  0.54687810E+01
  0.55083596E+01  0.55365619E+01  0.55529171E+01  0.55569922E+01  0.55483983E+01
  0.55267970E+01  0.54919071E+01  0.54435116E+01  0.53814643E+01  0.53056968E+01
  0.52162252E+01  0.51131561E+01  0.49966932E+01  0.48671420E+01  0.47249146E+01
  0.45705331E+01  0.44046323E+01  0.42279607E+01  0.40413801E+01  0.38458636E+01
  0.36424923E+01  0.34324495E+01  0.32170133E+01  0.29975478E+01  0.27754913E+01
  0.25523442E+01  0.23296543E+01  0.21090008E+01  0.18919781E+01  0.16801770E+01
  0.14751677E+01  0.12784804E+01  0.10915879E+01  0.91588791E+00  0.75268653E+00
  0.60318341E+00  0.46845837E+00  0.34945951E+00  0.24699459E+00  0.16172302E+00
  0.94154106E-01  0.44642520E-01  0.13308835E-01  0.66086983E-03  0.00000000E+00
 PAW radial sets
         363   1.18970919762334     
(5E20.12)                                
 augmentation charges (non sperical)
 -0.423729469246E+00 -0.460470248013E+00 -0.190179679832E+00 -0.276423992760E+00 -0.779667855447E-01
 -0.460470248013E+00 -0.500414205845E+00 -0.206972853445E+00 -0.300806278204E+00 -0.847828589728E-01
 -0.190179679832E+00 -0.206972853445E+00 -0.880092362743E-01 -0.127710669747E+00 -0.225134153779E-01
 -0.276423992760E+00 -0.300806278204E+00 -0.127710669747E+00 -0.185346466136E+00 -0.339167487341E-01
 -0.779667855447E-01 -0.847828589728E-01 -0.225134153779E-01 -0.339167487341E-01  0.833718723899E-01
 uccopancies in atom
  0.200000000340E+01  0.000000000000E+00  0.000000000000E+00  0.000000000000E+00  0.000000000000E+00
  0.000000000000E+00  0.000000000000E+00  0.000000000000E+00  0.000000000000E+00  0.000000000000E+00
  0.000000000000E+00  0.000000000000E+00  0.133333333663E+01  0.000000000000E+00  0.000000000000E+00
  0.000000000000E+00  0.000000000000E+00  0.000000000000E+00  0.000000000000E+00  0.000000000000E+00
  0.000000000000E+00  0.000000000000E+00  0.000000000000E+00  0.000000000000E+00  0.000000000000E+00
 grid
  0.585112745769E-04  0.604139152584E-04  0.623784250683E-04  0.644068158364E-04  0.665011648120E-04
  0.686636167916E-04  0.708963863149E-04  0.732017599330E-04  0.755820985500E-04  0.780398398405E-04
  0.805775007466E-04  0.831976800546E-04  0.859030610571E-04  0.886964143008E-04  0.915806004233E-04
  0.945585730835E-04  0.976333819853E-04  0.100808176002E-03  0.104086206400E-03  0.107470830169E-03
  0.110965513459E-03  0.114573835131E-03  0.118299490423E-03  0.122146294731E-03  0.126118187518E-03
  0.130219236349E-03  0.134453641058E-03  0.138825738044E-03  0.143340004718E-03  0.148001064082E-03
  0.152813689468E-03  0.157782809426E-03  0.162913512769E-03  0.168211053784E-03  0.173680857618E-03
  0.179328525827E-03  0.185159842117E-03  0.191180778265E-03  0.197397500237E-03  0.203816374498E-03
  0.210443974537E-03  0.217287087596E-03  0.224352721619E-03  0.231648112435E-03  0.239180731160E-03
  0.246958291854E-03  0.254988759419E-03  0.263280357757E-03  0.271841578187E-03  0.280681188148E-03
  0.289808240172E-03  0.299232081159E-03  0.308962361946E-03  0.319009047190E-03  0.329382425574E-03
  0.340093120345E-03  0.351152100190E-03  0.362570690471E-03  0.374360584822E-03  0.386533857125E-03
  0.399102973874E-03  0.412080806945E-03  0.425480646771E-03  0.439316215959E-03  0.453601683342E-03
  0.468351678487E-03  0.483581306677E-03  0.499306164382E-03  0.515542355231E-03  0.532306506502E-03
  0.549615786152E-03  0.567487920394E-03  0.585941211856E-03  0.604994558321E-03  0.624667472080E-03
  0.644980099918E-03  0.665953243738E-03  0.687608381875E-03  0.709967691080E-03  0.733054069241E-03
  0.756891158827E-03  0.781503371099E-03  0.806915911115E-03  0.833154803535E-03  0.860246919279E-03
  0.888220003041E-03  0.917102701702E-03  0.946924593670E-03  0.977716219168E-03  0.100950911151E-02
  0.104233582940E-02  0.107622999026E-02  0.111122630468E-02  0.114736061194E-02  0.118466991672E-02
  0.122319242703E-02  0.126296759326E-02  0.130403614868E-02  0.134644015106E-02  0.139022302581E-02
  0.143542961043E-02  0.148210620040E-02  0.153030059664E-02  0.158006215441E-02  0.163144183389E-02
  0.168449225238E-02  0.173926773814E-02  0.179582438604E-02  0.185422011504E-02  0.191451472747E-02
  0.197676997027E-02  0.204104959827E-02  0.210741943941E-02  0.217594746221E-02  0.224670384536E-02
  0.231976104957E-02  0.239519389180E-02  0.247307962188E-02  0.255349800161E-02  0.263653138642E-02
  0.272226480977E-02  0.281078607016E-02  0.290218582111E-02  0.299655766394E-02  0.309399824368E-02
  0.319460734798E-02  0.329848800937E-02  0.340574661071E-02  0.351649299419E-02  0.363084057379E-02
  0.374890645141E-02  0.387081153683E-02  0.399668067151E-02  0.412664275645E-02  0.426083088418E-02
  0.439938247506E-02  0.454243941803E-02  0.469014821590E-02  0.484266013540E-02  0.500013136204E-02
  0.516272316013E-02  0.533060203788E-02  0.550393991793E-02  0.568291431341E-02  0.586770850974E-02
  0.605851175233E-02  0.625551944038E-02  0.645893332697E-02  0.666896172570E-02  0.688581972399E-02
  0.710972940340E-02  0.734092006699E-02  0.757962847421E-02  0.782609908333E-02  0.808058430179E-02
  0.834334474470E-02  0.861464950169E-02  0.889477641257E-02  0.918401235175E-02  0.948265352212E-02
  0.979100575833E-02  0.101093848400E-01  0.104381168152E-01  0.107775383341E-01  0.111279969941E-01
  0.114898516953E-01  0.118634730088E-01  0.122492435553E-01  0.126475583976E-01  0.130588254449E-01
  0.134834658706E-01  0.139219145436E-01  0.143746204736E-01  0.148420472711E-01  0.153246736220E-01
  0.158229937778E-01  0.163375180619E-01  0.168687733921E-01  0.174173038204E-01  0.179836710898E-01
  0.185684552098E-01  0.191722550506E-01  0.197956889560E-01  0.204393953766E-01  0.211040335242E-01
  0.217902840463E-01  0.224988497233E-01  0.232304561886E-01  0.239858526709E-01  0.247658127624E-01
  0.255711352103E-01  0.264026447352E-01  0.272611928754E-01  0.281476588594E-01  0.290629505056E-01
  0.300080051529E-01  0.309837906196E-01  0.319913061955E-01  0.330315836644E-01  0.341056883615E-01
  0.352147202637E-01  0.363598151167E-01  0.375421455976E-01  0.387629225163E-01  0.400233960548E-01
  0.413248570484E-01  0.426686383067E-01  0.440561159792E-01  0.454887109643E-01  0.469678903644E-01
  0.484951689885E-01  0.500721109033E-01  0.517003310353E-01  0.533814968240E-01  0.551173299301E-01
  0.569096079985E-01  0.587601664785E-01  0.606709005037E-01  0.626437668327E-01  0.646807858531E-01
  0.667840436502E-01  0.689556941439E-01  0.711979612940E-01  0.735131413781E-01  0.759036053429E-01
  0.783718012323E-01  0.809202566946E-01  0.835515815710E-01  0.862684705680E-01  0.890737060173E-01
  0.919701607253E-01  0.949608009146E-01  0.980486892621E-01  0.101236988035E+00  0.104528962331E+00
  0.107927983418E+00  0.111437532191E+00  0.115061202736E+00  0.118802706006E+00  0.122665873629E+00
  0.126654661825E+00  0.130773155463E+00  0.135025572240E+00  0.139416267001E+00  0.143949736203E+00
  0.148630622514E+00  0.153463719570E+00  0.158453976885E+00  0.163606504919E+00  0.168926580311E+00
  0.174419651282E+00  0.180091343218E+00  0.185947464426E+00  0.191994012087E+00  0.198237178394E+00
  0.204683356894E+00  0.211339149038E+00  0.218211370938E+00  0.225307060350E+00  0.232633483880E+00
  0.240198144426E+00  0.248008788862E+00  0.256073415970E+00  0.264400284632E+00  0.272997922290E+00
  0.281875133676E+00  0.291041009831E+00  0.300504937412E+00  0.310276608309E+00  0.320366029566E+00
  0.330783533632E+00  0.341539788941E+00  0.352645810840E+00  0.364112972865E+00  0.375953018392E+00
  0.388178072662E+00  0.400800655199E+00  0.413833692631E+00  0.427290531926E+00  0.441184954065E+00
  0.455531188149E+00  0.470343925976E+00  0.485638337085E+00  0.501430084287E+00  0.517735339713E+00
  0.534570801369E+00  0.551953710238E+00  0.569901867939E+00  0.588433654953E+00  0.607568049450E+00
  0.627324646721E+00  0.647723679249E+00  0.668786037425E+00  0.690533290945E+00  0.712987710897E+00
  0.736172292568E+00  0.760110778997E+00  0.784827685286E+00  0.810348323706E+00  0.836698829621E+00
  0.863906188252E+00  0.891998262312E+00  0.921003820538E+00  0.950952567159E+00  0.981875172306E+00
  0.101380330343E+01  0.104676965773E+01  0.108080799563E+01  0.111595317536E+01  0.115224118866E+01
  0.118970919762E+01  0.122839557277E+01  0.126833993232E+01  0.130958318280E+01  0.135216756090E+01
  0.139613667673E+01  0.144153555852E+01  0.148841069869E+01  0.153681010148E+01  0.158678333211E+01
  0.163838156753E+01  0.169165764885E+01  0.174666613542E+01  0.180346336074E+01  0.186210749014E+01
  0.192265858033E+01  0.198517864092E+01  0.204973169791E+01  0.211638385927E+01  0.218520338264E+01
  0.225626074523E+01  0.232962871598E+01  0.240538243011E+01  0.248359946604E+01  0.256435992485E+01
  0.264774651231E+01  0.273384462358E+01  0.282274243063E+01  0.291453097259E+01  0.300930424895E+01
  0.310715931583E+01  0.320819638537E+01  0.331251892835E+01  0.342023378018E+01  0.353145125027E+01
  0.364628523503E+01  0.376485333451E+01  0.388727697278E+01  0.401368152237E+01  0.414419643257E+01
  0.427895536205E+01  0.441809631573E+01  0.456176178612E+01  0.471009889920E+01  0.486325956514E+01
  0.502140063385E+01  0.518468405560E+01  0.535327704688E+01  0.552735226166E+01  0.570708796815E+01
  0.589266823143E+01  0.608428310191E+01  0.628212880995E+01
 aepotential
  0.967852925134E+04  0.980231930720E+04  0.991731431994E+04  0.100227063780E+05  0.101177200256E+05
  0.102016191472E+05  0.102737168616E+05  0.103333845424E+05  0.103800614346E+05  0.104132626678E+05
  0.104325873000E+05  0.104377250922E+05  0.104284621382E+05  0.104046852385E+05  0.103663850659E+05
  0.103136574293E+05  0.102467032668E+05  0.101658269845E+05  0.100714331155E+05  0.996402141731E+04
  0.984418107515E+04  0.971258189686E+04  0.956996770718E+04  0.941714437854E+04  0.925497131637E+04
  0.908434920004E+04  0.890620991555E+04  0.872150437560E+04  0.853119239678E+04  0.833623126779E+04
  0.813756619415E+04  0.793612073551E+04  0.773278842043E+04  0.752842527285E+04  0.732384335903E+04
  0.711980544902E+04  0.691702081325E+04  0.671614209365E+04  0.651776317548E+04  0.632241812895E+04
  0.613058102063E+04  0.594266658650E+04  0.575903159115E+04  0.557997685374E+04  0.540574978331E+04
  0.523654732735E+04  0.507251925057E+04  0.491377163480E+04  0.476037052084E+04  0.461234561443E+04
  0.446969398680E+04  0.433238371304E+04  0.420035739883E+04  0.407353555652E+04  0.395181979986E+04
  0.383509583521E+04  0.372323623367E+04  0.361610297625E+04  0.351354976762E+04  0.341542412186E+04
  0.332156922348E+04  0.323182557630E+04  0.314603243962E+04  0.306402908731E+04  0.298565587236E+04
  0.291075513727E+04  0.283917197694E+04  0.277075485292E+04  0.270535610495E+04  0.264283233864E+04
  0.258304472645E+04  0.252585923013E+04  0.247114673122E+04  0.241878312900E+04  0.236864935764E+04
  0.232063138006E+04  0.227462012721E+04  0.223051142475E+04  0.218820587732E+04  0.214760874988E+04
  0.210862981877E+04  0.207118322332E+04  0.203518730302E+04  0.200056443321E+04  0.196724085164E+04
  0.193514649438E+04  0.190421482266E+04  0.187438265698E+04  0.184559001394E+04  0.181777994499E+04
  0.179089838268E+04  0.176489399013E+04  0.173971801584E+04  0.171532415633E+04  0.169166842259E+04
  0.166870901240E+04  0.164640619202E+04  0.162472217839E+04  0.160362103172E+04  0.158306855180E+04
  0.156303217983E+04  0.154348090602E+04  0.152438518227E+04  0.150571684037E+04  0.148744901285E+04
  0.146955606164E+04  0.145201350923E+04  0.143479797286E+04  0.141788710625E+04  0.140125954036E+04
  0.138489483299E+04  0.136877341770E+04  0.135287655770E+04  0.133718630286E+04  0.132168544990E+04
  0.130635750467E+04  0.129118664779E+04  0.127615770248E+04  0.126125610529E+04  0.124646787916E+04
  0.123177960802E+04  0.121717841499E+04  0.120265194112E+04  0.118818832774E+04  0.117377619947E+04
  0.115940465006E+04  0.114506322985E+04  0.113074193480E+04  0.111643119788E+04  0.110212188203E+04
  0.108780527461E+04  0.107347308444E+04  0.105911743969E+04  0.104473088836E+04  0.103030640034E+04
  0.101583737122E+04  0.100131762838E+04  0.986741438899E+03  0.972103519620E+03  0.957399049504E+03
  0.942623684264E+03  0.927773573437E+03  0.912845380240E+03  0.897836304003E+03  0.882744105822E+03
  0.867567137177E+03  0.852304372099E+03  0.836955442862E+03  0.821520679408E+03  0.806001152808E+03
  0.790398722659E+03  0.774716088562E+03  0.758956845553E+03  0.743125543096E+03  0.727227747135E+03
  0.711270104277E+03  0.695260406710E+03  0.679207655855E+03  0.663122122150E+03  0.647015397289E+03
  0.630900434407E+03  0.614791570451E+03  0.598704523925E+03  0.582656360045E+03  0.566665414755E+03
  0.550751168912E+03  0.534934065200E+03  0.519235263302E+03  0.503676334667E+03  0.488278907781E+03
  0.473064289312E+03  0.458053106690E+03  0.443265043702E+03  0.428718770961E+03  0.414432203085E+03
  0.400423234934E+03  0.386711104890E+03  0.373318481934E+03  0.360274250208E+03  0.347616750470E+03
  0.335396937665E+03  0.323680580405E+03  0.312548383557E+03  0.302092895380E+03  0.292411600049E+03
  0.283596291430E+03  0.275720261352E+03  0.268825647590E+03  0.262913741504E+03  0.257940446741E+03
  0.253817780552E+03  0.250420874716E+03  0.247598947288E+03  0.245188337995E+03  0.243025677825E+03
  0.240959355251E+03  0.238857750743E+03  0.236613455863E+03  0.234143747738E+03  0.231388442699E+03
  0.228306497720E+03  0.224872416414E+03  0.221073011317E+03  0.216904689560E+03  0.212371252540E+03
  0.207482162941E+03  0.202251239104E+03  0.196695740577E+03  0.190835798230E+03  0.184694129839E+03
  0.178295971486E+03  0.171669151533E+03  0.164844232115E+03  0.157854643729E+03  0.150736739448E+03
  0.143529702510E+03  0.136275262388E+03  0.129017223842E+03  0.121800904027E+03  0.114672710770E+03
  0.107680257435E+03  0.100873520337E+03  0.943074492585E+02  0.880459297294E+02  0.821659337622E+02
  0.767592823539E+02  0.719284545465E+02  0.677734631946E+02  0.643696144920E+02  0.617404357230E+02
  0.598347543068E+02  0.585207053267E+02  0.576074779552E+02  0.568916912711E+02  0.562048590500E+02
  0.554350990138E+02  0.545181777034E+02  0.534152090319E+02  0.520955359077E+02  0.505309993259E+02
  0.486978612475E+02  0.465804240064E+02  0.441728229738E+02  0.414784533468E+02  0.385080477250E+02
  0.352775750296E+02  0.318066573249E+02  0.281177221217E+02  0.242358321405E+02  0.201890332336E+02
  0.160090330649E+02  0.117319811130E+02  0.739902138043E+01  0.305612257664E+01 -0.124748129613E+01
 -0.546291016246E+01 -0.954747927750E+01 -0.134713892174E+02 -0.172208770397E+02 -0.207894463746E+02
 -0.241476069423E+02 -0.271923802285E+02 -0.297088428704E+02 -0.314096795286E+02 -0.320997936350E+02
 -0.318929996257E+02 -0.312404968161E+02 -0.306296559352E+02 -0.302796163059E+02 -0.301663213165E+02
 -0.302021898546E+02 -0.303348069584E+02 -0.305566978987E+02 -0.308848949830E+02 -0.313403696746E+02
 -0.319360647041E+02 -0.326736252095E+02 -0.335453795974E+02 -0.345379208149E+02 -0.356351693983E+02
 -0.368202835283E+02 -0.380765749988E+02 -0.393877898121E+02 -0.407380681002E+02 -0.421117903282E+02
 -0.434934263002E+02 -0.448674644321E+02 -0.462184455931E+02 -0.475311352669E+02 -0.487908200455E+02
 -0.499836835350E+02 -0.510971977559E+02 -0.521203759774E+02 -0.530437728637E+02 -0.538591374180E+02
 -0.545587932649E+02 -0.551350692407E+02 -0.555803214305E+02 -0.558880499067E+02 -0.560550795730E+02
 -0.560838873781E+02 -0.559836140397E+02 -0.557688364572E+02 -0.554565384458E+02 -0.550628957916E+02
 -0.546012064981E+02 -0.540813919790E+02 -0.535105559688E+02 -0.528938971310E+02 -0.522355175992E+02
 -0.515389675712E+02 -0.508075617048E+02 -0.500445409977E+02 -0.492531499516E+02 -0.484366679430E+02
 -0.475984097277E+02 -0.467417115713E+02 -0.458698779748E+02 -0.449861290549E+02 -0.440935111782E+02
 -0.431947989632E+02 -0.422923922940E+02 -0.413882199453E+02 -0.404836774957E+02 -0.395796168257E+02
 -0.386764085822E+02 -0.377740789655E+02 -0.368725116442E+02 -0.359716711011E+02 -0.350718265655E+02
 -0.341737195508E+02 -0.332786612653E+02 -0.323885471353E+02 -0.315057941122E+02 -0.306332144326E+02
 -0.297738426919E+02 -0.289307334733E+02 -0.281067472533E+02 -0.273043443402E+02 -0.265254093624E+02
 -0.257711294412E+02 -0.250419446041E+02 -0.243375781110E+02 -0.236571395512E+02 -0.229992797453E+02
 -0.223623685725E+02 -0.217446670070E+02 -0.211444715819E+02 -0.205602196391E+02 -0.199905534109E+02
 -0.194343478912E+02 -0.188907109816E+02 -0.183589651041E+02 -0.178386183949E+02 -0.173293317259E+02
 -0.168308858269E+02 -0.163431510869E+02 -0.158660613263E+02 -0.153995919584E+02 -0.149437424178E+02
 -0.144985224443E+02 -0.140639416877E+02 -0.136400020814E+02
 core charge-density
  0.181648061585E-01  0.192656720366E-01  0.204329975892E-01  0.216707708671E-01  0.229832169372E-01
  0.243748117519E-01  0.258502968088E-01  0.274146946457E-01  0.290733252140E-01  0.308318231804E-01
  0.326961562044E-01  0.346726442464E-01  0.367679799594E-01  0.389892502229E-01  0.413439588785E-01
  0.438400507306E-01  0.464859368780E-01  0.492905214453E-01  0.522632297860E-01  0.554140382322E-01
  0.587535054692E-01  0.622928056177E-01  0.660437631062E-01  0.700188894249E-01  0.742314218508E-01
  0.786953642403E-01  0.834255299891E-01  0.884375872601E-01  0.937481065876E-01  0.993746109664E-01
  0.105335628540E+00  0.111650748002E+00  0.118340676839E+00  0.125427302524E+00  0.132933756805E+00
  0.140884483205E+00  0.149305307870E+00  0.158223513901E+00  0.167667919313E+00  0.177668958741E+00
  0.188258769059E+00  0.199471279034E+00  0.211342303163E+00  0.223909639837E+00  0.237213173966E+00
  0.251294984210E+00  0.266199454940E+00  0.281973393076E+00  0.298666149908E+00  0.316329748037E+00
  0.335019013535E+00  0.354791713426E+00  0.375708698579E+00  0.397834052092E+00  0.421235243209E+00
  0.445983286834E+00  0.472152908635E+00  0.499822715747E+00  0.529075373039E+00  0.559997784865E+00
  0.592681282215E+00  0.627221815105E+00  0.663720150038E+00  0.702282072280E+00  0.743018592674E+00
  0.786046158630E+00  0.831486868865E+00  0.879468691415E+00  0.930125684318E+00  0.983598218313E+00
  0.104003320078E+01  0.109958430008E+01  0.116241216921E+01  0.122868466780E+01  0.129857708107E+01
  0.137227233437E+01  0.144996120183E+01  0.153184250720E+01  0.161812331516E+01  0.170901911085E+01
  0.180475396523E+01  0.190556068396E+01  0.201168093664E+01  0.212336536370E+01  0.224087365731E+01
  0.236447461296E+01  0.249444614760E+01  0.263107528024E+01  0.277465807042E+01  0.292549950965E+01
  0.308391336067E+01  0.325022193885E+01  0.342475582992E+01  0.360785353755E+01  0.379986105432E+01
  0.400113134881E+01  0.421202376170E+01  0.443290330281E+01  0.466413984139E+01  0.490610718096E+01
  0.515918201029E+01  0.542374272152E+01  0.570016808651E+01  0.598883578207E+01  0.629012075500E+01
  0.660439341769E+01  0.693201766517E+01  0.727334870493E+01  0.762873069098E+01  0.799849415421E+01
  0.838295322202E+01  0.878240262063E+01  0.919711445514E+01  0.962733476322E+01  0.100732798403E+02
  0.105351323355E+02  0.110130371212E+02  0.115070969383E+02  0.120173678272E+02  0.125438543527E+02
  0.130865046381E+02  0.136452052264E+02  0.142197757915E+02  0.148099637276E+02  0.154154386492E+02
  0.160357868419E+02  0.166705057098E+02  0.173189982714E+02  0.179805677643E+02  0.186544124267E+02
  0.193396205316E+02  0.200351657562E+02  0.207399029819E+02  0.214525646232E+02  0.221717575973E+02
  0.228959610520E+02  0.236235249773E+02  0.243526698357E+02  0.250814873498E+02  0.258079425940E+02
  0.265298775395E+02  0.272450162045E+02  0.279509715626E+02  0.286452543594E+02  0.293252839825E+02
  0.299884015221E+02  0.306318851469E+02  0.312529679053E+02  0.318488580382E+02  0.324167618673E+02
  0.329539092892E+02  0.334575818704E+02  0.339251434942E+02  0.343540734617E+02  0.347420018954E+02
  0.350867472297E+02  0.353863555086E+02  0.356391411356E+02  0.358437286448E+02  0.359990949810E+02
  0.361046116909E+02  0.361600863449E+02  0.361658024216E+02  0.361225568082E+02  0.360316939890E+02
  0.358951359300E+02  0.357154066059E+02  0.354956500730E+02  0.352396409662E+02  0.349517862924E+02
  0.346371174132E+02  0.343012711583E+02  0.339504590934E+02  0.335914240805E+02  0.332313834227E+02
  0.328779580796E+02  0.325390876725E+02  0.322229312692E+02  0.319377542557E+02  0.316918019447E+02
  0.314931609566E+02  0.313496098157E+02  0.312684606375E+02  0.312563942221E+02  0.313192913700E+02
  0.314620635987E+02  0.316884869942E+02  0.320010432577E+02  0.324007723932E+02  0.328871417477E+02
  0.334579362864E+02  0.341091750355E+02  0.348350585315E+02  0.356279518730E+02  0.364784075570E+02
  0.373752316840E+02  0.383055963467E+02  0.392552000662E+02  0.402084770298E+02  0.411488546253E+02
  0.420590573554E+02  0.429214536871E+02  0.437184407558E+02  0.444328601552E+02  0.450484363575E+02
  0.455502276697E+02  0.459250781221E+02  0.461620573565E+02  0.462528745182E+02  0.461922514211E+02
  0.459782399331E+02  0.456124686875E+02  0.451003049219E+02  0.444509185533E+02  0.436772375279E+02
  0.427957860793E+02  0.418264007573E+02  0.407918229249E+02  0.397171707718E+02  0.386292986364E+02
  0.375560564026E+02  0.365254667173E+02  0.355648425289E+02  0.346998717027E+02  0.339536989871E+02
  0.333460381929E+02  0.328923489875E+02  0.326031131657E+02  0.324832446051E+02  0.325316653949E+02
  0.327410773288E+02  0.330979534208E+02  0.335827661975E+02  0.341704589733E+02  0.348311525266E+02
  0.355310664421E+02  0.362336247422E+02  0.369007090688E+02  0.374940169916E+02  0.379764765335E+02
  0.383136616527E+02  0.384751491916E+02  0.384357571001E+02  0.381766069081E+02  0.376859600076E+02
  0.369597865708E+02  0.360020371776E+02  0.348245998785E+02  0.334469389519E+02  0.318954255037E+02
  0.302023837762E+02  0.284048900337E+02  0.265433726845E+02  0.246600723663E+02  0.227974286044E+02
  0.209964648296E+02  0.192952454552E+02  0.177274767266E+02  0.163213164639E+02  0.150984459867E+02
  0.140734398655E+02  0.132534464369E+02  0.126381679887E+02  0.122201131955E+02  0.119850993977E+02
  0.119130125519E+02  0.119788598640E+02  0.121541046808E+02  0.124081463870E+02  0.127097542160E+02
  0.130283587827E+02  0.133351959785E+02  0.136043022942E+02  0.138133383567E+02  0.139442094426E+02
  0.139834578024E+02  0.139224156020E+02  0.137571249157E+02  0.134880480913E+02  0.131196045890E+02
  0.126595779682E+02  0.121184393290E+02  0.115086323215E+02  0.108438606977E+02  0.101384132715E+02
  0.940655390750E+01  0.866199634465E+01  0.791747619463E+01  0.718442536639E+01  0.647274818705E+01
  0.579069349710E+01  0.514481311448E+01  0.453999434423E+01  0.397955244703E+01  0.346536822410E+01
  0.299805611788E+01  0.257714938915E+01  0.220129097453E+01  0.186842118571E+01  0.157595596791E+01
  0.132095134445E+01  0.110025063345E+01  0.910611402011E+00  0.748809812801E+00  0.611721375824E+00
  0.496379353584E+00  0.400013622490E+00  0.320073757938E+00  0.254240020182E+00  0.200425361845E+00
  0.156770901622E+00  0.121636726743E+00  0.935894453694E-01  0.713875862082E-01  0.539657004485E-01
  0.404178355548E-01  0.299809051185E-01  0.220183639940E-01  0.160045058308E-01  0.115096245234E-01
  0.818621744465E-02  0.575635315633E-02  0.400027729330E-02  0.274628673328E-02  0.186186368210E-02
  0.124602838679E-02  0.822842279236E-03  0.535972868541E-03  0.344217695750E-03  0.217876823718E-03
  0.135861022795E-03  0.834251407203E-04  0.504221576308E-04  0.299821496076E-04  0.175308970101E-04
  0.100743290420E-04  0.568664140929E-05  0.315113064397E-05  0.171307756421E-05  0.913068712148E-06
  0.476813945833E-06  0.243784106641E-06  0.121942369105E-06  0.596306700054E-07  0.284849696915E-07
  0.132816146164E-07  0.603985046624E-08  0.267661505285E-08  0.115496002330E-08  0.484839755984E-09
  0.197833529739E-09  0.783939393057E-10  0.301401837878E-10  0.112325531106E-10  0.405374220406E-11
  0.141527670496E-11  0.477510029960E-12  0.155529531843E-12  0.488483628986E-13  0.147772973250E-13
  0.430062665686E-14  0.120261393422E-14  0.322720080892E-15
 kinetic energy-density
  0.126644644886E+06  0.126607756267E+06  0.126587351534E+06  0.126583871684E+06  0.126597769739E+06
  0.126629511661E+06  0.126679576702E+06  0.126748458823E+06  0.126836667337E+06  0.126944728053E+06
  0.127073184506E+06  0.127222599076E+06  0.127393554267E+06  0.127586654069E+06  0.127802525483E+06
  0.128041819575E+06  0.128305213571E+06  0.128593411903E+06  0.128907148143E+06  0.129247186720E+06
  0.129614323587E+06  0.130009389836E+06  0.130433251805E+06  0.130886813151E+06  0.131371016968E+06
  0.131886847494E+06  0.132435331186E+06  0.133017540112E+06  0.133634591925E+06  0.134287652961E+06
  0.134977939736E+06  0.135706720809E+06  0.136475318993E+06  0.137285113273E+06  0.138137540742E+06
  0.139034099157E+06  0.139976348945E+06  0.140965915769E+06  0.142004492702E+06  0.143093843110E+06
  0.144235803248E+06  0.145432285130E+06  0.146685279414E+06  0.147996858662E+06  0.149369180494E+06
  0.150804491080E+06  0.152305128693E+06  0.153873527451E+06  0.155512221235E+06  0.157223847754E+06
  0.159011152784E+06  0.160876994579E+06  0.162824348446E+06  0.164856311485E+06  0.166976107499E+06
  0.169187092063E+06  0.171492757750E+06  0.173896739525E+06  0.176402820268E+06  0.179014936468E+06
  0.181737183982E+06  0.184573824107E+06  0.187529289487E+06  0.190608190338E+06  0.193815320757E+06
  0.197155664904E+06  0.200634403554E+06  0.204256920370E+06  0.208028808426E+06  0.211955876574E+06
  0.216044155720E+06  0.220299905332E+06  0.224729619325E+06  0.229340032244E+06  0.234138124944E+06
  0.239131130230E+06  0.244326537866E+06  0.249732099662E+06  0.255355833509E+06  0.261206027480E+06
  0.267291242945E+06  0.273620316991E+06  0.280202364213E+06  0.287046777484E+06  0.294163227583E+06
  0.301561661854E+06  0.309252301418E+06  0.317245636949E+06  0.325552422932E+06  0.334183669932E+06
  0.343150635109E+06  0.352464810410E+06  0.362137908481E+06  0.372181845810E+06  0.382608723375E+06
  0.393430803714E+06  0.404660485130E+06  0.416310272014E+06  0.428392741288E+06  0.440920504731E+06
  0.453906166788E+06  0.467362277506E+06  0.481301280356E+06  0.495735454701E+06  0.510676852388E+06
  0.526137227867E+06  0.542127962919E+06  0.558659982911E+06  0.575743668032E+06  0.593388755017E+06
  0.611604232980E+06  0.630398230090E+06  0.649777893015E+06  0.669749257206E+06  0.690317109396E+06
  0.711484841222E+06  0.733254294439E+06  0.755625597561E+06  0.778596994156E+06  0.802164663392E+06
  0.826322532356E+06  0.851062081697E+06  0.876372144361E+06  0.902238698694E+06  0.928644656815E+06
  0.955569649148E+06  0.982989806837E+06  0.101087754340E+07  0.103920133728E+07  0.106792551777E+07
  0.109701005613E+07  0.112641036479E+07  0.115607710725E+07  0.118595602198E+07  0.121598776353E+07
  0.124610776466E+07  0.127624612326E+07  0.130632751847E+07  0.133627116006E+07  0.136599077614E+07
  0.139539464357E+07  0.142438566627E+07  0.145286150616E+07  0.148071477203E+07  0.150783327098E+07
  0.153410032731E+07  0.155939517342E+07  0.158359341671E+07  0.160656758640E+07  0.162818776304E+07
  0.164832229327E+07  0.166683859105E+07  0.168360402581E+07  0.169848689669E+07  0.171135749045E+07
  0.172208921959E+07  0.173055983490E+07  0.173665270549E+07  0.174025815685E+07  0.174127485585E+07
  0.173961122927E+07  0.173518690028E+07  0.172793412541E+07  0.171779921199E+07  0.170474389468E+07
  0.168874664730E+07  0.166980390510E+07  0.164793117122E+07  0.162316398026E+07  0.159555869172E+07
  0.156519308620E+07  0.153216673837E+07  0.149660114210E+07  0.145863956574E+07  0.141844661858E+07
  0.137620751312E+07  0.133212701233E+07  0.128642805579E+07  0.123935006353E+07  0.119114692181E+07
  0.114208466034E+07  0.109243883600E+07  0.104249164643E+07  0.992528796989E+06  0.942836172675E+06
  0.893696356152E+06  0.845385053138E+06  0.798167503167E+06  0.752294948108E+06  0.708001235920E+06
  0.665499631483E+06  0.624979898822E+06  0.586605711221E+06  0.550512439032E+06  0.516805359599E+06
  0.485558329063E+06  0.456812950920E+06  0.430578270320E+06  0.406831015670E+06  0.385516399820E+06
  0.366549481943E+06  0.349817078759E+06  0.335180200462E+06  0.322476973350E+06  0.311525998326E+06
  0.302130082642E+06  0.294080271927E+06  0.287160100869E+06  0.281149974112E+06  0.275831584069E+06
  0.270992269320E+06  0.266429216335E+06  0.261953408117E+06  0.257393226321E+06  0.252597618376E+06
  0.247438748207E+06  0.241814058639E+06  0.235647685490E+06  0.228891178139E+06  0.221523498794E+06
  0.213550292919E+06  0.205002445152E+06  0.195933957590E+06  0.186419208529E+06  0.176549668057E+06
  0.166430162815E+06  0.156174797705E+06  0.145902661869E+06  0.135733470046E+06  0.125783313798E+06
  0.116160712118E+06  0.106963121688E+06  0.982740693326E+05  0.901609597080E+05  0.826736017904E+05
  0.758434317015E+05  0.696834133747E+05  0.641886026280E+05  0.593373504347E+05  0.550930932616E+05
  0.514066449562E+05  0.482188758535E+05  0.454636441143E+05  0.430708330821E+05  0.409693477212E+05
  0.390899327154E+05  0.373676931438E+05  0.357442228180E+05  0.341692733071E+05  0.326019250686E+05
  0.310112496576E+05  0.293764762836E+05  0.276866964937E+05  0.259401566676E+05  0.241432000359E+05
  0.223089293022E+05  0.204556694695E+05  0.186053199437E+05  0.167816948169E+05  0.150089552576E+05
  0.133102295886E+05  0.117064754426E+05  0.102155706474E+05  0.885156801234E+04  0.762407816610E+04
  0.653788649210E+04  0.559300336850E+04  0.478522174756E+04  0.410694046700E+04  0.354793774995E+04
  0.309602863597E+04  0.273770279817E+04  0.245877388890E+04  0.224500779295E+04  0.208268907124E+04
  0.195909804021E+04  0.186288175590E+04  0.178430940848E+04  0.171540985905E+04  0.164999739989E+04
  0.158359962053E+04  0.151330699509E+04  0.143756681917E+04  0.135594430006E+04  0.126887184790E+04
  0.117740425206E+04  0.108299337639E+04  0.987291752880E+03  0.891990399630E+03  0.798692758851E+03
  0.708823910438E+03  0.623572269915E+03  0.543859626338E+03  0.470334718903E+03  0.403385225449E+03
  0.343163000481E+03  0.289617630239E+03  0.242533853483E+03  0.201569202045E+03  0.166289351433E+03
  0.136199925157E+03  0.110774451748E+03  0.894784855381E+02  0.717896363283E+02  0.572130817424E+02
  0.452922213344E+02  0.356147671067E+02  0.278150448778E+02  0.215735219606E+02  0.166145108645E+02
  0.127027937606E+02  0.963969778814E+01  0.725898021557E+01  0.542276067819E+01  0.401765269330E+01
  0.295118633700E+01  0.214857097819E+01  0.154981617337E+01  0.110720816440E+01  0.783125465060E+00
  0.548169031351E+00  0.379578172866E+00  0.259901774727E+00  0.175894568806E+00  0.117609406481E+00
  0.776583365207E-01  0.506174641513E-01  0.325529051436E-01  0.206475441029E-01  0.129107011642E-01
  0.795514214442E-02  0.482809172286E-02  0.288497466599E-02  0.169648901571E-02  0.981290780547E-03
  0.558040598289E-03  0.311835364150E-03  0.171131844852E-03  0.921763741957E-04  0.486980628810E-04
  0.252179562342E-04  0.127909017995E-04  0.634977503832E-05  0.308277783244E-05  0.146252658031E-05
  0.677463423810E-06  0.306143231980E-06  0.134849832266E-06  0.578478870362E-07  0.241464999368E-07
  0.979855105343E-08  0.386201588385E-08  0.147708453667E-08  0.547671555025E-09  0.196667087955E-09
  0.683282911440E-10  0.229442578232E-10  0.743849007232E-11  0.232568141165E-11  0.700440757085E-12
  0.202970252722E-12  0.565196433265E-13  0.151049810806E-13
 mkinetic energy-density pseudized
  0.335903198528E-05  0.358103846475E-05  0.381771788473E-05  0.407004001500E-05  0.433903871978E-05
  0.462581619383E-05  0.493154747861E-05  0.525748527687E-05  0.560496508549E-05  0.597541066753E-05
  0.637033988595E-05  0.679137092292E-05  0.724022891011E-05  0.771875299730E-05  0.822890388803E-05
  0.877277187345E-05  0.935258539704E-05  0.997072018541E-05  0.106297089826E-04  0.113322519279E-04
  0.120812276190E-04  0.128797049070E-04  0.137309554710E-04  0.146384672227E-04  0.156059585986E-04
  0.166373937952E-04  0.177369990124E-04  0.189092797695E-04  0.201590393664E-04  0.214913985646E-04
  0.229118165685E-04  0.244261133947E-04  0.260404937181E-04  0.277615722956E-04  0.295964010686E-04
  0.315524980584E-04  0.336378781697E-04  0.358610860314E-04  0.382312310069E-04  0.407580245189E-04
  0.434518198407E-04  0.463236545178E-04  0.493852955930E-04  0.526492878203E-04  0.561290050658E-04
  0.598387051056E-04  0.637935880453E-04  0.680098586007E-04  0.725047924947E-04  0.772968072428E-04
  0.824055376163E-04  0.878519160936E-04  0.936582586286E-04  0.998483560875E-04  0.106447571729E-03
  0.113482945126E-03  0.120983302960E-03  0.128979377130E-03  0.137503930677E-03  0.146591892023E-03
  0.156280498087E-03  0.166609446860E-03  0.177621060056E-03  0.189360456527E-03  0.201875737125E-03
  0.215218181792E-03  0.229442459669E-03  0.244606853098E-03  0.260773496420E-03  0.278008630566E-03
  0.296382874463E-03  0.315971514389E-03  0.336854812441E-03  0.359118335396E-03  0.382853305307E-03
  0.408156973267E-03  0.435133017877E-03  0.463891970048E-03  0.494551665880E-03  0.527237729471E-03
  0.562084087632E-03  0.599233518624E-03  0.638838237158E-03  0.681060518058E-03  0.726073361141E-03
  0.774061200040E-03  0.825220657867E-03  0.879761352824E-03  0.937906757051E-03  0.999895112234E-03
  0.106598040572E-02  0.113643341116E-02  0.121154279787E-02  0.129161631361E-02  0.137698204540E-02
  0.146798976377E-02  0.156501235574E-02  0.166844735264E-02  0.177871855872E-02  0.189627778756E-02
  0.202160671308E-02  0.215521884296E-02  0.229766162245E-02  0.244951867717E-02  0.261141220417E-02
  0.278400552095E-02  0.296800578292E-02  0.316416688044E-02  0.337329252732E-02  0.359623955328E-02
  0.383392141413E-02  0.408731193373E-02  0.435744929330E-02  0.464544028424E-02  0.495246484198E-02
  0.527978087933E-02  0.562872943924E-02  0.600074018788E-02  0.639733727069E-02  0.682014555524E-02
  0.727089728657E-02  0.775143918205E-02  0.826373999503E-02  0.880989857797E-02  0.939215247826E-02
  0.100128871017E-01  0.106746454811E-01  0.113801386904E-01  0.121322569459E-01  0.129340814411E-01
  0.137888969627E-01  0.147002053401E-01  0.156717397817E-01  0.167074801591E-01  0.178116692995E-01
  0.189888303535E-01  0.202437853092E-01  0.215816747286E-01  0.230079787861E-01  0.245285396949E-01
  0.261495856137E-01  0.278777561300E-01  0.297201294243E-01  0.316842512258E-01  0.337781656782E-01
  0.360104482392E-01  0.383902407501E-01  0.409272888164E-01  0.436319816510E-01  0.465153945438E-01
  0.495893341281E-01  0.528663866276E-01  0.563599692814E-01  0.600843851530E-01  0.640548815463E-01
  0.682877122650E-01  0.728002039666E-01  0.776108268786E-01  0.827392701627E-01  0.882065222307E-01
  0.940349563344E-01  0.100248421774E+00  0.106872341093E+00  0.113933813643E+00  0.121461725944E+00
  0.129486869267E+00  0.138042064924E+00  0.147162297748E+00  0.156884858305E+00  0.167249494402E+00
  0.178298572481E+00  0.190077249546E+00  0.202633656298E+00  0.216019092194E+00  0.230288233197E+00
  0.245499353025E+00  0.261714558770E+00  0.279000041781E+00  0.297426344808E+00  0.317068646405E+00
  0.338007063701E+00  0.360326974698E+00  0.384119361291E+00  0.409481174338E+00  0.436515722131E+00
  0.465333083709E+00  0.496050548574E+00  0.528793084386E+00  0.563693834380E+00  0.600894646280E+00
  0.640546634616E+00  0.682810778443E+00  0.727858556550E+00  0.775872622379E+00  0.827047520952E+00
  0.881590450254E+00  0.939722069581E+00  0.100167735753E+01  0.106770652240E+01  0.113807596782E+01
  0.121306931674E+01  0.129298849668E+01  0.137815488963E+01  0.146891054981E+01  0.156561949264E+01
  0.166866905850E+01  0.177847135468E+01  0.189546477921E+01  0.202011563003E+01  0.215291980322E+01
  0.229440458376E+01  0.244513053225E+01  0.260569347110E+01  0.277672657316E+01  0.295890255590E+01
  0.315293598365E+01  0.335958568015E+01  0.357965725313E+01  0.381400573205E+01  0.406353831926E+01
  0.432921725412E+01  0.461206278837E+01  0.491315626984E+01  0.523364332996E+01  0.557473716902E+01
  0.593772193059E+01  0.632395615451E+01  0.673487629473E+01  0.717200028517E+01  0.763693113303E+01
  0.813136051440E+01  0.865707234239E+01  0.921594627213E+01  0.980996110051E+01  0.104411980113E+02
  0.111118436079E+02  0.118241926666E+02  0.125806505318E+02  0.133837350654E+02  0.142360780438E+02
  0.151404258882E+02  0.160996395892E+02  0.171166936754E+02  0.181946740489E+02  0.193367744921E+02
  0.205462916226E+02  0.218266180459E+02  0.231812334268E+02  0.246136931653E+02  0.261276143300E+02
  0.277266584641E+02  0.294145108366E+02  0.311948556726E+02  0.330713468515E+02  0.350475735166E+02
  0.371270199950E+02  0.393130193838E+02  0.416087001145E+02  0.440169247712E+02  0.465402204054E+02
  0.491806995701E+02  0.519399712828E+02  0.548190411366E+02  0.578181998079E+02  0.609368992671E+02
  0.641736160904E+02  0.675257014133E+02  0.709892172553E+02  0.745587592071E+02  0.782272658108E+02
  0.819858153964E+02  0.858234116829E+02  0.897267601286E+02  0.936800378329E+02  0.976646607861E+02
  0.101659053435E+03  0.105638426914E+03  0.109574573890E+03  0.113435689787E+03  0.117186232211E+03
  0.120786832657E+03  0.124194277016E+03  0.127361573978E+03  0.130238133041E+03  0.132770076331E+03
  0.134900710748E+03  0.136571188634E+03  0.137721386158E+03  0.138291028236E+03  0.138221086820E+03
  0.137455474912E+03  0.135943051207E+03  0.133639938755E+03  0.130512144652E+03  0.126538445474E+03
  0.121713473861E+03  0.116050904519E+03  0.109586592139E+03  0.102381459166E+03  0.945238684047E+02
  0.861311456837E+02  0.773498443445E+02  0.683542712777E+02  0.593427314925E+02  0.505309059571E+02
  0.421417708088E+02  0.343915145167E+02  0.274710371794E+02  0.215228507714E+02  0.166135712424E+02
  0.127027937606E+02  0.963969778814E+01  0.725898021557E+01  0.542276067819E+01  0.401765269330E+01
  0.295118633700E+01  0.214857097819E+01  0.154981617337E+01  0.110720816440E+01  0.783125465060E+00
  0.548169031351E+00  0.379578172866E+00  0.259901774727E+00  0.175894568806E+00  0.117609406481E+00
  0.776583365207E-01  0.506174641513E-01  0.325529051436E-01  0.206475441029E-01  0.129107011642E-01
  0.795514214442E-02  0.482809172286E-02  0.288497466599E-02  0.169648901571E-02  0.981290780547E-03
  0.558040598289E-03  0.311835364150E-03  0.171131844852E-03  0.921763741957E-04  0.486980628810E-04
  0.252179562342E-04  0.127909017995E-04  0.634977503832E-05  0.308277783244E-05  0.146252658031E-05
  0.677463423810E-06  0.306143231980E-06  0.134849832266E-06  0.578478870362E-07  0.241464999368E-07
  0.979855105343E-08  0.386201588385E-08  0.147708453667E-08  0.547671555025E-09  0.196667087955E-09
  0.683282911440E-10  0.229442578232E-10  0.743849007232E-11  0.232568141165E-11  0.700440757085E-12
  0.202970252722E-12  0.565196433265E-13  0.151049810806E-13
 local pseudopotential core
 -0.182931178359E+03 -0.182931999765E+03 -0.182932795301E+03 -0.182933565781E+03 -0.182934311996E+03
 -0.182935034707E+03 -0.182935734657E+03 -0.182936412561E+03 -0.182937069114E+03 -0.182937704988E+03
 -0.182938320835E+03 -0.182938917284E+03 -0.182939494947E+03 -0.182940054414E+03 -0.182940596260E+03
 -0.182941121039E+03 -0.182941629287E+03 -0.182942121526E+03 -0.182942598259E+03 -0.182943059975E+03
 -0.182943507147E+03 -0.182943940231E+03 -0.182944359672E+03 -0.182944765899E+03 -0.182945159327E+03
 -0.182945540360E+03 -0.182945909387E+03 -0.182946266787E+03 -0.182946612925E+03 -0.182946948155E+03
 -0.182947272821E+03 -0.182947587254E+03 -0.182947891777E+03 -0.182948186701E+03 -0.182948472327E+03
 -0.182948748949E+03 -0.182949016848E+03 -0.182949276300E+03 -0.182949527568E+03 -0.182949770911E+03
 -0.182950006577E+03 -0.182950234807E+03 -0.182950455834E+03 -0.182950669883E+03 -0.182950877175E+03
 -0.182951077920E+03 -0.182951272323E+03 -0.182951460583E+03 -0.182951642891E+03 -0.182951819435E+03
 -0.182951990393E+03 -0.182952155940E+03 -0.182952316245E+03 -0.182952471471E+03 -0.182952621775E+03
 -0.182952767312E+03 -0.182952908227E+03 -0.182953044665E+03 -0.182953176765E+03 -0.182953304658E+03
 -0.182953428477E+03 -0.182953548344E+03 -0.182953664383E+03 -0.182953776708E+03 -0.182953885435E+03
 -0.182953990671E+03 -0.182954092522E+03 -0.182954191091E+03 -0.182954286476E+03 -0.182954378772E+03
 -0.182954468070E+03 -0.182954554459E+03 -0.182954638024E+03 -0.182954718847E+03 -0.182954797007E+03
 -0.182954872581E+03 -0.182954945641E+03 -0.182955016258E+03 -0.182955084500E+03 -0.182955150431E+03
 -0.182955214113E+03 -0.182955275606E+03 -0.182955334966E+03 -0.182955392249E+03 -0.182955447504E+03
 -0.182955500783E+03 -0.182955552130E+03 -0.182955601591E+03 -0.182955649206E+03 -0.182955695016E+03
 -0.182955739056E+03 -0.182955781360E+03 -0.182955821961E+03 -0.182955860888E+03 -0.182955898166E+03
 -0.182955933821E+03 -0.182955967873E+03 -0.182956000341E+03 -0.182956031241E+03 -0.182956060587E+03
 -0.182956088389E+03 -0.182956114655E+03 -0.182956139389E+03 -0.182956162594E+03 -0.182956184267E+03
 -0.182956204405E+03 -0.182956222998E+03 -0.182956240036E+03 -0.182956255504E+03 -0.182956269382E+03
 -0.182956281647E+03 -0.182956292274E+03 -0.182956301230E+03 -0.182956308481E+03 -0.182956313985E+03
 -0.182956317697E+03 -0.182956319567E+03 -0.182956319539E+03 -0.182956317550E+03 -0.182956313534E+03
 -0.182956307415E+03 -0.182956299113E+03 -0.182956288540E+03 -0.182956275599E+03 -0.182956260186E+03
 -0.182956242190E+03 -0.182956221488E+03 -0.182956197950E+03 -0.182956171434E+03 -0.182956141788E+03
 -0.182956108849E+03 -0.182956072441E+03 -0.182956032375E+03 -0.182955988450E+03 -0.182955940448E+03
 -0.182955888136E+03 -0.182955831266E+03 -0.182955769571E+03 -0.182955702766E+03 -0.182955630545E+03
 -0.182955552581E+03 -0.182955468527E+03 -0.182955378008E+03 -0.182955280625E+03 -0.182955175954E+03
 -0.182955063539E+03 -0.182954942893E+03 -0.182954813499E+03 -0.182954674802E+03 -0.182954526210E+03
 -0.182954367093E+03 -0.182954196776E+03 -0.182954014541E+03 -0.182953819621E+03 -0.182953611197E+03
 -0.182953388395E+03 -0.182953150284E+03 -0.182952895869E+03 -0.182952624091E+03 -0.182952333819E+03
 -0.182952023845E+03 -0.182951692884E+03 -0.182951339562E+03 -0.182950962417E+03 -0.182950559886E+03
 -0.182950130306E+03 -0.182949671901E+03 -0.182949182776E+03 -0.182948660914E+03 -0.182948104160E+03
 -0.182947510218E+03 -0.182946876639E+03 -0.182946200813E+03 -0.182945479953E+03 -0.182944711091E+03
 -0.182943891059E+03 -0.182943016480E+03 -0.182942083753E+03 -0.182941089038E+03 -0.182940028239E+03
 -0.182938896989E+03 -0.182937690630E+03 -0.182936404195E+03 -0.182935032388E+03 -0.182933569558E+03
 -0.182932009682E+03 -0.182930346334E+03 -0.182928572662E+03 -0.182926681356E+03 -0.182924664622E+03
 -0.182922514146E+03 -0.182920221059E+03 -0.182917775901E+03 -0.182915168583E+03 -0.182912388342E+03
 -0.182909423696E+03 -0.182906262395E+03 -0.182902891372E+03 -0.182899296685E+03 -0.182895463460E+03
 -0.182891375824E+03 -0.182887016842E+03 -0.182882368441E+03 -0.182877411334E+03 -0.182872124938E+03
 -0.182866487284E+03 -0.182860474921E+03 -0.182854062817E+03 -0.182847224248E+03 -0.182839930680E+03
 -0.182832151650E+03 -0.182823854621E+03 -0.182815004848E+03 -0.182805565219E+03 -0.182795496089E+03
 -0.182784755101E+03 -0.182773296999E+03 -0.182761073417E+03 -0.182748032659E+03 -0.182734119463E+03
 -0.182719274744E+03 -0.182703435315E+03 -0.182686533596E+03 -0.182668497286E+03 -0.182649249021E+03
 -0.182628706003E+03 -0.182606779590E+03 -0.182583374868E+03 -0.182558390172E+03 -0.182531716582E+03
 -0.182503237367E+03 -0.182472827385E+03 -0.182440352437E+03 -0.182405668558E+03 -0.182368621250E+03
 -0.182329044653E+03 -0.182286760633E+03 -0.182241577796E+03 -0.182193290413E+03 -0.182141677239E+03
 -0.182086500236E+03 -0.182027503168E+03 -0.181964410066E+03 -0.181896923549E+03 -0.181824722982E+03
 -0.181747462459E+03 -0.181664768585E+03 -0.181576238045E+03 -0.181481434919E+03 -0.181379887745E+03
 -0.181271086270E+03 -0.181154477877E+03 -0.181029463639E+03 -0.180895393971E+03 -0.180751563826E+03
 -0.180597207381E+03 -0.180431492171E+03 -0.180253512599E+03 -0.180062282751E+03 -0.179856728446E+03
 -0.179635678440E+03 -0.179397854675E+03 -0.179141861494E+03 -0.178866173694E+03 -0.178569123301E+03
 -0.178248884939E+03 -0.177903459648E+03 -0.177530656997E+03 -0.177128075346E+03 -0.176693080079E+03
 -0.176222779633E+03 -0.175713999183E+03 -0.175163251789E+03 -0.174566706886E+03 -0.173920155995E+03
 -0.173218975589E+03 -0.172458087137E+03 -0.171631914434E+03 -0.170734338493E+03 -0.169758650499E+03
 -0.168697503617E+03 -0.167542864858E+03 -0.166285968782E+03 -0.164917275554E+03 -0.163426436909E+03
 -0.161802274901E+03 -0.160032780074E+03 -0.158105138024E+03 -0.156005796214E+03 -0.153720586684E+03
 -0.151234924863E+03 -0.148534110243E+03 -0.145603761019E+03 -0.142430421605E+03 -0.139002388404E+03
 -0.135310803742E+03 -0.131351067868E+03 -0.127124610130E+03 -0.122641036879E+03 -0.117920627318E+03
 -0.112997070492E+03 -0.107920219508E+03 -0.102758482067E+03 -0.976002834439E+02 -0.925538679020E+02
 -0.877446175122E+02 -0.833091612726E+02 -0.793859191110E+02 -0.761024162638E+02 -0.735606434111E+02
 -0.718236939002E+02 -0.704138130311E+02 -0.681752108234E+02 -0.660141349152E+02 -0.639248052458E+02
 -0.619040627955E+02 -0.599490480223E+02 -0.580571520603E+02 -0.562259756435E+02 -0.544532961954E+02
 -0.527370384880E+02 -0.510752544834E+02 -0.494661025032E+02 -0.479078347236E+02 -0.463987834723E+02
 -0.449373533004E+02 -0.435220125928E+02 -0.421512879867E+02 -0.408237595424E+02 -0.395380569281E+02
 -0.382928563283E+02 -0.370868778855E+02 -0.359188835895E+02 -0.347876754236E+02 -0.336920937892E+02
 -0.326310160381E+02 -0.316033551769E+02 -0.306080586350E+02 -0.296441071159E+02 -0.287105134911E+02
 -0.278063217492E+02 -0.269306059992E+02 -0.260824695017E+02 -0.252610437418E+02 -0.244654875370E+02
 -0.236949861801E+02 -0.229487506062E+02 -0.222260165920E+02 -0.215260439769E+02 -0.208481159089E+02
 -0.201915381129E+02 -0.195556381813E+02 -0.189397648859E+02 -0.183432875110E+02 -0.177655952074E+02
 -0.172060963657E+02 -0.166642180106E+02 -0.161394052132E+02 -0.156311205222E+02 -0.151388434133E+02
 -0.146620697558E+02 -0.142003112960E+02 -0.137530951572E+02
 pspotential valence only
 -0.526329372116E+02 -0.526337586340E+02 -0.526345541876E+02 -0.526353246869E+02 -0.526360709212E+02
 -0.526367936542E+02 -0.526374936266E+02 -0.526381715554E+02 -0.526388281343E+02 -0.526394640359E+02
 -0.526400799118E+02 -0.526406763923E+02 -0.526412540884E+02 -0.526418135917E+02 -0.526423554755E+02
 -0.526428802945E+02 -0.526433885862E+02 -0.526438808712E+02 -0.526443576537E+02 -0.526448194219E+02
 -0.526452666490E+02 -0.526456997927E+02 -0.526461192970E+02 -0.526465255914E+02 -0.526469190919E+02
 -0.526473002018E+02 -0.526476693112E+02 -0.526480267983E+02 -0.526483730291E+02 -0.526487083586E+02
 -0.526490331302E+02 -0.526493476762E+02 -0.526496523192E+02 -0.526499473712E+02 -0.526502331344E+02
 -0.526505099016E+02 -0.526507779564E+02 -0.526510375735E+02 -0.526512890187E+02 -0.526515325499E+02
 -0.526517684164E+02 -0.526519968600E+02 -0.526522181149E+02 -0.526524324079E+02 -0.526526399585E+02
 -0.526528409797E+02 -0.526530356774E+02 -0.526532242513E+02 -0.526534068948E+02 -0.526535837952E+02
 -0.526537551340E+02 -0.526539210870E+02 -0.526540818244E+02 -0.526542375113E+02 -0.526543883074E+02
 -0.526545343676E+02 -0.526546758419E+02 -0.526548128758E+02 -0.526549456099E+02 -0.526550741808E+02
 -0.526551987207E+02 -0.526553193579E+02 -0.526554362163E+02 -0.526555494166E+02 -0.526556590751E+02
 -0.526557653053E+02 -0.526558682165E+02 -0.526559679151E+02 -0.526560645042E+02 -0.526561580836E+02
 -0.526562487504E+02 -0.526563365985E+02 -0.526564217191E+02 -0.526565042006E+02 -0.526565841291E+02
 -0.526566615878E+02 -0.526567366575E+02 -0.526568094171E+02 -0.526568799426E+02 -0.526569483083E+02
 -0.526570145863E+02 -0.526570788465E+02 -0.526571411573E+02 -0.526572015848E+02 -0.526572601936E+02
 -0.526573170466E+02 -0.526573722050E+02 -0.526574257285E+02 -0.526574776754E+02 -0.526575281025E+02
 -0.526575770653E+02 -0.526576246182E+02 -0.526576708143E+02 -0.526577157057E+02 -0.526577593432E+02
 -0.526578017771E+02 -0.526578430564E+02 -0.526578832297E+02 -0.526579223444E+02 -0.526579604476E+02
 -0.526579975858E+02 -0.526580338049E+02 -0.526580691502E+02 -0.526581036671E+02 -0.526581374005E+02
 -0.526581703950E+02 -0.526582026953E+02 -0.526582343460E+02 -0.526582653920E+02 -0.526582958782E+02
 -0.526583258498E+02 -0.526583553525E+02 -0.526583844324E+02 -0.526584131364E+02 -0.526584415119E+02
 -0.526584696073E+02 -0.526584974720E+02 -0.526585251566E+02 -0.526585527127E+02 -0.526585801935E+02
 -0.526586076538E+02 -0.526586351501E+02 -0.526586627407E+02 -0.526586904863E+02 -0.526587184494E+02
 -0.526587466956E+02 -0.526587752926E+02 -0.526588043115E+02 -0.526588338264E+02 -0.526588639148E+02
 -0.526588946579E+02 -0.526589261412E+02 -0.526589584541E+02 -0.526589916908E+02 -0.526590259507E+02
 -0.526590613382E+02 -0.526590979637E+02 -0.526591359436E+02 -0.526591754011E+02 -0.526592164661E+02
 -0.526592592766E+02 -0.526593039783E+02 -0.526593507257E+02 -0.526593996826E+02 -0.526594510228E+02
 -0.526595049304E+02 -0.526595616012E+02 -0.526596212429E+02 -0.526596840762E+02 -0.526597503355E+02
 -0.526598202700E+02 -0.526598941449E+02 -0.526599722417E+02 -0.526600548602E+02 -0.526601423192E+02
 -0.526602349580E+02 -0.526603331376E+02 -0.526604372423E+02 -0.526605476812E+02 -0.526606648899E+02
 -0.526607893319E+02 -0.526609215013E+02 -0.526610619238E+02 -0.526612111597E+02 -0.526613698055E+02
 -0.526615384967E+02 -0.526617179104E+02 -0.526619087677E+02 -0.526621118371E+02 -0.526623279371E+02
 -0.526625579400E+02 -0.526628027752E+02 -0.526630634329E+02 -0.526633409682E+02 -0.526636365054E+02
 -0.526639512427E+02 -0.526642864566E+02 -0.526646435076E+02 -0.526650238452E+02 -0.526654290143E+02
 -0.526658606610E+02 -0.526663205393E+02 -0.526668105185E+02 -0.526673325904E+02 -0.526678888773E+02
 -0.526684816409E+02 -0.526691132910E+02 -0.526697863953E+02 -0.526705036899E+02 -0.526712680899E+02
 -0.526720827012E+02 -0.526729508330E+02 -0.526738760109E+02 -0.526748619909E+02 -0.526759127742E+02
 -0.526770326233E+02 -0.526782260786E+02 -0.526794979766E+02 -0.526808534684E+02 -0.526822980405E+02
 -0.526838375357E+02 -0.526854781764E+02 -0.526872265882E+02 -0.526890898260E+02 -0.526910754010E+02
 -0.526931913093E+02 -0.526954460631E+02 -0.526978487222E+02 -0.527004089290E+02 -0.527031369442E+02
 -0.527060436857E+02 -0.527091407687E+02 -0.527124405486E+02 -0.527159561666E+02 -0.527197015970E+02
 -0.527236916977E+02 -0.527279422631E+02 -0.527324700799E+02 -0.527372929858E+02 -0.527424299309E+02
 -0.527479010423E+02 -0.527537276917E+02 -0.527599325662E+02 -0.527665397419E+02 -0.527735747611E+02
 -0.527810647122E+02 -0.527890383128E+02 -0.527975259956E+02 -0.528065599974E+02 -0.528161744505E+02
 -0.528264054763E+02 -0.528372912809E+02 -0.528488722531E+02 -0.528611910621E+02 -0.528742927567E+02
 -0.528882248644E+02 -0.529030374879E+02 -0.529187834015E+02 -0.529355181416E+02 -0.529533000947E+02
 -0.529721905768E+02 -0.529922539048E+02 -0.530135574577E+02 -0.530361717228E+02 -0.530601703262E+02
 -0.530856300425E+02 -0.531126307812E+02 -0.531412555430E+02 -0.531715903434E+02 -0.532037240961E+02
 -0.532377484497E+02 -0.532737575708E+02 -0.533118478654E+02 -0.533521176285E+02 -0.533946666116E+02
 -0.534395954978E+02 -0.534870052701E+02 -0.535369964604E+02 -0.535896682632E+02 -0.536451174972E+02
 -0.537034373976E+02 -0.537647162188E+02 -0.538290356277E+02 -0.538964688649E+02 -0.539670786521E+02
 -0.540409148208E+02 -0.541180116393E+02 -0.541983848142E+02 -0.542820281429E+02 -0.543689097956E+02
 -0.544589682090E+02 -0.545521075754E+02 -0.546481929190E+02 -0.547470447572E+02 -0.548484333541E+02
 -0.549520725875E+02 -0.550576134633E+02 -0.551646373328E+02 -0.552726488905E+02 -0.553810690545E+02
 -0.554892278681E+02 -0.555963575919E+02 -0.557015862018E+02 -0.558039315480E+02 -0.559022964820E+02
 -0.559954653055E+02 -0.560821019437E+02 -0.561607502876E+02 -0.562298371834E+02 -0.562876785579E+02
 -0.563324891559E+02 -0.563623963054E+02 -0.563754580059E+02 -0.563696854324E+02 -0.563430696236E+02
 -0.562936116560E+02 -0.562193549395E+02 -0.561184173718E+02 -0.559890199267E+02 -0.558295068087E+02
 -0.556383506664E+02 -0.554141346925E+02 -0.551555021581E+02 -0.548610636841E+02 -0.545292542256E+02
 -0.541581360893E+02 -0.537451512894E+02 -0.532868345652E+02 -0.527785051247E+02 -0.522139725982E+02
 -0.515863384417E+02 -0.508098256401E+02 -0.500445409976E+02 -0.492531499516E+02 -0.484366679430E+02
 -0.475984097277E+02 -0.467417115713E+02 -0.458698779748E+02 -0.449861290549E+02 -0.440935111782E+02
 -0.431947989632E+02 -0.422923922939E+02 -0.413882199453E+02 -0.404836774957E+02 -0.395796168257E+02
 -0.386764085822E+02 -0.377740789655E+02 -0.368725116441E+02 -0.359716711011E+02 -0.350718265654E+02
 -0.341737195508E+02 -0.332786612653E+02 -0.323885471353E+02 -0.315057941122E+02 -0.306332144326E+02
 -0.297738426918E+02 -0.289307334733E+02 -0.281067472533E+02 -0.273043443402E+02 -0.265254093624E+02
 -0.257711294412E+02 -0.250419446041E+02 -0.243375781110E+02 -0.236571395512E+02 -0.229992797453E+02
 -0.223623685725E+02 -0.217446670070E+02 -0.211444715819E+02 -0.205602196390E+02 -0.199905534109E+02
 -0.194343478912E+02 -0.188907109816E+02 -0.183589651041E+02 -0.178386183949E+02 -0.173293317259E+02
 -0.168308858269E+02 -0.163431510869E+02 -0.158660613263E+02 -0.153995919584E+02 -0.149437424178E+02
 -0.144985224443E+02 -0.140639416877E+02 -0.136400020814E+02
 core charge-density (pseudized)
  0.337208014235E-07  0.359494900585E-07  0.383254780688E-07  0.408585008232E-07  0.435589371241E-07
  0.464378517340E-07  0.495070407119E-07  0.527790797466E-07  0.562673756843E-07  0.599862214617E-07
  0.639508546698E-07  0.681775199885E-07  0.726835357474E-07  0.774873648859E-07  0.826086906032E-07
  0.880684970081E-07  0.938891550993E-07  0.100094514428E-06  0.106710000820E-06  0.113762720553E-06
  0.121281571425E-06  0.129297361157E-06  0.137842933626E-06  0.146953303440E-06  0.156665799404E-06
  0.167020217475E-06  0.178058983817E-06  0.189827328642E-06  0.202373471532E-06  0.215748819017E-06
  0.230008175208E-06  0.245209966346E-06  0.261416480203E-06  0.278694121298E-06  0.297113682980E-06
  0.316750637497E-06  0.337685445239E-06  0.360003884411E-06  0.383797402500E-06  0.409163490974E-06
  0.436206084742E-06  0.465035988014E-06  0.495771328310E-06  0.528538040472E-06  0.563470382671E-06
  0.600711486515E-06  0.640413943510E-06  0.682740430290E-06  0.727864375164E-06  0.775970668717E-06
  0.827256421382E-06  0.881931771070E-06  0.940220744190E-06  0.100236217356E-05  0.106861067702E-05
  0.113923770067E-05  0.121453263108E-05  0.129480398106E-05  0.138038065369E-05  0.147161329003E-05
  0.156887570573E-05  0.167256642279E-05  0.178311030237E-05  0.190096028566E-05  0.202659924968E-05
  0.216054198585E-05  0.230333730925E-05  0.245557030731E-05  0.261786473711E-05  0.279088558114E-05
  0.297534177193E-05  0.317198909682E-05  0.338163329465E-05  0.360513335712E-05  0.384340504840E-05
  0.409742465725E-05  0.436823299721E-05  0.465693967114E-05  0.496472761754E-05  0.529285795747E-05
  0.564267516166E-05  0.601561255921E-05  0.641319821030E-05  0.683706116709E-05  0.728893814830E-05
  0.777068065503E-05  0.828426255672E-05  0.883178817859E-05  0.941550092345E-05  0.100377924634E-04
  0.107012125389E-04  0.114084794055E-04  0.121624909710E-04  0.129663366686E-04  0.138233101143E-04
  0.147369226019E-04  0.157109174884E-04  0.167492855309E-04  0.178562812373E-04  0.190364402964E-04
  0.202945981612E-04  0.216359098590E-04  0.230658711118E-04  0.245903408512E-04  0.262155652219E-04
  0.279482031711E-04  0.297953537290E-04  0.317645850914E-04  0.338639656248E-04  0.361020969198E-04
  0.384881490283E-04  0.410318980296E-04  0.437437660779E-04  0.466348640963E-04  0.497170372918E-04
  0.530029136769E-04  0.565059557970E-04  0.602405158757E-04  0.642218946031E-04  0.684664038072E-04
  0.729914332661E-04  0.778155219338E-04  0.829584338701E-04  0.884412391870E-04  0.942864003406E-04
  0.100517864124E-03  0.107161159733E-03  0.114243503315E-03  0.121793909411E-03  0.129843309768E-03
  0.138424679993E-03  0.147573174564E-03  0.157326270765E-03  0.167723922116E-03  0.178808721934E-03
  0.190626077692E-03  0.203224396885E-03  0.216655285160E-03  0.230973757528E-03  0.246238463507E-03
  0.262511927120E-03  0.279860802728E-03  0.298356147740E-03  0.318073713302E-03  0.339094254165E-03
  0.361503858976E-03  0.385394302350E-03  0.410863420141E-03  0.438015509454E-03  0.466961754999E-03
  0.497820683549E-03  0.530718648316E-03  0.565790345221E-03  0.603179363163E-03  0.643038770486E-03
  0.685531740043E-03  0.730832215365E-03  0.779125620644E-03  0.830609617368E-03  0.885494910681E-03
  0.944006108705E-03  0.100638263828E-02  0.107287972078E-02  0.114376941198E-02  0.121934171003E-02
  0.129990573610E-02  0.138579099228E-02  0.147734870184E-02  0.157495323715E-02  0.167900364088E-02
  0.178992524659E-02  0.190817140508E-02  0.203422532324E-02  0.216860202276E-02  0.231185042623E-02
  0.246455557887E-02  0.262734101463E-02  0.280087127555E-02  0.298585459454E-02  0.318304575150E-02
  0.339324911408E-02  0.361732187443E-02  0.385617749442E-02  0.411078937220E-02  0.438219474407E-02
  0.467149883599E-02  0.497987928032E-02  0.530859081404E-02  0.565897027551E-02  0.603244191801E-02
  0.643052305913E-02  0.685483008604E-02  0.730708483795E-02  0.778912138782E-02  0.830289324675E-02
  0.885048101557E-02  0.943410050909E-02  0.100561113799E-01  0.107190262698E-01  0.114255205173E-01
  0.121784424525E-01  0.129808243101E-01  0.138358937924E-01  0.147470863169E-01  0.157180579824E-01
  0.167526992885E-01  0.178551496443E-01  0.190298127036E-01  0.202813725622E-01  0.216148108546E-01
  0.230354247857E-01  0.245488461348E-01  0.261610612647E-01  0.278784321700E-01  0.297077185953E-01
  0.316561012503E-01  0.337312061460E-01  0.359411300720E-01  0.382944672266E-01  0.408003370057E-01
  0.434684129491E-01  0.463089528278E-01  0.493328298494E-01  0.525515649374E-01  0.559773600286E-01
  0.596231323079E-01  0.635025492781E-01  0.676300645345E-01  0.720209540812E-01  0.766913529895E-01
  0.816582921564E-01  0.869397348716E-01  0.925546128468E-01  0.985228612961E-01  0.104865452585E+00
  0.111604427882E+00  0.118762926155E+00  0.126365209752E+00  0.134436685674E+00  0.143003921544E+00
  0.152094655088E+00  0.161737795815E+00  0.171963417370E+00  0.182802738848E+00  0.194288093122E+00
  0.206452879976E+00  0.219331501594E+00  0.232959277610E+00  0.247372336645E+00  0.262607480870E+00
  0.278702019780E+00  0.295693568951E+00  0.313619809142E+00  0.332518200646E+00  0.352425647368E+00
  0.373378104623E+00  0.395410124224E+00  0.418554329962E+00  0.442840816235E+00  0.468296462197E+00
  0.494944153563E+00  0.522801904106E+00  0.551881868856E+00  0.582189241297E+00  0.613721027370E+00
  0.646464689924E+00  0.680396658588E+00  0.715480701825E+00  0.751666160422E+00  0.788886044897E+00
  0.827055003481E+00  0.866067172572E+00  0.905793928086E+00  0.946081564102E+00  0.986748934795E+00
  0.102758510714E+01  0.106834708531E+01  0.110875768341E+01  0.114850364097E+01  0.118723409605E+01
  0.122455955285E+01  0.126005150534E+01  0.129324290393E+01  0.132362967839E+01  0.135067355616E+01
  0.137380643828E+01  0.139243661423E+01  0.140595710787E+01  0.141375644633E+01  0.141523212697E+01
  0.140980701762E+01  0.139694885658E+01  0.137619291130E+01  0.134716769950E+01  0.130962346431E+01
  0.126346281362E+01  0.120877257565E+01  0.114585547880E+01  0.107525973119E+01  0.997803957367E+00
  0.914594259031E+00  0.827029432428E+00  0.736789643721E+00  0.645803210017E+00  0.556185663179E+00
  0.470145131146E+00  0.389848445320E+00  0.317243506052E+00  0.253835586164E+00  0.200418727773E+00
  0.156770901622E+00  0.121636726743E+00  0.935894453694E-01  0.713875862082E-01  0.539657004485E-01
  0.404178355548E-01  0.299809051185E-01  0.220183639940E-01  0.160045058308E-01  0.115096245234E-01
  0.818621744465E-02  0.575635315633E-02  0.400027729330E-02  0.274628673328E-02  0.186186368210E-02
  0.124602838679E-02  0.822842279236E-03  0.535972868541E-03  0.344217695750E-03  0.217876823718E-03
  0.135861022795E-03  0.834251407203E-04  0.504221576308E-04  0.299821496076E-04  0.175308970101E-04
  0.100743290420E-04  0.568664140929E-05  0.315113064397E-05  0.171307756421E-05  0.913068712148E-06
  0.476813945833E-06  0.243784106641E-06  0.121942369105E-06  0.596306700054E-07  0.284849696915E-07
  0.132816146164E-07  0.603985046624E-08  0.267661505285E-08  0.115496002330E-08  0.484839755984E-09
  0.197833529739E-09  0.783939393057E-10  0.301401837878E-10  0.112325531106E-10  0.405374220406E-11
  0.141527670496E-11  0.477510029960E-12  0.155529531843E-12  0.488483628986E-13  0.147772973250E-13
  0.430062665686E-14  0.120261393422E-14  0.322720080892E-15
 pseudo wavefunction
  0.148511989937E-03  0.153341229327E-03  0.158327503530E-03  0.163475918928E-03  0.168791747948E-03
  0.174280434461E-03  0.179947599362E-03  0.185799046323E-03  0.191840767737E-03  0.198078950852E-03
  0.204519984112E-03  0.211170463699E-03  0.218037200282E-03  0.225127226000E-03  0.232447801657E-03
  0.240006424160E-03  0.247810834199E-03  0.255869024169E-03  0.264189246359E-03  0.272780021403E-03
  0.281650147002E-03  0.290808706937E-03  0.300265080372E-03  0.310028951457E-03  0.320110319246E-03
  0.330519507936E-03  0.341267177443E-03  0.352364334316E-03  0.363822343008E-03  0.375652937516E-03
  0.387868233397E-03  0.400480740176E-03  0.413503374154E-03  0.426949471640E-03  0.440832802605E-03
  0.455167584782E-03  0.469968498232E-03  0.485250700373E-03  0.501029841504E-03  0.517322080829E-03
  0.534144103012E-03  0.551513135257E-03  0.569446964953E-03  0.587963957890E-03  0.607083077064E-03
  0.626823902102E-03  0.647206649307E-03  0.668252192365E-03  0.689982083719E-03  0.712418576643E-03
  0.735584648028E-03  0.759504021914E-03  0.784201193783E-03  0.809701455647E-03  0.836030921946E-03
  0.863216556293E-03  0.891286199086E-03  0.920268596017E-03  0.950193427511E-03  0.981091339121E-03
  0.101299397291E-02  0.104593399985E-02  0.107994515329E-02  0.111506226348E-02  0.115132129328E-02
  0.118875937494E-02  0.122741484814E-02  0.126732729928E-02  0.130853760198E-02  0.135108795895E-02
  0.139502194522E-02  0.144038455274E-02  0.148722223648E-02  0.153558296196E-02  0.158551625442E-02
  0.163707324949E-02  0.169030674558E-02  0.174527125793E-02  0.180202307444E-02  0.186062031332E-02
  0.192112298258E-02  0.198359304150E-02  0.204809446406E-02  0.211469330444E-02  0.218345776468E-02
  0.225445826451E-02  0.232776751342E-02  0.240346058518E-02  0.248161499463E-02  0.256231077713E-02
  0.264563057042E-02  0.273165969930E-02  0.282048626299E-02  0.291220122528E-02  0.300689850770E-02
  0.310467508569E-02  0.320563108786E-02  0.330986989851E-02  0.341749826347E-02  0.352862639939E-02
  0.364336810657E-02  0.376184088546E-02  0.388416605693E-02  0.401046888648E-02  0.414087871245E-02
  0.427552907842E-02  0.441455786992E-02  0.455810745551E-02  0.470632483256E-02  0.485936177763E-02
  0.501737500185E-02  0.518052631128E-02  0.534898277249E-02  0.552291688349E-02  0.570250675029E-02
  0.588793626909E-02  0.607939531443E-02  0.627707993346E-02  0.648119254648E-02  0.669194215397E-02
  0.690954455041E-02  0.713422254495E-02  0.736620618927E-02  0.760573301283E-02  0.785304826572E-02
  0.810840516939E-02  0.837206517552E-02  0.864429823323E-02  0.892538306497E-02  0.921560745135E-02
  0.951526852511E-02  0.982467307470E-02  0.101441378576E-01  0.104739899238E-01  0.108145669497E-01
  0.111662175829E-01  0.115293017977E-01  0.119041912628E-01  0.122912697202E-01  0.126909333767E-01
  0.131035913076E-01  0.135296658740E-01  0.139695931526E-01  0.144238233806E-01  0.148928214136E-01
  0.153770671988E-01  0.158770562636E-01  0.163933002192E-01  0.169263272809E-01  0.174766828045E-01
  0.180449298403E-01  0.186316497045E-01  0.192374425688E-01  0.198629280687E-01  0.205087459311E-01
  0.211755566220E-01  0.218640420146E-01  0.225749060778E-01  0.233088755878E-01  0.240667008605E-01
  0.248491565080E-01  0.256570422182E-01  0.264911835592E-01  0.273524328077E-01  0.282416698043E-01
  0.291598028346E-01  0.301077695373E-01  0.310865378404E-01  0.320971069265E-01  0.331405082260E-01
  0.342178064419E-01  0.353301006050E-01  0.364785251598E-01  0.376642510843E-01  0.388884870416E-01
  0.401524805661E-01  0.414575192838E-01  0.428049321687E-01  0.441960908339E-01  0.456324108609E-01
  0.471153531653E-01  0.486464254009E-01  0.502271834021E-01  0.518592326657E-01  0.535442298727E-01
  0.552838844490E-01  0.570799601678E-01  0.589342767921E-01  0.608487117580E-01  0.628252018994E-01
  0.648657452131E-01  0.669724026647E-01  0.691473000357E-01  0.713926298089E-01  0.737106530945E-01
  0.761037015934E-01  0.785741795975E-01  0.811245660263E-01  0.837574164960E-01  0.864753654212E-01
  0.892811281448E-01  0.921775030945E-01  0.951673739611E-01  0.982537118964E-01  0.101439577724E+00
  0.104728124159E+00  0.108122598032E+00  0.111626342504E+00  0.115242799278E+00  0.118975510779E+00
  0.122828122317E+00  0.126804384192E+00  0.130908153762E+00  0.135143397434E+00  0.139514192570E+00
  0.144024729302E+00  0.148679312220E+00  0.153482361920E+00  0.158438416393E+00  0.163552132214E+00
  0.168828285524E+00  0.174271772745E+00  0.179887611021E+00  0.185680938322E+00  0.191657013184E+00
  0.197821214027E+00  0.204179038001E+00  0.210736099309E+00  0.217498126928E+00  0.224470961673E+00
  0.231660552521E+00  0.239072952105E+00  0.246714311299E+00  0.254590872779E+00  0.262708963460E+00
  0.271074985683E+00  0.279695407023E+00  0.288576748572E+00  0.297725571547E+00  0.307148462050E+00
  0.316852013801E+00  0.326842808634E+00  0.337127394563E+00  0.347712261166E+00  0.358603812051E+00
  0.369808334133E+00  0.381331963432E+00  0.393180647097E+00  0.405360101314E+00  0.417875764768E+00
  0.430732747276E+00  0.443935773219E+00  0.457489119360E+00  0.471396546619E+00  0.485661225381E+00
  0.500285653867E+00  0.515271569121E+00  0.530619850129E+00  0.546330412622E+00  0.562402095088E+00
  0.578832535563E+00  0.595618038769E+00  0.612753433249E+00  0.630231918160E+00  0.648044899489E+00
  0.666181815542E+00  0.684629951680E+00  0.703374244429E+00  0.722397075256E+00  0.741678054562E+00
  0.761193796660E+00  0.780917686866E+00  0.800819642149E+00  0.820865867252E+00  0.841018608652E+00
  0.861235909297E+00  0.881471367664E+00  0.901673905388E+00  0.921787548477E+00  0.941751227926E+00
  0.961498606464E+00  0.980957939053E+00  0.100005197574E+01  0.101869791634E+01  0.103680742736E+01
  0.105428673236E+01  0.107103678736E+01  0.108695355355E+01  0.110192837918E+01  0.111584850215E+01
  0.112859768342E+01  0.114005697941E+01  0.115010565825E+01  0.115862226035E+01  0.116548579747E+01
  0.117057707694E+01  0.117378012729E+01  0.117498368929E+01  0.117408272193E+01  0.117097985480E+01
  0.116558669914E+01  0.115782490764E+01  0.114762684963E+01  0.113493574516E+01  0.111970507906E+01
  0.110189709847E+01  0.108148018633E+01  0.105842490468E+01  0.103269851991E+01  0.100425786446E+01
  0.973040463670E+00  0.938951936762E+00  0.902058776822E+00  0.862765368793E+00  0.821523145341E+00
  0.778780363654E+00  0.734976457704E+00  0.690536809050E+00  0.645868009398E+00  0.601353660223E+00
  0.557350731228E+00  0.514186480637E+00  0.472155926362E+00  0.431519854863E+00  0.392503361166E+00
  0.355294929789E+00  0.320046084299E+00  0.286871645491E+00  0.255850636639E+00  0.227027852585E+00
  0.200416072713E+00  0.175998850794E+00  0.153733770182E+00  0.133556019771E+00  0.115382130141E+00
  0.991137116436E-01  0.846410536493E-01  0.718464725903E-01  0.606073304641E-01  0.507986808296E-01
  0.422955319263E-01  0.349747430607E-01  0.287165882710E-01  0.234060293326E-01  0.189337391377E-01
  0.151969089595E-01  0.120998628037E-01  0.955449259823E-02  0.748052187244E-02  0.580560374160E-02
  0.446526091809E-02  0.340267975035E-02  0.256837536045E-02  0.191974947388E-02  0.142056563876E-02
  0.104036783342E-02  0.753867969395E-03  0.540325782454E-03  0.382941468406E-03  0.268277602456E-03
  0.185722788088E-03  0.127005455179E-03  0.857625253647E-04
 ae wavefunction
  0.404846911485E-02  0.416930989184E-02  0.429372824662E-02  0.442182833693E-02  0.455371723900E-02
  0.468950502228E-02  0.482930482558E-02  0.497323293462E-02  0.512140886107E-02  0.527395542293E-02
  0.543099882636E-02  0.559266874879E-02  0.575909842347E-02  0.593042472521E-02  0.610678825743E-02
  0.628833344042E-02  0.647520860069E-02  0.666756606148E-02  0.686556223421E-02  0.706935771094E-02
  0.727911735763E-02  0.749501040818E-02  0.771721055908E-02  0.794589606470E-02  0.818124983282E-02
  0.842345952061E-02  0.867271763061E-02  0.892922160675E-02  0.919317393006E-02  0.946478221408E-02
  0.974425929957E-02  0.100318233484E-01  0.103276979365E-01  0.106321121450E-01  0.109453006504E-01
  0.112675038124E-01  0.115989677592E-01  0.119399444708E-01  0.122906918591E-01  0.126514738437E-01
  0.130225604256E-01  0.134042277546E-01  0.137967581929E-01  0.142004403737E-01  0.146155692521E-01
  0.150424461515E-01  0.154813788006E-01  0.159326813640E-01  0.163966744630E-01  0.168736851869E-01
  0.173640470938E-01  0.178681002004E-01  0.183861909582E-01  0.189186722171E-01  0.194659031737E-01
  0.200282493042E-01  0.206060822793E-01  0.211997798613E-01  0.218097257807E-01  0.224363095910E-01
  0.230799265010E-01  0.237409771812E-01  0.244198675440E-01  0.251170084949E-01  0.258328156531E-01
  0.265677090386E-01  0.273221127244E-01  0.280964544509E-01  0.288911651997E-01  0.297066787250E-01
  0.305434310382E-01  0.314018598445E-01  0.322824039273E-01  0.331855024766E-01  0.341115943593E-01
  0.350611173271E-01  0.360345071572E-01  0.370321967235E-01  0.380546149929E-01  0.391021859429E-01
  0.401753273949E-01  0.412744497603E-01  0.423999546922E-01  0.435522336393E-01  0.447316662954E-01
  0.459386189394E-01  0.471734426601E-01  0.484364714591E-01  0.497280202268E-01  0.510483825837E-01
  0.523978285808E-01  0.537766022533E-01  0.551849190192E-01  0.566229629164E-01  0.580908836710E-01
  0.595887935893E-01  0.611167642661E-01  0.626748231013E-01  0.642629496183E-01  0.658810715748E-01
  0.675290608604E-01  0.692067291720E-01  0.709138234599E-01  0.726500211383E-01  0.744149250518E-01
  0.762080581929E-01  0.780288581625E-01  0.798766713690E-01  0.817507469606E-01  0.836502304859E-01
  0.855741572796E-01  0.875214455706E-01  0.894908893107E-01  0.914811507244E-01  0.934907525795E-01
  0.955180701829E-01  0.975613231057E-01  0.996185666434E-01  0.101687683022E+00  0.103766372359E+00
  0.105852143398E+00  0.107942304030E+00  0.110033951622E+00  0.112123963187E+00  0.114208985408E+00
  0.116285424569E+00  0.118349436417E+00  0.120396915998E+00  0.122423487539E+00  0.124424494397E+00
  0.126394989172E+00  0.128329724032E+00  0.130223141339E+00  0.132069364657E+00  0.133862190247E+00
  0.135595079142E+00  0.137261149922E+00  0.138853172328E+00  0.140363561827E+00  0.141784375297E+00
  0.143107307996E+00  0.144323691961E+00  0.145424496067E+00  0.146400327903E+00  0.147241437714E+00
  0.147937724619E+00  0.148478745349E+00  0.148853725767E+00  0.149051575442E+00  0.149060905548E+00
  0.148870050396E+00  0.148467092907E+00  0.147839894334E+00  0.146976128575E+00  0.145863321403E+00
  0.144488894959E+00  0.142840217844E+00  0.140904661170E+00  0.138669660890E+00  0.136122786752E+00
  0.133251818194E+00  0.130044827477E+00  0.126490270338E+00  0.122577084411E+00  0.118294795618E+00
  0.113633632706E+00  0.108584650024E+00  0.103139858598E+00  0.972923654578E-01  0.910365211118E-01
  0.843680749406E-01  0.772843381846E-01  0.697843540667E-01  0.618690744498E-01  0.535415422718E-01
  0.448070788285E-01  0.356734747831E-01  0.261511835877E-01  0.162535157860E-01  0.599683246235E-02
 -0.459926410957E-02 -0.155117447607E-01 -0.267139749952E-01 -0.381755463485E-01 -0.498621202522E-01
 -0.617352873580E-01 -0.737524455819E-01 -0.858667005060E-01 -0.980267922154E-01 -0.110177053102E+00
 -0.122257401570E+00 -0.134203376882E+00 -0.145946220547E+00 -0.157413009649E+00 -0.168526847387E+00
 -0.179207115785E+00 -0.189369795173E+00 -0.198927854577E+00 -0.207791716695E+00 -0.215869800660E+00
 -0.223069145240E+00 -0.229296114445E+00 -0.234457186721E+00 -0.238459827941E+00 -0.241213447272E+00
 -0.242630433732E+00 -0.242627269827E+00 -0.241125717046E+00 -0.238054066280E+00 -0.233348444302E+00
 -0.226954165420E+00 -0.218827115259E+00 -0.208935151394E+00 -0.197259503235E+00 -0.183796151313E+00
 -0.168557163860E+00 -0.151571966462E+00 -0.132888518673E+00 -0.112574369784E+00 -0.907175646314E-01
 -0.674273694169E-01 -0.428347870798E-01 -0.170928321556E-01  0.962346358193E-02  0.371173405249E-01
  0.651709169703E-01  0.935461265671E-01  0.121985996913E+00  0.150216275117E+00  0.177947407181E+00
  0.204876884309E+00  0.230691977580E+00  0.255072884764E+00  0.277696299184E+00  0.298239378420E+00
  0.316384055081E+00  0.331821614172E+00  0.344257465781E+00  0.353416051752E+00  0.359045825663E+00
  0.360924235362E+00  0.358862624726E+00  0.352710963096E+00  0.342362308839E+00  0.327756915523E+00
  0.308885892390E+00  0.285794333290E+00  0.258583829830E+00  0.227414285659E+00  0.192504950513E+00
  0.154134596074E+00  0.112640761997E+00  0.684180110398E-01  0.219151480692E-01 -0.263686210310E-01
 -0.758885896199E-01 -0.126060484778E+00 -0.176267394065E+00 -0.225867635412E+00 -0.274203510310E+00
 -0.320610819969E+00 -0.364428837656E+00 -0.405010093215E+00 -0.441729054208E+00 -0.473989138053E+00
 -0.501228895018E+00 -0.522929850219E+00 -0.538627876707E+00 -0.547926301258E+00 -0.550506800912E+00
 -0.546136468553E+00 -0.534672082306E+00 -0.516062792686E+00 -0.490351608754E+00 -0.457675534566E+00
 -0.418264081946E+00 -0.372435987700E+00 -0.320594147927E+00 -0.263218942273E+00 -0.200860209677E+00
 -0.134128163075E+00 -0.636835184936E-01  0.977291111470E-02  0.855109345600E-01  0.162781815146E+00
  0.240829038084E+00  0.318898847250E+00  0.396250396046E+00  0.472165364685E+00  0.545956906042E+00
  0.616977796556E+00  0.684627689071E+00  0.748359391195E+00  0.807684111886E+00  0.862175621884E+00
  0.911473248704E+00  0.955283576899E+00  0.993380697079E+00  0.102560490969E+01  0.105186000955E+01
  0.107210962101E+01  0.108637334170E+01  0.109472344178E+01  0.109728247314E+01  0.109422157178E+01
  0.108575886133E+01  0.107215732413E+01  0.105372176661E+01  0.103079480115E+01  0.100375196886E+01
  0.972996216079E+00  0.938951936762E+00  0.902058776822E+00  0.862765368793E+00  0.821523145341E+00
  0.778780363654E+00  0.734976457704E+00  0.690536809050E+00  0.645868009398E+00  0.601353660223E+00
  0.557350731228E+00  0.514186480637E+00  0.472155926362E+00  0.431519854863E+00  0.392503361166E+00
  0.355294929789E+00  0.320046084299E+00  0.286871645491E+00  0.255850636639E+00  0.227027852585E+00
  0.200416072713E+00  0.175998850794E+00  0.153733770182E+00  0.133556019771E+00  0.115382130141E+00
  0.991137116436E-01  0.846410536493E-01  0.718464725903E-01  0.606073304641E-01  0.507986808296E-01
  0.422955319263E-01  0.349747430607E-01  0.287165882710E-01  0.234060293326E-01  0.189337391377E-01
  0.151969089595E-01  0.120998628037E-01  0.955449259823E-02  0.748052187244E-02  0.580560374160E-02
  0.446526091809E-02  0.340267975035E-02  0.256837536045E-02  0.191974947388E-02  0.142056563876E-02
  0.104036783342E-02  0.753867969395E-03  0.540325782454E-03  0.382941468406E-03  0.268277602456E-03
  0.185722788088E-03  0.127005455179E-03  0.857625253647E-04
 pseudo wavefunction
  0.160464492527E-03  0.165682397481E-03  0.171069975683E-03  0.176632744484E-03  0.182376400645E-03
  0.188306826171E-03  0.194430094335E-03  0.200752475900E-03  0.207280445534E-03  0.214020688448E-03
  0.220980107241E-03  0.228165828962E-03  0.235585212419E-03  0.243245855707E-03  0.251155603993E-03
  0.259322557550E-03  0.267755080048E-03  0.276461807128E-03  0.285451655236E-03  0.294733830760E-03
  0.304317839456E-03  0.314213496186E-03  0.324430934962E-03  0.334980619333E-03  0.345873353093E-03
  0.357120291349E-03  0.368732951947E-03  0.380723227260E-03  0.393103396372E-03  0.405886137654E-03
  0.419084541744E-03  0.432712124953E-03  0.446782843112E-03  0.461311105857E-03  0.476311791389E-03
  0.491800261712E-03  0.507792378362E-03  0.524304518652E-03  0.541353592444E-03  0.558957059466E-03
  0.577132947190E-03  0.595899869295E-03  0.615277044732E-03  0.635284317401E-03  0.655942176473E-03
  0.677271777377E-03  0.699294963459E-03  0.722034288357E-03  0.745513039092E-03  0.769755259920E-03
  0.794785776952E-03  0.820630223579E-03  0.847315066725E-03  0.874867633946E-03  0.903316141418E-03
  0.932689722833E-03  0.963018459232E-03  0.994333409813E-03  0.102666664373E-02  0.106005127295E-02
  0.109452148613E-02  0.113011258368E-02  0.116686101386E-02  0.120480441012E-02  0.124398162967E-02
  0.128443279323E-02  0.132619932613E-02  0.136932400075E-02  0.141385098028E-02  0.145982586401E-02
  0.150729573394E-02  0.155630920306E-02  0.160691646511E-02  0.165916934598E-02  0.171312135678E-02
  0.176882774862E-02  0.182634556923E-02  0.188573372133E-02  0.194705302298E-02  0.201036626984E-02
  0.207573829948E-02  0.214323605777E-02  0.221292866744E-02  0.228488749882E-02  0.235918624299E-02
  0.243590098718E-02  0.251511029268E-02  0.259689527533E-02  0.268133968853E-02  0.276853000900E-02
  0.285855552536E-02  0.295150842950E-02  0.304748391101E-02  0.314658025465E-02  0.324889894093E-02
  0.335454475006E-02  0.346362586919E-02  0.357625400320E-02  0.369254448904E-02  0.381261641383E-02
  0.393659273673E-02  0.406460041487E-02  0.419677053327E-02  0.433323843908E-02  0.447414388005E-02
  0.461963114765E-02  0.476984922471E-02  0.492495193795E-02  0.508509811540E-02  0.525045174895E-02
  0.542118216221E-02  0.559746418376E-02  0.577947832607E-02  0.596741097025E-02  0.616145455668E-02
  0.636180778201E-02  0.656867580238E-02  0.678227044330E-02  0.700281041641E-02  0.723052154314E-02
  0.746563698570E-02  0.770839748557E-02  0.795905160967E-02  0.821785600455E-02  0.848507565878E-02
  0.876098417392E-02  0.904586404412E-02  0.934000694494E-02  0.964371403141E-02  0.995729624574E-02
  0.102810746351E-01  0.106153806794E-01  0.109605566301E-01  0.113169558595E-01  0.116849432218E-01
  0.120648954251E-01  0.124572014163E-01  0.128622627779E-01  0.132804941374E-01  0.137123235903E-01
  0.141581931368E-01  0.146185591318E-01  0.150938927505E-01  0.155846804678E-01  0.160914245541E-01
  0.166146435863E-01  0.171548729753E-01  0.177126655108E-01  0.182885919233E-01  0.188832414635E-01
  0.194972225012E-01  0.201311631423E-01  0.207857118666E-01  0.214615381843E-01  0.221593333149E-01
  0.228798108864E-01  0.236237076577E-01  0.243917842626E-01  0.251848259782E-01  0.260036435172E-01
  0.268490738446E-01  0.277219810206E-01  0.286232570693E-01  0.295538228747E-01  0.305146291045E-01
  0.315066571620E-01  0.325309201681E-01  0.335884639727E-01  0.346803681974E-01  0.358077473097E-01
  0.369717517303E-01  0.381735689727E-01  0.394144248181E-01  0.406955845244E-01  0.420183540717E-01
  0.433840814438E-01  0.447941579476E-01  0.462500195705E-01  0.477531483768E-01  0.493050739435E-01
  0.509073748374E-01  0.525616801322E-01  0.542696709684E-01  0.560330821550E-01  0.578537038140E-01
  0.597333830689E-01  0.616740257763E-01  0.636775983021E-01  0.657461293417E-01  0.678817117847E-01
  0.700865046241E-01  0.723627349092E-01  0.747126997431E-01  0.771387683226E-01  0.796433840209E-01
  0.822290665123E-01  0.848984139364E-01  0.876541051011E-01  0.904989017229E-01  0.934356507006E-01
  0.964672864217E-01  0.995968330969E-01  0.102827407119E+00  0.106162219445E+00  0.109604577987E+00
  0.113157890023E+00  0.116825664604E+00  0.120611514959E+00  0.124519160888E+00  0.128552431136E+00
  0.132715265736E+00  0.137011718299E+00  0.141445958261E+00  0.146022273049E+00  0.150745070164E+00
  0.155618879152E+00  0.160648353455E+00  0.165838272106E+00  0.171193541254E+00  0.176719195480E+00
  0.182420398887E+00  0.188302445911E+00  0.194370761832E+00  0.200630902935E+00  0.207088556271E+00
  0.213749538978E+00  0.220619797093E+00  0.227705403798E+00  0.235012557042E+00  0.242547576441E+00
  0.250316899397E+00  0.258327076333E+00  0.266584764949E+00  0.275096723392E+00  0.283869802220E+00
  0.292910935035E+00  0.302227127639E+00  0.311825445571E+00  0.321712999849E+00  0.331896930741E+00
  0.342384389376E+00  0.353182516977E+00  0.364298421487E+00  0.375739151357E+00  0.387511666215E+00
  0.399622804146E+00  0.412079245275E+00  0.424887471326E+00  0.438053720829E+00  0.451583939588E+00
  0.465483726048E+00  0.479758271140E+00  0.494412292184E+00  0.509449960420E+00  0.524874821699E+00
  0.540689709869E+00  0.556896652394E+00  0.573496767712E+00  0.590490153881E+00  0.607875768039E+00
  0.625651296251E+00  0.643813013350E+00  0.662355632414E+00  0.681272143612E+00  0.700553642226E+00
  0.720189145773E+00  0.740165400297E+00  0.760466676082E+00  0.781074553239E+00  0.801967697879E+00
  0.823121629901E+00  0.844508483770E+00  0.866096764085E+00  0.887851098216E+00  0.909731988857E+00
  0.931695569951E+00  0.953693370173E+00  0.975672088924E+00  0.997573390662E+00  0.101933372433E+01
  0.104088417565E+01  0.106215036101E+01  0.108305237292E+01  0.110350478782E+01  0.112341674813E+01
  0.114269213132E+01  0.116122981929E+01  0.117892408179E+01  0.119566508736E+01  0.121133955469E+01
  0.122583155569E+01  0.123902347905E+01  0.125079715925E+01  0.126103517079E+01  0.126962227987E+01
  0.127644703683E+01  0.128140348026E+01  0.128439290928E+01  0.128532566252E+01  0.128412282159E+01
  0.128071773225E+01  0.127505721019E+01  0.126710226866E+01  0.125682817572E+01  0.124422361942E+01
  0.122928873412E+01  0.121203172269E+01  0.119246380397E+01  0.117059222697E+01  0.114641113259E+01
  0.111989011767E+01  0.109096226342E+01  0.105973063883E+01  0.102670740856E+01  0.992467204690E+00
  0.000000000000E+00  0.000000000000E+00  0.000000000000E+00  0.000000000000E+00  0.000000000000E+00
  0.000000000000E+00  0.000000000000E+00  0.000000000000E+00  0.000000000000E+00  0.000000000000E+00
  0.000000000000E+00  0.000000000000E+00  0.000000000000E+00  0.000000000000E+00  0.000000000000E+00
  0.000000000000E+00  0.000000000000E+00  0.000000000000E+00  0.000000000000E+00  0.000000000000E+00
  0.000000000000E+00  0.000000000000E+00  0.000000000000E+00  0.000000000000E+00  0.000000000000E+00
  0.000000000000E+00  0.000000000000E+00  0.000000000000E+00  0.000000000000E+00  0.000000000000E+00
  0.000000000000E+00  0.000000000000E+00  0.000000000000E+00  0.000000000000E+00  0.000000000000E+00
  0.000000000000E+00  0.000000000000E+00  0.000000000000E+00  0.000000000000E+00  0.000000000000E+00
  0.000000000000E+00  0.000000000000E+00  0.000000000000E+00  0.000000000000E+00  0.000000000000E+00
  0.000000000000E+00  0.000000000000E+00  0.000000000000E+00
 ae wavefunction
  0.440125385739E-02  0.453262473504E-02  0.466788494182E-02  0.480714771179E-02  0.495052945188E-02
  0.509814982304E-02  0.525013182301E-02  0.540660187073E-02  0.556768989216E-02  0.573352940772E-02
  0.590425762122E-02  0.608001551026E-02  0.626094791808E-02  0.644720364684E-02  0.663893555221E-02
  0.683630063933E-02  0.703946015997E-02  0.724857971087E-02  0.746382933325E-02  0.768538361324E-02
  0.791342178330E-02  0.814812782449E-02  0.838969056929E-02  0.863830380525E-02  0.889416637887E-02
  0.915748229987E-02  0.942846084558E-02  0.970731666531E-02  0.999426988443E-02  0.102895462081E-01
  0.105933770240E-01  0.109059995051E-01  0.112276567095E-01  0.115585976810E-01  0.118990775457E-01
  0.122493576086E-01  0.126097054456E-01  0.129803949946E-01  0.133617066419E-01  0.137539273057E-01
  0.141573505147E-01  0.145722764827E-01  0.149990121776E-01  0.154378713839E-01  0.158891747597E-01
  0.163532498858E-01  0.168304313070E-01  0.173210605644E-01  0.178254862185E-01  0.183440638616E-01
  0.188771561188E-01  0.194251326359E-01  0.199883700547E-01  0.205672519730E-01  0.211621688885E-01
  0.217735181252E-01  0.224017037420E-01  0.230471364201E-01  0.237102333287E-01  0.243914179678E-01
  0.250911199855E-01  0.258097749674E-01  0.265478241980E-01  0.273057143901E-01  0.280838973808E-01
  0.288828297916E-01  0.297029726504E-01  0.305447909720E-01  0.314087532950E-01  0.322953311721E-01
  0.332049986102E-01  0.341382314577E-01  0.350955067349E-01  0.360773019046E-01  0.370840940785E-01
  0.381163591557E-01  0.391745708890E-01  0.402591998753E-01  0.413707124639E-01  0.425095695800E-01
  0.436762254568E-01  0.448711262716E-01  0.460947086807E-01  0.473473982468E-01  0.486296077537E-01
  0.499417354013E-01  0.512841628764E-01  0.526572532897E-01  0.540613489757E-01  0.554967691456E-01
  0.569638073880E-01  0.584627290087E-01  0.599937682033E-01  0.615571250529E-01  0.631529623377E-01
  0.647814021576E-01  0.664425223538E-01  0.681363527225E-01  0.698628710113E-01  0.716219986927E-01
  0.734135965029E-01  0.752374597410E-01  0.770933133183E-01  0.789808065518E-01  0.808995076914E-01
  0.828488981778E-01  0.848283666199E-01  0.868372024890E-01  0.888745895220E-01  0.909395988298E-01
  0.930311817067E-01  0.951481621382E-01  0.972892290049E-01  0.994529279825E-01  0.101637653140E+00
  0.103841638238E+00  0.106062947732E+00  0.108299467488E+00  0.110548895227E+00  0.112808730691E+00
  0.115076265578E+00  0.117348573229E+00  0.119622498126E+00  0.121894645191E+00  0.124161368954E+00
  0.126418762599E+00  0.128662646943E+00  0.130888559394E+00  0.133091742939E+00  0.135267135229E+00
  0.137409357824E+00  0.139512705679E+00  0.141571136948E+00  0.143578263217E+00  0.145527340250E+00
  0.147411259375E+00  0.149222539637E+00  0.150953320844E+00  0.152595357667E+00  0.154140014950E+00
  0.155578264405E+00  0.156900682885E+00  0.158097452434E+00  0.159158362340E+00  0.160072813412E+00
  0.160829824738E+00  0.161418043192E+00  0.161825755952E+00  0.162040906343E+00  0.162051113297E+00
  0.161843694760E+00  0.161405695383E+00  0.160723918832E+00  0.159784965094E+00  0.158575273116E+00
  0.157081169177E+00  0.155288921346E+00  0.153184800408E+00  0.150755147626E+00  0.147986449700E+00
  0.144865421268E+00  0.141379095281E+00  0.137514921552E+00  0.133260873742E+00  0.128605565019E+00
  0.123538372568E+00  0.118049571057E+00  0.112130475124E+00  0.105773590838E+00  0.989727760106E-01
  0.917234091194E-01  0.840225664852E-01  0.758692072050E-01  0.672643651881E-01  0.582113474722E-01
  0.487159378085E-01  0.387866042979E-01  0.284347096471E-01  0.176747223832E-01  0.652442713878E-02
 -0.499486810785E-02 -0.168581301661E-01 -0.290364066749E-01 -0.414966427877E-01 -0.542015114516E-01
 -0.671092604942E-01 -0.801735800577E-01 -0.933434943385E-01 -0.106563282061E+00 -0.119772430614E+00
 -0.132905629210E+00 -0.145892806769E+00 -0.158659220384E+00 -0.171125600254E+00 -0.183208356797E+00
 -0.194819855341E+00 -0.205868763392E+00 -0.216260474970E+00 -0.225897616021E+00 -0.234680634368E+00
 -0.242508477088E+00 -0.249279357455E+00 -0.254891612731E+00 -0.259244653020E+00 -0.262240000197E+00
 -0.263782414527E+00 -0.263781105040E+00 -0.262151018002E+00 -0.258814195926E+00 -0.253701197496E+00
 -0.246752566567E+00 -0.237920336063E+00 -0.227169550158E+00 -0.214479785631E+00 -0.199846650793E+00
 -0.183283237982E+00 -0.164821503291E+00 -0.144513545156E+00 -0.122432751586E+00 -0.986747844066E-01
 -0.733583678625E-01 -0.466258485264E-01 -0.186434938123E-01  0.103985020663E-01  0.402863327534E-01
  0.707832381398E-01  0.101630523167E+00  0.132548947277E+00  0.163240490796E+00  0.193390505667E+00
  0.222670264725E+00  0.250739932804E+00  0.277251985456E+00  0.301855086053E+00  0.324198397090E+00
  0.343936262885E+00  0.360733181629E+00  0.374268989275E+00  0.384244188618E+00  0.390385357589E+00
  0.392450559910E+00  0.390234667552E+00  0.383574495541E+00  0.372353647505E+00  0.356506972579E+00
  0.336024537783E+00  0.310955022732E+00  0.281408445266E+00  0.247558127900E+00  0.209641816871E+00
  0.167961869308E+00  0.122884430919E+00  0.748375380928E-01  0.243080955543E-01 -0.281622961952E-01
 -0.819826623697E-01 -0.136519096905E+00 -0.191102281115E+00 -0.245036024332E+00 -0.297606761282E+00
 -0.348093875383E+00 -0.395780514714E+00 -0.439964200874E+00 -0.479966235468E+00 -0.515139288124E+00
 -0.544874077024E+00 -0.568607845901E+00 -0.585836675405E+00 -0.596129678489E+00 -0.599140795957E+00
 -0.594616427376E+00 -0.582400021086E+00 -0.562434943833E+00 -0.534766046096E+00 -0.499539762826E+00
 -0.457002452505E+00 -0.407496787975E+00 -0.351456212792E+00 -0.289397651058E+00 -0.221912755293E+00
 -0.149658005199E+00 -0.733439571615E-01  0.627608286735E-02  0.884177206493E-01  0.172277253071E+00
  0.257043370667E+00  0.341908603714E+00  0.426080343591E+00  0.508791279594E+00  0.589309102329E+00
  0.666945340631E+00  0.741063221348E+00  0.811084470619E+00  0.876494996390E+00  0.936849395473E+00
  0.991774201611E+00  0.104096973632E+01  0.108421039363E+01  0.112134325605E+01  0.115228517634E+01
  0.117701883808E+01  0.119558862334E+01  0.120809711714E+01  0.121470265732E+01  0.121561771860E+01
  0.121110750809E+01  0.120148809842E+01  0.118712370611E+01  0.116842304721E+01  0.114583492773E+01
  0.111984333003E+01  0.109096226342E+01  0.105973063883E+01  0.102670740856E+01  0.992467204690E+00
  0.000000000000E+00  0.000000000000E+00  0.000000000000E+00  0.000000000000E+00  0.000000000000E+00
  0.000000000000E+00  0.000000000000E+00  0.000000000000E+00  0.000000000000E+00  0.000000000000E+00
  0.000000000000E+00  0.000000000000E+00  0.000000000000E+00  0.000000000000E+00  0.000000000000E+00
  0.000000000000E+00  0.000000000000E+00  0.000000000000E+00  0.000000000000E+00  0.000000000000E+00
  0.000000000000E+00  0.000000000000E+00  0.000000000000E+00  0.000000000000E+00  0.000000000000E+00
  0.000000000000E+00  0.000000000000E+00  0.000000000000E+00  0.000000000000E+00  0.000000000000E+00
  0.000000000000E+00  0.000000000000E+00  0.000000000000E+00  0.000000000000E+00  0.000000000000E+00
  0.000000000000E+00  0.000000000000E+00  0.000000000000E+00  0.000000000000E+00  0.000000000000E+00
  0.000000000000E+00  0.000000000000E+00  0.000000000000E+00  0.000000000000E+00  0.000000000000E+00
  0.000000000000E+00  0.000000000000E+00  0.000000000000E+00
 pseudo wavefunction
  0.835100362373E-08  0.890294148304E-08  0.949135823912E-08  0.101186648697E-07  0.107874316999E-07
  0.115003989337E-07  0.122604878817E-07  0.130708129309E-07  0.139346943057E-07  0.148556716722E-07
  0.158375186410E-07  0.168842582304E-07  0.180001793489E-07  0.191898543697E-07  0.204581578650E-07
  0.218102865790E-07  0.232517807214E-07  0.247885466673E-07  0.264268811585E-07  0.281734971034E-07
  0.300355510829E-07  0.320206726729E-07  0.341369957067E-07  0.363931916018E-07  0.387985048906E-07
  0.413627910985E-07  0.440965571264E-07  0.470110043012E-07  0.501180742723E-07  0.534304979411E-07
  0.569618476248E-07  0.607265926674E-07  0.647401587263E-07  0.690189909773E-07  0.735806214972E-07
  0.784437410994E-07  0.836282759177E-07  0.891554690514E-07  0.950479676069E-07  0.101329915492E-06
  0.108027052341E-06  0.115166818984E-06  0.122778469880E-06  0.130893192984E-06  0.139544237536E-06
  0.148767050299E-06  0.158599420795E-06  0.169081636145E-06  0.180256646141E-06  0.192170239228E-06
  0.204871230116E-06  0.218411659795E-06  0.232847008768E-06  0.248236424370E-06  0.264642963126E-06
  0.282133849112E-06  0.300780749400E-06  0.320660067706E-06  0.341853257446E-06  0.364447155480E-06
  0.388534337916E-06  0.414213499433E-06  0.441589857668E-06  0.470775584330E-06  0.501890264817E-06
  0.535061388196E-06  0.570424869578E-06  0.608125607009E-06  0.648318075178E-06  0.691166958348E-06
  0.736847825137E-06  0.785547847882E-06  0.837466569555E-06  0.892816721362E-06  0.951825094380E-06
  0.101473346880E-05  0.108179960459E-05  0.115329829763E-05  0.122952250564E-05  0.131078454853E-05
  0.139741738810E-05  0.148977599226E-05  0.158823878951E-05  0.169320921942E-05  0.180511738572E-05
  0.192442181852E-05  0.205161135309E-05  0.218720713276E-05  0.233176474421E-05  0.248587649385E-05
  0.265017383472E-05  0.282532995369E-05  0.301206252974E-05  0.321113667446E-05  0.342336806691E-05
  0.364962629569E-05  0.389083842184E-05  0.414799277727E-05  0.442214301412E-05  0.471441242183E-05
  0.502599852952E-05  0.535817801244E-05  0.571231192277E-05  0.608985126607E-05  0.649234294624E-05
  0.692143610343E-05  0.737888887072E-05  0.786657557739E-05  0.838649442815E-05  0.894077568993E-05
  0.953169041961E-05  0.101616597686E-04  0.108332649022E-04  0.115492575746E-04  0.123125714025E-04
  0.131263338838E-04  0.139938792108E-04  0.149187619294E-04  0.159047715016E-04  0.169559478297E-04
  0.180765978069E-04  0.192713129610E-04  0.205449882639E-04  0.219028421846E-04  0.233504380659E-04
  0.248937069152E-04  0.265389716993E-04  0.282929732458E-04  0.301628978549E-04  0.321564067356E-04
  0.342816673866E-04  0.365473870504E-04  0.389628483772E-04  0.415379474448E-04  0.442832342897E-04
  0.472099561160E-04  0.503301033574E-04  0.536564587823E-04  0.572026498415E-04  0.609832044737E-04
  0.650136105952E-04  0.693103795192E-04  0.738911135621E-04  0.787745781135E-04  0.839807784653E-04
  0.895310417116E-04  0.954481040565E-04  0.101756203884E-03  0.108481180971E-03  0.115650582246E-03
  0.123293774535E-03  0.131442064733E-03  0.140128827915E-03  0.149389643897E-03  0.159262442796E-03
  0.169787660205E-03  0.181008402585E-03  0.192970623570E-03  0.205723311897E-03  0.219318691712E-03
  0.233812436087E-03  0.249263894599E-03  0.265736335899E-03  0.283297206259E-03  0.302018405144E-03
  0.321976578914E-03  0.343253433866E-03  0.365936069863E-03  0.390117335903E-03  0.415896209075E-03
  0.443378198415E-03  0.472675775288E-03  0.503908832055E-03  0.537205170822E-03  0.572701024286E-03
  0.610541610719E-03  0.650881725342E-03  0.693886370439E-03  0.739731426728E-03  0.788604368667E-03
  0.840705026526E-03  0.896246398263E-03  0.955455514411E-03  0.101857435938E-02  0.108586085284E-02
  0.115758989497E-02  0.123405447976E-02  0.131556688062E-02  0.140245991302E-02  0.149508827890E-02
  0.159382999821E-02  0.169908793301E-02  0.181129140994E-02  0.193089794731E-02  0.205839509337E-02
  0.219430238257E-02  0.233917341733E-02  0.249359808302E-02  0.265820490422E-02  0.283366355118E-02
  0.302068750535E-02  0.322003689393E-02  0.343252150328E-02  0.365900398218E-02  0.390040324598E-02
  0.415769809369E-02  0.443193105015E-02  0.472421244661E-02  0.503572475304E-02  0.536772717665E-02
  0.572156054133E-02  0.609865246349E-02  0.650052284049E-02  0.692878966815E-02  0.738517520471E-02
  0.787151249892E-02  0.838975230061E-02  0.894197037231E-02  0.953037522102E-02  0.101573162695E-01
  0.108252924863E-01  0.115369614947E-01  0.122951491786E-01  0.131028598058E-01  0.139632866862E-01
  0.148798233829E-01  0.158560754920E-01  0.168958730072E-01  0.180032832805E-01  0.191826245909E-01
  0.204384803279E-01  0.217757137925E-01  0.231994836171E-01  0.247152597958E-01  0.263288403141E-01
  0.280463683571E-01  0.298743500679E-01  0.318196728167E-01  0.338896239302E-01  0.360919098155E-01
  0.384346753996E-01  0.409265237844E-01  0.435765359976E-01  0.463942906981E-01  0.493898836641E-01
  0.525739468639E-01  0.559576668753E-01  0.595528023802E-01  0.633717004166E-01  0.674273110246E-01
  0.717331998675E-01  0.763035583486E-01  0.811532106813E-01  0.862976172947E-01  0.917528738803E-01
  0.975357052978E-01  0.103663453465E+00  0.110154058261E+00  0.117026030349E+00  0.124298414751E+00
  0.131990743830E+00  0.140122978274E+00  0.148715434511E+00  0.157788696887E+00  0.167363512796E+00
  0.177460668870E+00  0.188100846203E+00  0.199304452544E+00  0.211091429306E+00  0.223481031243E+00
  0.236491576680E+00  0.250140166255E+00  0.264442368328E+00  0.279411869437E+00  0.295060088591E+00
  0.311395754655E+00  0.328424446782E+00  0.346148098655E+00  0.364564468356E+00  0.383666576981E+00
  0.403442120585E+00  0.423872861885E+00  0.444934010187E+00  0.466593600310E+00  0.488811883910E+00
  0.511540749313E+00  0.534723188933E+00  0.558292836181E+00  0.582173596560E+00  0.606279399942E+00
  0.630514102619E+00  0.654771568283E+00  0.678935955922E+00  0.702882239383E+00  0.726476977076E+00
  0.749579340425E+00  0.772042395128E+00  0.793714609327E+00  0.814441536504E+00  0.834067587651E+00
  0.852437766707E+00  0.869399195632E+00  0.884802201888E+00  0.898500683867E+00  0.910351412888E+00
  0.920211879967E+00  0.927936260366E+00  0.933369060985E+00  0.936336050270E+00  0.936632166338E+00
  0.934006278355E+00  0.928139957137E+00  0.918838625607E+00  0.906231421489E+00  0.890512683812E+00
  0.871895841655E+00  0.850610737073E+00  0.826900907710E+00  0.801020858906E+00  0.773233359588E+00
  0.743806758003E+00  0.713012297791E+00  0.681121408045E+00  0.648402926026E+00  0.615120235818E+00
  0.581528328713E+00  0.547870850895E+00  0.514377207758E+00  0.481259969933E+00  0.448712623393E+00
  0.416907913900E+00  0.385996857973E+00  0.356108472681E+00  0.327350198566E+00  0.299808924934E+00
  0.273552477174E+00  0.248631396136E+00  0.225080830746E+00  0.202922376498E+00  0.182165722426E+00
  0.162810014784E+00  0.144844901491E+00  0.128251278886E+00  0.113001811335E+00  0.990613252593E-01
  0.863871873096E-01  0.749297625166E-01  0.646330185903E-01  0.554353060153E-01  0.472703086626E-01
  0.400681322468E-01  0.337564807465E-01  0.282618637788E-01  0.235107790513E-01  0.194308208866E-01
  0.159516759668E-01  0.130059788431E-01  0.105300109594E-01  0.846423701276E-02  0.675368094628E-02
  0.534815053614E-02  0.420232443908E-02  0.327571882933E-02
 ae wavefunction
 -0.102472886723E-04 -0.108350209532E-04 -0.114549459026E-04 -0.121089170593E-04 -0.127988910540E-04
 -0.135269336239E-04 -0.142952259713E-04 -0.151060714855E-04 -0.159619028504E-04 -0.168652895609E-04
 -0.178189458725E-04 -0.188257392101E-04 -0.198886990636E-04 -0.210110263989E-04 -0.221961036166E-04
 -0.234475050893E-04 -0.247690083146E-04 -0.261646057173E-04 -0.276385171441E-04 -0.291952030881E-04
 -0.308393786894E-04 -0.325760285572E-04 -0.344104224641E-04 -0.363481319608E-04 -0.383950479726E-04
 -0.405573994297E-04 -0.428417729977E-04 -0.452551339723E-04 -0.478048484075E-04 -0.504987065511E-04
 -0.533449476663E-04 -0.563522863198E-04 -0.595299402264E-04 -0.628876597410E-04 -0.664357590960E-04
 -0.701851494890E-04 -0.741473741292E-04 -0.783346453601E-04 -0.827598839801E-04 -0.874367608932E-04
 -0.923797412250E-04 -0.976041310528E-04 -0.103126126901E-03 -0.108962868167E-03 -0.115132492649E-03
 -0.121654195358E-03 -0.128548290806E-03 -0.135836278977E-03 -0.143540915188E-03 -0.151686284078E-03
 -0.160297877953E-03 -0.169402679745E-03 -0.179029250857E-03 -0.189207824160E-03 -0.199970402454E-03
 -0.211350862693E-03 -0.223385066313E-03 -0.236110975993E-03 -0.249568779234E-03 -0.263801019118E-03
 -0.278852732661E-03 -0.294771597181E-03 -0.311608085123E-03 -0.329415627796E-03 -0.348250788537E-03
 -0.368173445777E-03 -0.389246986581E-03 -0.411538511189E-03 -0.435119049171E-03 -0.460063787791E-03
 -0.486452313225E-03 -0.514368865300E-03 -0.543902606446E-03 -0.575147905590E-03 -0.608204637730E-03
 -0.643178499981E-03 -0.680181344908E-03 -0.719331531958E-03 -0.760754297891E-03 -0.804582147077E-03
 -0.850955262603E-03 -0.900021939122E-03 -0.951939038433E-03 -0.100687246878E-02 -0.106499768890E-02
 -0.112650023783E-02 -0.119157629163E-02 -0.126043324790E-02 -0.133329033941E-02 -0.141037927773E-02
 -0.149194492809E-02 -0.157824601642E-02 -0.166955586977E-02 -0.176616319108E-02 -0.186837286933E-02
 -0.197650682606E-02 -0.209090489923E-02 -0.221192576524E-02 -0.233994789987E-02 -0.247537057899E-02
 -0.261861491952E-02 -0.277012496106E-02 -0.293036878868E-02 -0.309983969690E-02 -0.327905739481E-02
 -0.346856925211E-02 -0.366895158552E-02 -0.388081098472E-02 -0.410478567670E-02 -0.434154692697E-02
 -0.459180047573E-02 -0.485628800666E-02 -0.513578864523E-02 -0.543112048335E-02 -0.574314212596E-02
 -0.607275425503E-02 -0.642090120514E-02 -0.678857254446E-02 -0.717680465363E-02 -0.758668229421E-02
 -0.801934015737E-02 -0.847596438196E-02 -0.895779403005E-02 -0.946612250666E-02 -0.100022989085E-01
 -0.105677292853E-01 -0.111638777952E-01 -0.117922677341E-01 -0.124544824157E-01 -0.131521658795E-01
 -0.138870233970E-01 -0.146608217494E-01 -0.154753892422E-01 -0.163326154240E-01 -0.172344504687E-01
 -0.181829041828E-01 -0.191800445911E-01 -0.202279960544E-01 -0.213289368665E-01 -0.224850962763E-01
 -0.236987508755E-01 -0.249722202889E-01 -0.263078621013E-01 -0.277080659487E-01 -0.291752467007E-01
 -0.307118366543E-01 -0.323202766560E-01 -0.340030060684E-01 -0.357624514884E-01 -0.376010141264E-01
 -0.395210557502E-01 -0.415248830954E-01 -0.436147306433E-01 -0.457927416646E-01 -0.480609474300E-01
 -0.504212444856E-01 -0.528753698970E-01 -0.554248743667E-01 -0.580710931358E-01 -0.608151145859E-01
 -0.636577464684E-01 -0.665994796964E-01 -0.696404496494E-01 -0.727803949560E-01 -0.760186137408E-01
 -0.793539173401E-01 -0.827845815214E-01 -0.863082952697E-01 -0.899221072365E-01 -0.936223699892E-01
 -0.974046822397E-01 -0.101263829283E+00 -0.105193721927E+00 -0.109187334256E+00 -0.113236640634E+00
 -0.117332552418E+00 -0.121464854931E+00 -0.125622145284E+00 -0.129791771748E+00 -0.133959775394E+00
 -0.138110834806E+00 -0.142228214714E+00 -0.146293719470E+00 -0.150287652370E+00 -0.154188781947E+00
 -0.157974316528E+00 -0.161619888579E+00 -0.165099550588E+00 -0.168385784499E+00 -0.171449526902E+00
 -0.174260212283E+00 -0.176785836685E+00 -0.178993044042E+00 -0.180847237286E+00 -0.182312716172E+00
 -0.183352843493E+00 -0.183930241165E+00 -0.184007017445E+00 -0.183545026410E+00 -0.182506160667E+00
 -0.180852678076E+00 -0.178547563033E+00 -0.175554922516E+00 -0.171840416678E+00 -0.167371723299E+00
 -0.162119034818E+00 -0.156055586058E+00 -0.149158210050E+00 -0.141407918538E+00 -0.132790502950E+00
 -0.123297150645E+00 -0.112925070295E+00 -0.101678119241E+00 -0.895674246198E-01 -0.766119890172E-01
 -0.628392704123E-01 -0.482857252075E-01 -0.329973022911E-01 -0.170298753255E-01 -0.449599867697E-03
  0.166668184694E-01  0.342319587042E-01  0.521476355857E-01  0.703049796907E-01  0.885846572880E-01
  0.106857238048E+00  0.124983715583E+00  0.142816183454E+00  0.160198669250E+00  0.176968132936E+00
  0.192955642526E+00  0.207987747176E+00  0.221888068867E+00  0.234479122186E+00  0.245584347937E+00
  0.255030323436E+00  0.262649105313E+00  0.268280669471E+00  0.271775423489E+00  0.272996768401E+00
  0.271823680045E+00  0.268153271706E+00  0.261903294668E+00  0.253014532437E+00  0.241453045800E+00
  0.227212227544E+00  0.210314626202E+00  0.190813497593E+00  0.168794041569E+00  0.144374279964E+00
  0.117705531011E+00  0.889724362548E-01  0.583924991795E-01  0.262151011312E-01 -0.728003019667E-02
 -0.417849123946E-01 -0.769659613172E-01 -0.112467199938E+00 -0.147914017768E+00 -0.182917473942E+00
 -0.217079101936E+00 -0.249996050157E+00 -0.281266155683E+00 -0.310492338788E+00 -0.337285915116E+00
 -0.361269394536E+00 -0.382080559367E+00 -0.399379300150E+00 -0.412856108162E+00 -0.422239455031E+00
 -0.427300826194E+00 -0.427858101823E+00 -0.423778169764E+00 -0.414979071622E+00 -0.401431580818E+00
 -0.383159989451E+00 -0.360241927524E+00 -0.332807157145E+00 -0.301035398200E+00 -0.265153310607E+00
 -0.225430782964E+00 -0.182176673381E+00 -0.135734133820E+00 -0.864756317171E-01 -0.347977671704E-01
  0.188840279451E-01  0.741408309009E-01  0.130535535278E+00  0.187628052496E+00  0.244980336902E+00
  0.302161166895E+00  0.358750621188E+00  0.414344200365E+00  0.468556552144E+00  0.521024757177E+00
  0.571411110866E+00  0.619405293616E+00  0.664725784916E+00  0.707120394952E+00  0.746365921372E+00
  0.782267188752E+00  0.814655980806E+00  0.843390443866E+00  0.868355317124E+00  0.889462932195E+00
  0.906654594178E+00  0.919901848210E+00  0.929207271663E+00  0.934604632130E+00  0.936158407424E+00
  0.933962745793E+00  0.928139957137E+00  0.918838625607E+00  0.906231421489E+00  0.890512683812E+00
  0.871895841655E+00  0.850610737073E+00  0.826900907710E+00  0.801020858906E+00  0.773233359588E+00
  0.743806758003E+00  0.713012297791E+00  0.681121408045E+00  0.648402926026E+00  0.615120235818E+00
  0.581528328713E+00  0.547870850895E+00  0.514377207758E+00  0.481259969933E+00  0.448712623393E+00
  0.416907913900E+00  0.385996857973E+00  0.356108472681E+00  0.327350198566E+00  0.299808924934E+00
  0.273552477174E+00  0.248631396136E+00  0.225080830746E+00  0.202922376498E+00  0.182165722426E+00
  0.162810014784E+00  0.144844901491E+00  0.128251278886E+00  0.113001811335E+00  0.990613252593E-01
  0.863871873096E-01  0.749297625166E-01  0.646330185903E-01  0.554353060153E-01  0.472703086626E-01
  0.400681322468E-01  0.337564807465E-01  0.282618637788E-01  0.235107790513E-01  0.194308208866E-01
  0.159516759668E-01  0.130059788431E-01  0.105300109594E-01  0.846423701276E-02  0.675368094628E-02
  0.534815053614E-02  0.420232443908E-02  0.327571882933E-02
 pseudo wavefunction
  0.123826107077E-07  0.132010071489E-07  0.140734933735E-07  0.150036443051E-07  0.159952711424E-07
  0.170524369753E-07  0.181794734333E-07  0.193809984334E-07  0.206619351019E-07  0.220275319463E-07
  0.234833843606E-07  0.250354575518E-07  0.266901109815E-07  0.284541244236E-07  0.303347257434E-07
  0.323396205131E-07  0.344770235846E-07  0.367556927490E-07  0.391849646208E-07  0.417747928938E-07
  0.445357891251E-07  0.474792662149E-07  0.506172847603E-07  0.539627024719E-07  0.575292268571E-07
  0.613314713853E-07  0.653850153650E-07  0.697064677783E-07  0.743135353348E-07  0.792250950226E-07
  0.844612714550E-07  0.900435193291E-07  0.959947113340E-07  0.102339231869E-06  0.109103076958E-06
  0.116313960761E-06  0.124001429136E-06  0.132196980695E-06  0.140934195870E-06  0.150248874500E-06
  0.160179182524E-06  0.170765808358E-06  0.182052129609E-06  0.194084390817E-06  0.206911892930E-06
  0.220587195313E-06  0.235166331104E-06  0.250709036803E-06  0.267278997038E-06  0.284944105500E-06
  0.303776743138E-06  0.323854074726E-06  0.345258365038E-06  0.368077315922E-06  0.392404425645E-06
  0.418339371993E-06  0.445988420688E-06  0.475464860803E-06  0.506889468948E-06  0.540391004138E-06
  0.576106735370E-06  0.614183004064E-06  0.654775823684E-06  0.698051518978E-06  0.744187407478E-06
  0.793372526038E-06  0.845808405383E-06  0.901709895861E-06  0.961306047765E-06  0.102484104983E-05
  0.109257522979E-05  0.116478612097E-05  0.124176959955E-05  0.132384109677E-05  0.141133689142E-05
  0.150461548769E-05  0.160405908409E-05  0.171007513943E-05  0.182309804235E-05  0.194359089116E-05
  0.207204739127E-05  0.220899387813E-05  0.235499147376E-05  0.251063838586E-05  0.267657235888E-05
  0.285347328705E-05  0.304206600013E-05  0.324312323326E-05  0.345746879308E-05  0.368598093314E-05
  0.392959595234E-05  0.418931203123E-05  0.446619332184E-05  0.476137430776E-05  0.507606445247E-05
  0.541155315479E-05  0.576921503188E-05  0.615051555136E-05  0.655701703563E-05  0.699038506310E-05
  0.745239529235E-05  0.794494073737E-05  0.847003952351E-05  0.902984315612E-05  0.962664533557E-05
  0.102628913548E-04  0.109411881179E-04  0.116643148209E-04  0.124352343385E-04  0.132571053626E-04
  0.141332953442E-04  0.150673942891E-04  0.160632294667E-04  0.171248810898E-04  0.182566990310E-04
  0.194633206434E-04  0.207496897594E-04  0.221210769443E-04  0.235831010891E-04  0.251417524290E-04
  0.268034170842E-04  0.285749032209E-04  0.304634689417E-04  0.324768520191E-04  0.346233015926E-04
  0.369116119609E-04  0.393511586064E-04  0.419519365998E-04  0.447246015421E-04  0.476805132112E-04
  0.508317820923E-04  0.541913189819E-04  0.577728878686E-04  0.615911623069E-04  0.656617855157E-04
  0.700014344449E-04  0.746278880751E-04  0.795601002274E-04  0.848182771816E-04  0.904239604217E-04
  0.964001148443E-04  0.102771222792E-03  0.109563384297E-03  0.116804423941E-03  0.124524004773E-03
  0.132753749745E-03  0.141527371166E-03  0.150880808697E-03  0.160852376462E-03  0.171482919856E-03
  0.182815982709E-03  0.194897985478E-03  0.207778415191E-03  0.221510027929E-03  0.236149064651E-03
  0.251755481265E-03  0.268393193863E-03  0.286130340121E-03  0.305039557940E-03  0.325198282439E-03
  0.346689062531E-03  0.369599898342E-03  0.394024600865E-03  0.420063175294E-03  0.447822229594E-03
  0.477415409965E-03  0.508963864960E-03  0.542596740130E-03  0.578451705202E-03  0.616675515911E-03
  0.657424612752E-03  0.700865759063E-03  0.747176721017E-03  0.796546992230E-03  0.849178565919E-03
  0.905286757687E-03  0.965101082235E-03  0.102886618750E-02  0.109684284992E-02  0.116930903489E-02
  0.124656102639E-02  0.132891463061E-02  0.141670645796E-02  0.151029528881E-02  0.161006352819E-02
  0.171641875519E-02  0.182979537311E-02  0.195065636688E-02  0.207949517442E-02  0.221683767940E-02
  0.236324433282E-02  0.251931241189E-02  0.268567842456E-02  0.286302066899E-02  0.305206195768E-02
  0.325357251643E-02  0.346837306907E-02  0.369733811939E-02  0.394139944240E-02  0.420154979775E-02
  0.447884687881E-02  0.477441751169E-02  0.508946211912E-02  0.542525946510E-02  0.578317169689E-02
  0.616464970177E-02  0.657123879690E-02  0.700458477143E-02  0.746644030095E-02  0.795867175526E-02
  0.848326642120E-02  0.904234016341E-02  0.963814554655E-02  0.102730804434E-01  0.109496971542E-01
  0.116707120631E-01  0.124390158587E-01  0.132576843451E-01  0.141299898729E-01  0.150594134161E-01
  0.160496573248E-01  0.171046587811E-01  0.182286039858E-01  0.194259431047E-01  0.207014059977E-01
  0.220600187592E-01  0.235071210902E-01  0.250483845229E-01  0.266898315165E-01  0.284378554367E-01
  0.302992414264E-01  0.322811881734E-01  0.343913305674E-01  0.366377632366E-01  0.390290649394E-01
  0.415743237782E-01  0.442831631875E-01  0.471657686316E-01  0.502329149313E-01  0.534959941151E-01
  0.569670436677E-01  0.606587750192E-01  0.645846020878E-01  0.687586696505E-01  0.731958812761E-01
  0.779119265068E-01  0.829233069227E-01  0.882473606615E-01  0.939022849025E-01  0.999071557438E-01
  0.106281944824E+00  0.113047531942E+00  0.120225712827E+00  0.127839201103E+00  0.135911623360E+00
  0.144467506118E+00  0.153532253311E+00  0.163132112781E+00  0.173294130078E+00  0.184046087708E+00
  0.195416427754E+00  0.207434155639E+00  0.220128722542E+00  0.233529883845E+00  0.247667530723E+00
  0.262571491835E+00  0.278271301905E+00  0.294795933782E+00  0.312173490521E+00  0.330430853894E+00
  0.349593285780E+00  0.369683978950E+00  0.390723553939E+00  0.412729499027E+00  0.435715550803E+00
  0.459691013480E+00  0.484660015960E+00  0.510620706840E+00  0.537564388958E+00  0.565474596840E+00
  0.594326122565E+00  0.624083998048E+00  0.654702444702E+00  0.686123804749E+00  0.718277472164E+00
  0.751078845285E+00  0.784428327380E+00  0.818210405796E+00  0.852292844519E+00  0.886526028710E+00
  0.920742502665E+00  0.954756744132E+00  0.988365217450E+00  0.102134674460E+01  0.105346322630E+01
  0.108446073346E+01  0.111407097189E+01  0.114201309863E+01  0.116799583612E+01  0.119171978962E+01
  0.121287982415E+01  0.123116729969E+01  0.124627190046E+01  0.125788272862E+01  0.126568827112E+01
  0.126937479961E+01  0.126862273966E+01  0.126310056385E+01  0.125245584377E+01  0.123630326409E+01
  0.121420968427E+01  0.118567870407E+01  0.115037724671E+01  0.110841653494E+01  0.105998822681E+01
  0.000000000000E+00  0.000000000000E+00  0.000000000000E+00  0.000000000000E+00  0.000000000000E+00
  0.000000000000E+00  0.000000000000E+00  0.000000000000E+00  0.000000000000E+00  0.000000000000E+00
  0.000000000000E+00  0.000000000000E+00  0.000000000000E+00  0.000000000000E+00  0.000000000000E+00
  0.000000000000E+00  0.000000000000E+00  0.000000000000E+00  0.000000000000E+00  0.000000000000E+00
  0.000000000000E+00  0.000000000000E+00  0.000000000000E+00  0.000000000000E+00  0.000000000000E+00
  0.000000000000E+00  0.000000000000E+00  0.000000000000E+00  0.000000000000E+00  0.000000000000E+00
  0.000000000000E+00  0.000000000000E+00  0.000000000000E+00  0.000000000000E+00  0.000000000000E+00
  0.000000000000E+00  0.000000000000E+00  0.000000000000E+00  0.000000000000E+00  0.000000000000E+00
  0.000000000000E+00  0.000000000000E+00  0.000000000000E+00  0.000000000000E+00  0.000000000000E+00
  0.000000000000E+00  0.000000000000E+00  0.000000000000E+00
 ae wavefunction
 -0.147604293229E-04 -0.156070124519E-04 -0.164999666397E-04 -0.174419617668E-04 -0.184358162090E-04
 -0.194845055021E-04 -0.205911715002E-04 -0.217591320584E-04 -0.229918912709E-04 -0.242931502974E-04
 -0.256668188142E-04 -0.271170271265E-04 -0.286481389814E-04 -0.302647651241E-04 -0.319717776425E-04
 -0.337743251457E-04 -0.356778488281E-04 -0.376880994711E-04 -0.398111554390E-04 -0.420534417291E-04
 -0.444217501384E-04 -0.469232606130E-04 -0.495655638550E-04 -0.523566852549E-04 -0.553051102377E-04
 -0.584198110981E-04 -0.617102754217E-04 -0.651865361812E-04 -0.688592036111E-04 -0.727394989644E-04
 -0.768392902660E-04 -0.811711301793E-04 -0.857482961136E-04 -0.905848327055E-04 -0.956955968136E-04
 -0.101096305179E-03 -0.106803584907E-03 -0.112835026939E-03 -0.119209242692E-03 -0.125945924051E-03
 -0.133065906918E-03 -0.140591238519E-03 -0.148545248702E-03 -0.156952625452E-03 -0.165839494869E-03
 -0.175233505892E-03 -0.185163920012E-03 -0.195661706301E-03 -0.206759642043E-03 -0.218492419306E-03
 -0.230896757794E-03 -0.244011524345E-03 -0.257877859459E-03 -0.272539311259E-03 -0.288041977313E-03
 -0.304434654766E-03 -0.321768999249E-03 -0.340099693078E-03 -0.359484623249E-03 -0.379985069791E-03
 -0.401665905052E-03 -0.424595804532E-03 -0.448847469888E-03 -0.474497864799E-03 -0.501628464381E-03
 -0.530325518889E-03 -0.560680332488E-03 -0.592789557886E-03 -0.626755507684E-03 -0.662686483313E-03
 -0.700697122497E-03 -0.740908766178E-03 -0.783449845925E-03 -0.828456292850E-03 -0.876071969135E-03
 -0.926449123263E-03 -0.979748870152E-03 -0.103614169738E-02 -0.109580799873E-02 -0.115893863644E-02
 -0.122573553328E-02 -0.129641229613E-02 -0.137119487214E-02 -0.145032223913E-02 -0.153404713167E-02
 -0.162263680419E-02 -0.171637383286E-02 -0.181555695760E-02 -0.192050196594E-02 -0.203154262009E-02
 -0.214903162904E-02 -0.227334166699E-02 -0.240486643985E-02 -0.254402180123E-02 -0.269124691937E-02
 -0.284700549656E-02 -0.301178704212E-02 -0.318610820058E-02 -0.337051413582E-02 -0.356557997250E-02
 -0.377191229536E-02 -0.399015070735E-02 -0.422096944685E-02 -0.446507906419E-02 -0.472322815758E-02
 -0.499620516789E-02 -0.528484023157E-02 -0.559000709050E-02 -0.591262505721E-02 -0.625366103317E-02
 -0.661413157742E-02 -0.699510502211E-02 -0.739770363073E-02 -0.782310579407E-02 -0.827254825797E-02
 -0.874732837591E-02 -0.924880637852E-02 -0.977840765063E-02 -0.103376250054E-01 -0.109280209435E-01
 -0.115512298834E-01 -0.122089603482E-01 -0.129029970906E-01 -0.136352031376E-01 -0.144075217331E-01
 -0.152219781544E-01 -0.160806813762E-01 -0.169858255523E-01 -0.179396912843E-01 -0.189446466387E-01
 -0.200031478777E-01 -0.211177398570E-01 -0.222910560474E-01 -0.235258181277E-01 -0.248248350955E-01
 -0.261910018349E-01 -0.276272970796E-01 -0.291367806994E-01 -0.307225902384E-01 -0.323879366238E-01
 -0.341360989613E-01 -0.359704183256E-01 -0.378942904511E-01 -0.399111572188E-01 -0.420244968339E-01
 -0.442378125784E-01 -0.465546200219E-01 -0.489784325647E-01 -0.515127451847E-01 -0.541610162547E-01
 -0.569266472911E-01 -0.598129604944E-01 -0.628231739370E-01 -0.659603742533E-01 -0.692274866881E-01
 -0.726272423576E-01 -0.761621425836E-01 -0.798344201640E-01 -0.836459974507E-01 -0.875984411149E-01
 -0.916929134934E-01 -0.959301204236E-01 -0.100310255495E+00 -0.104832940669E+00 -0.109497163240E+00
 -0.114301209157E+00 -0.119242592742E+00 -0.124317982909E+00 -0.129523126009E+00 -0.134852765512E+00
 -0.140300558771E+00 -0.145858991215E+00 -0.151519288360E+00 -0.157271326146E+00 -0.163103540172E+00
 -0.169002834524E+00 -0.174954490962E+00 -0.180942079345E+00 -0.186947370281E+00 -0.192950251049E+00
 -0.198928645942E+00 -0.204858442271E+00 -0.210713423340E+00 -0.216465209843E+00 -0.222083211315E+00
 -0.227534589488E+00 -0.232784235751E+00 -0.237794765243E+00 -0.242526530472E+00 -0.246937657640E+00
 -0.250984108998E+00 -0.254619774622E+00 -0.257796596843E+00 -0.260464730416E+00 -0.262572741162E+00
 -0.264067845553E+00 -0.264896193329E+00 -0.265003195017E+00 -0.264333895926E+00 -0.262833398061E+00
 -0.260447331071E+00 -0.257122373009E+00 -0.252806821227E+00 -0.247451213075E+00 -0.241008995414E+00
 -0.233437241124E+00 -0.224697409879E+00 -0.214756149433E+00 -0.203586132532E+00 -0.191166923349E+00
 -0.177485865966E+00 -0.162538986077E+00 -0.146331895551E+00 -0.128880688066E+00 -0.110212812467E+00
 -0.903679090910E-01 -0.693985929144E-01 -0.473711661198E-01 -0.243662416295E-01 -0.479258272805E-03
  0.241791323049E-01  0.494828270375E-01  0.752902007133E-01  0.101444221305E+00  0.127772766914E+00
  0.154089156012E+00  0.180192898231E+00  0.205870669541E+00  0.230897515660E+00  0.255038292698E+00
  0.278049363912E+00  0.299680581635E+00  0.319677584908E+00  0.337784426586E+00  0.353746509392E+00
  0.367313777424E+00  0.378244099518E+00  0.386306793577E+00  0.391286256278E+00  0.392985664925E+00
  0.391230708463E+00  0.385873292450E+00  0.376795155425E+00  0.363911332772E+00  0.347173406254E+00
  0.326572479668E+00  0.302141821826E+00  0.273959117126E+00  0.242148262003E+00  0.206880643398E+00
  0.168375834336E+00  0.126901642704E+00  0.827734539390E-01  0.363528174250E-01 -0.119547596013E-01
 -0.617028295381E-01 -0.112407835698E+00 -0.163553750172E+00 -0.214597511294E+00 -0.264975251326E+00
 -0.314109253962E+00 -0.361415402367E+00 -0.406310536595E+00 -0.448218838216E+00 -0.486576664439E+00
 -0.520836657906E+00 -0.550473719346E+00 -0.574994967697E+00 -0.593952090003E+00 -0.606952085733E+00
 -0.613664633455E+00 -0.613827083716E+00 -0.607248352064E+00 -0.593812143191E+00 -0.573479357705E+00
 -0.546289358591E+00 -0.512359842954E+00 -0.471885236815E+00 -0.425133694700E+00 -0.372442884155E+00
 -0.314214770429E+00 -0.250909610343E+00 -0.183039343271E+00 -0.111160541739E+00 -0.358670618523E-01
  0.422174833268E-01  0.122447316132E+00  0.204162046902E+00  0.286694083895E+00  0.369375798962E+00
  0.451546352111E+00  0.532558087721E+00  0.611782431201E+00  0.688615226705E+00  0.762481453858E+00
  0.832839230546E+00  0.899182947412E+00  0.961045329293E+00  0.101799825102E+01  0.106965233459E+01
  0.111565571719E+01  0.115569273553E+01  0.118948335279E+01  0.121678381343E+01  0.123738840792E+01
  0.125113175944E+01  0.125789090308E+01  0.125758663555E+01  0.125018390561E+01  0.123569123788E+01
  0.121415929579E+01  0.118567870407E+01  0.115037724671E+01  0.110841653494E+01  0.105998822681E+01
  0.000000000000E+00  0.000000000000E+00  0.000000000000E+00  0.000000000000E+00  0.000000000000E+00
  0.000000000000E+00  0.000000000000E+00  0.000000000000E+00  0.000000000000E+00  0.000000000000E+00
  0.000000000000E+00  0.000000000000E+00  0.000000000000E+00  0.000000000000E+00  0.000000000000E+00
  0.000000000000E+00  0.000000000000E+00  0.000000000000E+00  0.000000000000E+00  0.000000000000E+00
  0.000000000000E+00  0.000000000000E+00  0.000000000000E+00  0.000000000000E+00  0.000000000000E+00
  0.000000000000E+00  0.000000000000E+00  0.000000000000E+00  0.000000000000E+00  0.000000000000E+00
  0.000000000000E+00  0.000000000000E+00  0.000000000000E+00  0.000000000000E+00  0.000000000000E+00
  0.000000000000E+00  0.000000000000E+00  0.000000000000E+00  0.000000000000E+00  0.000000000000E+00
  0.000000000000E+00  0.000000000000E+00  0.000000000000E+00  0.000000000000E+00  0.000000000000E+00
  0.000000000000E+00  0.000000000000E+00  0.000000000000E+00
 pseudo wavefunction
  0.177267236747E-12  0.195128517616E-12  0.214789484431E-12  0.236431471862E-12  0.260254085695E-12
  0.286477043805E-12  0.315342202634E-12  0.347115787857E-12  0.382090849794E-12  0.420589966245E-12
  0.462968217645E-12  0.509616462004E-12  0.560964939816E-12  0.617487242208E-12  0.679704678906E-12
  0.748191086314E-12  0.823578120059E-12  0.906561080795E-12  0.997905327024E-12  0.109845333405E-11
  0.120913246421E-11  0.133096351999E-11  0.146507015899E-11  0.161268925751E-11  0.177518231832E-11
  0.195404802798E-11  0.215093607926E-11  0.236766238647E-11  0.260622583375E-11  0.286882671090E-11
  0.315788700693E-11  0.347607274814E-11  0.382631858719E-11  0.421185486959E-11  0.463623742748E-11
  0.510338037528E-11  0.561759220998E-11  0.618361554869E-11  0.680667087020E-11  0.749250466388E-11
  0.824744243004E-11  0.907844702050E-11  0.999318285755E-11  0.110000866236E-10  0.121084450732E-10
  0.133284806858E-10  0.146714459483E-10  0.161497271379E-10  0.177769585613E-10  0.195681483057E-10
  0.215398166589E-10  0.237101484779E-10  0.260991609088E-10  0.287288880071E-10  0.316235839592E-10
  0.348099467812E-10  0.383173645563E-10  0.421781864842E-10  0.464280212402E-10  0.511060653970E-10
  0.562554649379E-10  0.619237131961E-10  0.681630888895E-10  0.750311382920E-10  0.825912059874E-10
  0.909130191023E-10  0.100073330405E-09  0.110156626203E-09  0.121255905569E-09  0.133473538077E-09
  0.146922207966E-09  0.161725953441E-09  0.178021310682E-09  0.195958573135E-09  0.215703177679E-09
  0.237437230466E-09  0.261361186503E-09  0.287695698467E-09  0.316683651805E-09  0.348592404891E-09
  0.383716254894E-09  0.422379152115E-09  0.464937687805E-09  0.511784383048E-09  0.563351309016E-09
  0.620114072012E-09  0.682596200028E-09  0.751373971305E-09  0.827081729401E-09  0.910417733817E-09
  0.100215060012E-08  0.110312638895E-08  0.121427640937E-08  0.133662580840E-08  0.147130302610E-08
  0.161955020328E-08  0.178273463792E-08  0.196236139596E-08  0.216008719269E-08  0.237773567284E-08
  0.261731423034E-08  0.288103252277E-08  0.317132285132E-08  0.349086259433E-08  0.384259890108E-08
  0.422977587384E-08  0.465596448876E-08  0.512509553154E-08  0.564149585177E-08  0.620992827021E-08
  0.683563550716E-08  0.752438853711E-08  0.828253981552E-08  0.911708186887E-08  0.100357117882E-07
  0.110469022211E-07  0.121599795170E-07  0.133852097462E-07  0.147338933864E-07  0.162184695503E-07
  0.178526307147E-07  0.196514490102E-07  0.216315152361E-07  0.238110918829E-07  0.262102815727E-07
  0.288512124733E-07  0.317582423942E-07  0.349581834485E-07  0.384805493513E-07  0.423578276379E-07
  0.466257793110E-07  0.513237686814E-07  0.564951264449E-07  0.621875493444E-07  0.684535401039E-07
  0.753508916919E-07  0.829432203827E-07  0.913005525314E-07  0.100499970476E-06  0.110626323525E-06
  0.121773010591E-06  0.134042841684E-06  0.147548986220E-06  0.162416016892E-06  0.178781058721E-06
  0.196795053913E-06  0.216624154158E-06  0.238451253255E-06  0.262477674164E-06  0.288925026080E-06
  0.318037248650E-06  0.350082862197E-06  0.385357444711E-06  0.424186358475E-06  0.466927751463E-06
  0.513975861235E-06  0.565764651798E-06  0.622771816997E-06  0.685523187397E-06  0.754597581314E-06
  0.830632144771E-06  0.914328229680E-06  0.100645786449E-05  0.110787087705E-05  0.121950273541E-05
  0.134238317903E-05  0.147764571996E-05  0.162653810184E-05  0.179043381321E-05  0.197084476153E-05
  0.216943522492E-05  0.238803721045E-05  0.262866736092E-05  0.289354556632E-05  0.318511545182E-05
  0.350606693175E-05  0.385936103790E-05  0.424825725165E-05  0.467634359260E-05  0.514756974189E-05
  0.566628350641E-05  0.623727096129E-05  0.686580064180E-05  0.755767219368E-05  0.831926993200E-05
  0.915762180427E-05  0.100804643037E-04  0.110963139338E-04  0.122145458859E-04  0.134454806591E-04
  0.148004794251E-04  0.162920490213E-04  0.179339575482E-04  0.197413616399E-04  0.217309465922E-04
  0.239210806475E-04  0.263319848697E-04  0.289859201884E-04  0.319073933501E-04  0.351233836936E-04
  0.386635928590E-04  0.425607197553E-04  0.468507633512E-04  0.515733561079E-04  0.567721311698E-04
  0.624951267380E-04  0.687952314064E-04  0.757306746262E-04  0.833655668876E-04  0.917704946814E-04
  0.101023175819E-03  0.111209181262E-03  0.122422730250E-03  0.134767566195E-03  0.148357921613E-03
  0.163319581175E-03  0.179791052930E-03  0.197924858772E-03  0.217888956383E-03  0.239868306127E-03
  0.264066597804E-03  0.290708153697E-03  0.320040026050E-03  0.352334309039E-03  0.387890687358E-03
  0.427039245885E-03  0.470143567430E-03  0.517604148440E-03  0.569862165640E-03  0.627403630105E-03
  0.690763969071E-03  0.760533080117E-03  0.837360907024E-03  0.921963591898E-03  0.101513026395E-02
  0.111773053174E-02  0.123072275293E-02  0.135516316330E-02  0.149221595589E-02  0.164316441049E-02
  0.180942318491E-02  0.199255189095E-02  0.219427009175E-02  0.241647387161E-02  0.266125414565E-02
  0.293091689486E-02  0.322800553204E-02  0.355532562608E-02  0.391597223646E-02  0.431336013697E-02
  0.475125723704E-02  0.523382154201E-02  0.576564202937E-02  0.635178385761E-02  0.699783836722E-02
  0.770997838057E-02  0.849501935831E-02  0.936048702553E-02  0.103146921404E-01  0.113668131418E-01
  0.125269874813E-01  0.138064125153E-01  0.152174569093E-01  0.167737835834E-01  0.184904853063E-01
  0.203842341228E-01  0.224734458750E-01  0.247784611465E-01  0.273217440156E-01  0.301281000509E-01
  0.332249149995E-01  0.366424156146E-01  0.404139540192E-01  0.445763169038E-01  0.491700606883E-01
  0.542398735292E-01  0.598349646941E-01  0.660094813384E-01  0.728229520717E-01  0.803407558611E-01
  0.886346137496E-01  0.977830995269E-01  0.107872163835E+00  0.118995664179E+00  0.131255890878E+00
  0.144764076150E+00  0.159640870118E+00  0.176016763711E+00  0.194032434002E+00  0.213838982694E+00
  0.235598033130E+00  0.259481645647E+00  0.285672005338E+00  0.314360830747E+00  0.345748447046E+00
  0.380042463250E+00  0.417455990822E+00  0.458205341259E+00  0.502507143914E+00  0.550574833491E+00
  0.602614470275E+00  0.658819876507E+00  0.719367099994E+00  0.784408251618E+00  0.854064806601E+00
  0.928420508667E+00  0.100751406890E+01  0.109133190203E+01  0.117980118469E+01  0.127278354259E+01
  0.137006966297E+01  0.147137742353E+01  0.157664611941E+01  0.168639728726E+01  0.180131120941E+01
  0.000000000000E+00  0.000000000000E+00  0.000000000000E+00  0.000000000000E+00  0.000000000000E+00
  0.000000000000E+00  0.000000000000E+00  0.000000000000E+00  0.000000000000E+00  0.000000000000E+00
  0.000000000000E+00  0.000000000000E+00  0.000000000000E+00  0.000000000000E+00  0.000000000000E+00
  0.000000000000E+00  0.000000000000E+00  0.000000000000E+00  0.000000000000E+00  0.000000000000E+00
  0.000000000000E+00  0.000000000000E+00  0.000000000000E+00  0.000000000000E+00  0.000000000000E+00
  0.000000000000E+00  0.000000000000E+00  0.000000000000E+00  0.000000000000E+00  0.000000000000E+00
  0.000000000000E+00  0.000000000000E+00  0.000000000000E+00  0.000000000000E+00  0.000000000000E+00
  0.000000000000E+00  0.000000000000E+00  0.000000000000E+00  0.000000000000E+00  0.000000000000E+00
  0.000000000000E+00  0.000000000000E+00  0.000000000000E+00  0.000000000000E+00  0.000000000000E+00
  0.000000000000E+00  0.000000000000E+00  0.000000000000E+00
 ae wavefunction
  0.535557091688E-08  0.584615313731E-08  0.637852560588E-08  0.695650990188E-08  0.758425806966E-08
  0.826628296352E-08  0.900749126720E-08  0.981321943545E-08  0.106892728289E-07  0.116419683367E-07
  0.126781808101E-07  0.138053936577E-07  0.150317539870E-07  0.163661327108E-07  0.178181900761E-07
  0.193984471160E-07  0.211183635701E-07  0.229904228701E-07  0.250282248424E-07  0.272465868402E-07
  0.296616540841E-07  0.322910200596E-07  0.351538579081E-07  0.382710638173E-07  0.416654135360E-07
  0.453617332175E-07  0.493870859270E-07  0.537709752659E-07  0.585455677009E-07  0.637459353370E-07
  0.694103210381E-07  0.755804279733E-07  0.823017358654E-07  0.896238464322E-07  0.976008607428E-07
  0.106291791472E-06  0.115761013312E-06  0.126078755111E-06  0.137321637645E-06  0.149573261296E-06
  0.162924848318E-06  0.177475944804E-06  0.193335187967E-06  0.210621144862E-06  0.229463229270E-06
  0.250002704090E-06  0.272393777285E-06  0.296804800196E-06  0.323419577861E-06  0.352438801893E-06
  0.384081617488E-06  0.418587337191E-06  0.456217315294E-06  0.497256998004E-06  0.542018166008E-06
  0.590841387576E-06  0.644098702118E-06  0.702196555950E-06  0.765579014125E-06  0.834731274405E-06
  0.910183511934E-06  0.992515085885E-06  0.108235914228E-05  0.118040765041E-05  0.128741691390E-05
  0.140421360116E-05  0.153170134434E-05  0.167086796055E-05  0.182279335389E-05  0.198865816276E-05
  0.216975322259E-05  0.236748992093E-05  0.258341152899E-05  0.281920560157E-05  0.307671754584E-05
  0.335796546909E-05  0.366515642535E-05  0.400070419242E-05  0.436724872277E-05  0.476767742515E-05
  0.520514844821E-05  0.568311615343E-05  0.620535898171E-05  0.677600993681E-05  0.739958992947E-05
  0.808104424819E-05  0.882578244692E-05  0.963972196661E-05  0.105293358361E-04  0.115017048290E-04
  0.125645744880E-04  0.137264174643E-04  0.149965016595E-04  0.163849647031E-04  0.179028953445E-04
  0.195624223888E-04  0.213768118647E-04  0.233605731707E-04  0.255295750111E-04  0.279011720074E-04
  0.304943429431E-04  0.333298416869E-04  0.364303619264E-04  0.398207169430E-04  0.435280357630E-04
  0.475819771314E-04  0.520149628805E-04  0.568624323912E-04  0.621631199907E-04  0.679593572794E-04
  0.742974025429E-04  0.812277995817E-04  0.888057684757E-04  0.970916310030E-04  0.106151273648E-03
  0.116056651359E-03  0.126886335465E-03  0.138726109418E-03  0.151669616304E-03  0.165819062360E-03
  0.181285981049E-03  0.198192062567E-03  0.216670054014E-03  0.236864735803E-03  0.258933980313E-03
  0.283049899130E-03  0.309400085698E-03  0.338188960608E-03  0.369639227210E-03  0.403993445724E-03
  0.441515734465E-03  0.482493607348E-03  0.527239957286E-03  0.576095195644E-03  0.629429558386E-03
  0.687645590092E-03  0.751180817488E-03  0.820510624623E-03  0.896151342294E-03  0.978663564722E-03
  0.106865570687E-02  0.116678781616E-02  0.127377565246E-02  0.139039505065E-02  0.151748657985E-02
  0.165596051347E-02  0.180680212419E-02  0.197107731733E-02  0.214993861572E-02  0.234463150834E-02
  0.255650117392E-02  0.278699958949E-02  0.303769303186E-02  0.331026997852E-02  0.360654941129E-02
  0.392848952375E-02  0.427819682947E-02  0.465793566433E-02  0.507013807132E-02  0.551741405083E-02
  0.600256215314E-02  0.652858038289E-02  0.709867737711E-02  0.771628380947E-02  0.838506396345E-02
  0.910892740557E-02  0.989204067778E-02  0.107388389141E-01  0.116540372718E-01  0.126426420508E-01
  0.137099613577E-01  0.148616151508E-01  0.161035444830E-01  0.174420197374E-01  0.188836476255E-01
  0.204353766956E-01  0.221045010695E-01  0.238986620988E-01  0.258258475984E-01  0.278943882798E-01
  0.301129509663E-01  0.324905281283E-01  0.350364232263E-01  0.377602313005E-01  0.406718142025E-01
  0.437812698293E-01  0.470988947065E-01  0.506351392785E-01  0.544005552905E-01  0.584057346962E-01
  0.626612395692E-01  0.671775225412E-01  0.719648373171E-01  0.770331388354E-01  0.823919726511E-01
  0.880503531126E-01  0.940166299146E-01  0.100298342634E+00  0.106902062923E+00  0.113833224164E+00
  0.121095938520E+00  0.128692801546E+00  0.136624684697E+00  0.144890516309E+00  0.153487051911E+00
  0.162408634977E+00  0.171646949572E+00  0.181190766697E+00  0.191025686496E+00  0.201133878916E+00
  0.211493825809E+00  0.222080067890E+00  0.232862960401E+00  0.243808441736E+00  0.254877819686E+00
  0.266027580327E+00  0.277209224893E+00  0.288369140281E+00  0.299448509020E+00  0.310383264636E+00
  0.321104098268E+00  0.331536521905E+00  0.341600992648E+00  0.351213100680E+00  0.360283821198E+00
  0.368719828083E+00  0.376423865638E+00  0.383295176381E+00  0.389229988971E+00  0.394122080834E+00
  0.397863441913E+00  0.400345073198E+00  0.401457947599E+00  0.401094136232E+00  0.399148068479E+00
  0.395517872648E+00  0.390106751761E+00  0.382824375213E+00  0.373588286893E+00  0.362325332185E+00
  0.348973096488E+00  0.333481337924E+00  0.315813392628E+00  0.295947532014E+00  0.273878254148E+00
  0.249617493161E+00  0.223195730212E+00  0.194662987235E+00  0.164089681222E+00  0.131567313011E+00
  0.972089612218E-01  0.611495499733E-01  0.235458591162E-01 -0.154237513525E-01 -0.555599253746E-01
 -0.966432190962E-01 -0.138435344127E+00 -0.180680758538E+00 -0.223108628582E+00 -0.265435190316E+00
 -0.307366500747E+00 -0.348601411819E+00 -0.388834295863E+00 -0.427756778333E+00 -0.465058000549E+00
 -0.500424206679E+00 -0.533540096848E+00 -0.564094053576E+00 -0.591785950498E+00 -0.616333933315E+00
 -0.637478529579E+00 -0.654985045120E+00 -0.668645509801E+00 -0.678280660905E+00 -0.683741884974E+00
 -0.684912828488E+00 -0.681710402222E+00 -0.674085030926E+00 -0.662020139554E+00 -0.645530959372E+00
 -0.624662775909E+00 -0.599488740379E+00 -0.570107351098E+00 -0.536639690199E+00 -0.499226480967E+00
 -0.458025014780E+00 -0.413205983051E+00 -0.364950242706E+00 -0.313445539145E+00 -0.258883212625E+00
 -0.201454915966E+00 -0.141349372843E+00 -0.787492042471E-01 -0.138278433941E-01  0.532534455006E-01
  0.122348422328E+00  0.193328547577E+00  0.266085373587E+00  0.340532496809E+00  0.416606938865E+00
  0.494269972877E+00  0.573507668106E+00  0.654331656650E+00  0.736780660310E+00  0.820923101616E+00
  0.906860813465E+00  0.994733629777E+00  0.108472460955E+01  0.117706574281E+01  0.127204411776E+01
  0.137000863647E+01  0.147137742353E+01  0.157664611941E+01  0.168639728726E+01  0.180131120941E+01
  0.000000000000E+00  0.000000000000E+00  0.000000000000E+00  0.000000000000E+00  0.000000000000E+00
  0.000000000000E+00  0.000000000000E+00  0.000000000000E+00  0.000000000000E+00  0.000000000000E+00
  0.000000000000E+00  0.000000000000E+00  0.000000000000E+00  0.000000000000E+00  0.000000000000E+00
  0.000000000000E+00  0.000000000000E+00  0.000000000000E+00  0.000000000000E+00  0.000000000000E+00
  0.000000000000E+00  0.000000000000E+00  0.000000000000E+00  0.000000000000E+00  0.000000000000E+00
  0.000000000000E+00  0.000000000000E+00  0.000000000000E+00  0.000000000000E+00  0.000000000000E+00
  0.000000000000E+00  0.000000000000E+00  0.000000000000E+00  0.000000000000E+00  0.000000000000E+00
  0.000000000000E+00  0.000000000000E+00  0.000000000000E+00  0.000000000000E+00  0.000000000000E+00
  0.000000000000E+00  0.000000000000E+00  0.000000000000E+00  0.000000000000E+00  0.000000000000E+00
  0.000000000000E+00  0.000000000000E+00  0.000000000000E+00
 End of Dataset
