    10
 Wannier centres, written by Wannier90 on27Sep2026 at 16:53:40 
X         -0.00000000      -0.00001574      -0.06260075
X          0.00000000      -0.00001819      -0.10113852
X          0.00000000      -0.05940514      -0.03846462
X         -0.00000000       0.05963327      -0.03844773
X         -0.00000000       0.00001182      -5.22734400
X         -0.00000000       0.00001377      -5.20596703
X          0.00000000       0.05544653      -5.26813449
X         -0.00000000      -0.05565330      -5.26811709
Ge         0.00000000       0.00000000      10.97904360
Te         0.00000000       0.00000000       5.80835110
