 running   12 mpi-ranks, with    1 threads/rank, on    1 nodes
 distrk:  each k-point on   12 cores,    1 groups
 distr:  one band on    1 cores,   12 groups
 vasp.6.4.2 20Jul23 (build May 01 2025 16:49:15) complex                        
  
 POSCAR found type information on POSCAR GeTe
 POSCAR found :  2 types and       2 ions
 Reading from existing POTCAR
 scaLAPACK will be used
 Reading from existing POTCAR
 LDA part: xc-table for Pade appr. of Perdew
 POSCAR, INCAR and KPOINTS ok, starting setup
 FFT: planning ... GRIDC
 FFT: planning ... GRID_SOFT
 FFT: planning ... GRID
 WAVECAR not read
 entering main loop
       N       E                     dE             d eps       ncg     rms          rms(c)
DAV:   1     0.114987582570E+03    0.11499E+03   -0.93679E+03 17724   0.159E+03
DAV:   2     0.589390005110E+01   -0.10909E+03   -0.10282E+03 18960   0.413E+02
DAV:   3    -0.753452424712E+01   -0.13428E+02   -0.13387E+02 20808   0.703E+01
DAV:   4    -0.784072124103E+01   -0.30620E+00   -0.30617E+00 21120   0.105E+01
DAV:   5    -0.784713761667E+01   -0.64164E-02   -0.64163E-02 22248   0.185E+00    0.481E+00
DAV:   6    -0.783805246803E+01    0.90851E-02   -0.24916E-02 22500   0.891E-01    0.301E+00
DAV:   7    -0.783930512829E+01   -0.12527E-02   -0.13720E-02 22092   0.522E-01    0.268E-01
DAV:   8    -0.783931335807E+01   -0.82298E-05   -0.14399E-03 22044   0.236E-01    0.778E-02
DAV:   9    -0.783939910054E+01   -0.85742E-04   -0.14038E-04 21732   0.658E-02    0.172E-02
DAV:  10    -0.783940664061E+01   -0.75401E-05   -0.78642E-06 22260   0.142E-02    0.121E-02
DAV:  11    -0.783940821651E+01   -0.15759E-05   -0.36615E-06 20520   0.117E-02    0.322E-03
DAV:  12    -0.783940827501E+01   -0.58496E-07   -0.18208E-07 22464   0.299E-03    0.125E-03
DAV:  13    -0.783940815005E+01    0.12496E-06   -0.61629E-08 20424   0.186E-03    0.710E-04
DAV:  14    -0.783940819631E+01   -0.46252E-07   -0.19515E-09 17784   0.345E-04    0.296E-04
DAV:  15    -0.783940821605E+01   -0.19743E-07   -0.84954E-10 13824   0.144E-04    0.392E-05
DAV:  16    -0.783940821537E+01    0.68076E-09   -0.61657E-11 10764   0.468E-05
 Calling wannier_setup of wannier90 in library mode
 Wannier90 mode
 Computing MMN (overlap matrix elements)
 Computing AMN (projections onto localized orbitals)
 Write UNK files
  Writing WANPROJ file
   1 F= -.78394082E+01 E0= -.78394082E+01  d E =-.180328E-13
 writing wavefunctions
