 vasp.6.4.2 20Jul23 (build May 01 2025 16:49:15) complex                        
  
 executed on             LinuxIFC date 2025.10.05  17:33:17
 running   12 mpi-ranks, with    1 threads/rank, on    1 nodes
 distrk:  each k-point on   12 cores,    1 groups
 distr:  one band on NCORE=   1 cores,   12 groups


--------------------------------------------------------------------------------------------------------


 INCAR:
   ISTART = 1            (Read existing wavefunction, if there)
   ISPIN = 1            (Non-Spin polarised DFT)
   LREAL = .FALSE.       (Projection operators: automatic)
   ENCUT = 400        (Cut-off energy for plane wave basis set, in eV)
   NCORE = 1
   LWAVE = .TRUE.        (Write WAVECAR or not)
   LCHARG = .TRUE.        (Write CHGCAR or not)
   ADDGRID = .TRUE.        (Increase grid, helps GGA convergence)
   LASPH = .TRUE.        (Give more accurate total energies and band structure calculations)
   PREC = Accurate      (Accurate strictly avoids any aliasing or wrap around errors)
   ISMEAR = 0            (gaussian smearing method)
   SIGMA = 0.05         (please check the width of the smearing)
   LORBIT = 11           (PAW radii for projected DOS)
   NELM = 200           (Max electronic SCF steps)
   EDIFF = 1E-08        (SCF energy convergence, in eV)
   LWANNIER90 = .TRUE.
   LWRITE_MMN_AMN = .TRUE.
   LWRITE_WANPROJ = .TRUE.
   LWRITE_UNK = .TRUE.
   NUM_WANN = 8
   WANNIER90_WIN = \"\
FERMI_ENERGY \= 10.1861\
DIS_FROZ_MIN \= -15\
DIS_FROZ_MAX \= 25\
DIS_WIN_MIN \= -19\
DIS_WIN_MAX \= 30\
NUM_ITER \= 3\
WRITE_HR \= TRUE\
begin projections\
C:s,p\
end projections\
\"

 POTCAR:    PAW_PBE C 08Apr2002                   
 POTCAR:    PAW_PBE C 08Apr2002                   
   VRHFIN =C: s2p2                                                                                  
   LEXCH  = PE                                                                                      
   EATOM  =   147.1560 eV,   10.8157 Ry                                                             
                                                                                                    
   TITEL  = PAW_PBE C 08Apr2002                                                                     
   LULTRA =        F    use ultrasoft PP ?                                                          
   IUNSCR =        1    unscreen: 0-lin 1-nonlin 2-no                                               
   RPACOR =    1.200    partial core radius                                                         
   POMASS =   12.011; ZVAL   =    4.000    mass and valenz                                          
   RCORE  =    1.500    outmost cutoff radius                                                       
   RWIGS  =    1.630; RWIGS  =    0.863    wigner-seitz radius (au A)                               
   ENMAX  =  400.000; ENMIN  =  300.000 eV                                                          
   ICORE  =        2    local potential                                                             
   LCOR   =        T    correct aug charges                                                         
   LPAW   =        T    paw PP                                                                      
   EAUG   =  644.873                                                                                
   DEXC   =    0.000                                                                                
   RMAX   =    1.529    core radius for proj-oper                                                   
   RAUG   =    1.300    factor for augmentation sphere                                              
   RDEP   =    1.501    radius for radial grids                                                     
   RDEPT  =    1.300    core radius for aug-charge                                                  
                                                                                                    
   Atomic configuration                                                                             
    4 entries                                                                                       
     n  l   j            E        occ.                                                              
     1  0  0.50      -273.3789   2.0000                                                             
     2  0  0.50       -13.7508   2.0000                                                             
     2  1  0.50        -5.2854   2.0000                                                             
     3  2  1.50        -5.4423   0.0000                                                             
   Description                                                                                      
     l       E           TYP  RCUT    TYP  RCUT                                                     
     0    -13.7508458     23  1.200                                                                 
     0     -8.2022199     23  1.200                                                                 
     1     -5.2854383     23  1.500                                                                 
     1     34.0145650     23  1.500                                                                 
     2     -5.4423304      7  1.500                                                                 
  local pseudopotential read in
  partial core-charges read in
  partial kinetic energy density read in
  atomic valenz-charges read in
  non local Contribution for L=           0  read in
    real space projection operators read in
  non local Contribution for L=           0  read in
    real space projection operators read in
  non local Contribution for L=           1  read in
    real space projection operators read in
  non local Contribution for L=           1  read in
    real space projection operators read in
    PAW grid and wavefunctions read in
 
   number of l-projection  operators is LMAX  =           4
   number of lm-projection operators is LMMAX =           8
 
  PAW_PBE C 08Apr2002                   :
 energy of atom  1       EATOM= -147.1560
 kinetic energy error for atom=    0.0288 (will be added to EATOM!!)
 
 
 POSCAR: Generated by VASPKIT code
  positions in direct lattice
  No initial velocities read in
 exchange correlation table for  LEXCH =        8
   RHO(1)=    0.500       N(1)  =     2000
   RHO(2)=  100.500       N(2)  =     4000
 


--------------------------------------------------------------------------------------------------------


 ion  position               nearest neighbor table
   1  0.500  0.500  0.500-   2 1.54   2 1.54   2 1.54   2 1.54
   2  0.750  0.750  0.750-   1 1.54   1 1.54   1 1.54   1 1.54
 
  LATTYP: Found a face centered cubic cell.
 ALAT       =     3.5607451091
  
  Lattice vectors:
  
 A1 = (   0.0000000000,   1.7803725545,   1.7803725545)
 A2 = (   1.7803725545,   0.0000000000,   1.7803725545)
 A3 = (   1.7803725545,   1.7803725545,   0.0000000000)


Analysis of symmetry for initial positions (statically):
=====================================================================
 Subroutine PRICEL returns:
 Original cell was already a primitive cell.
 

 Routine SETGRP: Setting up the symmetry group for a 
 face centered cubic supercell.


 Subroutine GETGRP returns: Found 48 space group operations
 (whereof 24 operations were pure point group operations)
 out of a pool of 48 trial point group operations.


The static configuration has the point symmetry T_d .
 The point group associated with its full space group is O_h .


Analysis of symmetry for dynamics (positions and initial velocities):
=====================================================================
 Subroutine PRICEL returns:
 Original cell was already a primitive cell.
 

 Routine SETGRP: Setting up the symmetry group for a 
 face centered cubic supercell.


 Subroutine GETGRP returns: Found 48 space group operations
 (whereof 24 operations were pure point group operations)
 out of a pool of 48 trial point group operations.


The dynamic configuration has the point symmetry T_d .
 The point group associated with its full space group is O_h .


 Subroutine INISYM returns: Found 48 space group operations
 (whereof 24 operations are pure point group operations),
 and found     1 'primitive' translations


----------------------------------------------------------------------------------------

                                     Primitive cell                                     

  volume of cell :      11.2866

  direct lattice vectors                    reciprocal lattice vectors
     0.000000000  1.780372555  1.780372555    -0.280840096  0.280840096  0.280840096
     1.780372555  0.000000000  1.780372555     0.280840096 -0.280840096  0.280840096
     1.780372555  1.780372555  0.000000000     0.280840096  0.280840096 -0.280840096

  length of vectors
     2.517827013  2.517827013  2.517827013     0.486429316  0.486429316  0.486429316

  position of ions in fractional coordinates (direct lattice)
     0.500000000  0.500000000  0.500000000
     0.750000000  0.750000000  0.750000000

  ion indices of the primitive-cell ions
   primitive index   ion index
                 1           1
                 2           2

----------------------------------------------------------------------------------------

 
 
 KPOINTS: K-Spacing Value to Generate K-Mesh: 0.03

Automatic generation of k-mesh.
 Grid dimensions read from file:
 generate k-points for:   16   16   16

 Generating k-lattice:

  Cartesian coordinates                     Fractional coordinates (reciprocal lattice)
    -0.017552506  0.017552506  0.017552506     0.062500000 -0.000000000 -0.000000000
     0.017552506 -0.017552506  0.017552506    -0.000000000  0.062500000  0.000000000
     0.017552506  0.017552506 -0.017552506     0.000000000  0.000000000  0.062500000

  Length of vectors
     0.030401832  0.030401832  0.030401832

  Shift w.r.t. Gamma in fractional coordinates (k-lattice)
     0.000000000  0.000000000  0.000000000

 
 Subroutine IBZKPT returns following result:
 ===========================================
 
 Found    145 irreducible k-points:
 
 Following reciprocal coordinates:
            Coordinates               Weight
  0.000000  0.000000  0.000000      1.000000
  0.062500  0.000000  0.000000      8.000000
  0.125000  0.000000  0.000000      8.000000
  0.187500  0.000000  0.000000      8.000000
  0.250000  0.000000  0.000000      8.000000
  0.312500  0.000000  0.000000      8.000000
  0.375000  0.000000  0.000000      8.000000
  0.437500  0.000000  0.000000      8.000000
  0.500000  0.000000  0.000000      4.000000
  0.062500  0.062500  0.000000      6.000000
  0.125000  0.062500  0.000000     24.000000
  0.187500  0.062500  0.000000     24.000000
  0.250000  0.062500  0.000000     24.000000
  0.312500  0.062500  0.000000     24.000000
  0.375000  0.062500  0.000000     24.000000
  0.437500  0.062500  0.000000     24.000000
  0.500000  0.062500  0.000000     24.000000
 -0.437500  0.062500  0.000000     24.000000
 -0.375000  0.062500  0.000000     24.000000
 -0.312500  0.062500  0.000000     24.000000
 -0.250000  0.062500  0.000000     24.000000
 -0.187500  0.062500  0.000000     24.000000
 -0.125000  0.062500  0.000000     24.000000
 -0.062500  0.062500  0.000000     12.000000
  0.125000  0.125000  0.000000      6.000000
  0.187500  0.125000  0.000000     24.000000
  0.250000  0.125000  0.000000     24.000000
  0.312500  0.125000  0.000000     24.000000
  0.375000  0.125000  0.000000     24.000000
  0.437500  0.125000  0.000000     24.000000
  0.500000  0.125000  0.000000     24.000000
 -0.437500  0.125000  0.000000     24.000000
 -0.375000  0.125000  0.000000     24.000000
 -0.312500  0.125000  0.000000     24.000000
 -0.250000  0.125000  0.000000     24.000000
 -0.187500  0.125000  0.000000     24.000000
 -0.125000  0.125000  0.000000     12.000000
  0.187500  0.187500  0.000000      6.000000
  0.250000  0.187500  0.000000     24.000000
  0.312500  0.187500  0.000000     24.000000
  0.375000  0.187500  0.000000     24.000000
  0.437500  0.187500  0.000000     24.000000
  0.500000  0.187500  0.000000     24.000000
 -0.437500  0.187500  0.000000     24.000000
 -0.375000  0.187500  0.000000     24.000000
 -0.312500  0.187500  0.000000     24.000000
 -0.250000  0.187500  0.000000     24.000000
 -0.187500  0.187500  0.000000     12.000000
  0.250000  0.250000  0.000000      6.000000
  0.312500  0.250000  0.000000     24.000000
  0.375000  0.250000  0.000000     24.000000
  0.437500  0.250000  0.000000     24.000000
  0.500000  0.250000  0.000000     24.000000
 -0.437500  0.250000  0.000000     24.000000
 -0.375000  0.250000  0.000000     24.000000
 -0.312500  0.250000  0.000000     24.000000
 -0.250000  0.250000  0.000000     12.000000
  0.312500  0.312500  0.000000      6.000000
  0.375000  0.312500  0.000000     24.000000
  0.437500  0.312500  0.000000     24.000000
  0.500000  0.312500  0.000000     24.000000
 -0.437500  0.312500  0.000000     24.000000
 -0.375000  0.312500  0.000000     24.000000
 -0.312500  0.312500  0.000000     12.000000
  0.375000  0.375000  0.000000      6.000000
  0.437500  0.375000  0.000000     24.000000
  0.500000  0.375000  0.000000     24.000000
 -0.437500  0.375000  0.000000     24.000000
 -0.375000  0.375000  0.000000     12.000000
  0.437500  0.437500  0.000000      6.000000
  0.500000  0.437500  0.000000     24.000000
 -0.437500  0.437500  0.000000     12.000000
  0.500000  0.500000  0.000000      3.000000
  0.187500  0.125000  0.062500     24.000000
  0.250000  0.125000  0.062500     48.000000
  0.312500  0.125000  0.062500     48.000000
  0.375000  0.125000  0.062500     48.000000
  0.437500  0.125000  0.062500     48.000000
  0.500000  0.125000  0.062500     48.000000
 -0.437500  0.125000  0.062500     24.000000
  0.250000  0.187500  0.062500     24.000000
  0.312500  0.187500  0.062500     48.000000
  0.375000  0.187500  0.062500     48.000000
  0.437500  0.187500  0.062500     48.000000
  0.500000  0.187500  0.062500     48.000000
 -0.437500  0.187500  0.062500     48.000000
 -0.375000  0.187500  0.062500     48.000000
 -0.312500  0.187500  0.062500     48.000000
 -0.250000  0.187500  0.062500     48.000000
 -0.187500  0.187500  0.062500     48.000000
 -0.125000  0.187500  0.062500     24.000000
  0.312500  0.250000  0.062500     24.000000
  0.375000  0.250000  0.062500     48.000000
  0.437500  0.250000  0.062500     48.000000
  0.500000  0.250000  0.062500     48.000000
 -0.437500  0.250000  0.062500     48.000000
 -0.375000  0.250000  0.062500     48.000000
 -0.312500  0.250000  0.062500     48.000000
 -0.250000  0.250000  0.062500     48.000000
 -0.187500  0.250000  0.062500     24.000000
  0.375000  0.312500  0.062500     24.000000
  0.437500  0.312500  0.062500     48.000000
  0.500000  0.312500  0.062500     48.000000
 -0.437500  0.312500  0.062500     48.000000
 -0.375000  0.312500  0.062500     48.000000
 -0.312500  0.312500  0.062500     48.000000
 -0.250000  0.312500  0.062500     24.000000
  0.437500  0.375000  0.062500     24.000000
  0.500000  0.375000  0.062500     48.000000
 -0.437500  0.375000  0.062500     48.000000
 -0.375000  0.375000  0.062500     48.000000
 -0.312500  0.375000  0.062500     24.000000
  0.500000  0.437500  0.062500     24.000000
 -0.437500  0.437500  0.062500     48.000000
 -0.375000  0.437500  0.062500     24.000000
 -0.437500  0.500000  0.062500     12.000000
  0.375000  0.250000  0.125000     24.000000
  0.437500  0.250000  0.125000     48.000000
  0.500000  0.250000  0.125000     48.000000
 -0.437500  0.250000  0.125000     48.000000
 -0.375000  0.250000  0.125000     24.000000
  0.437500  0.312500  0.125000     24.000000
  0.500000  0.312500  0.125000     48.000000
 -0.437500  0.312500  0.125000     48.000000
 -0.375000  0.312500  0.125000     48.000000
 -0.312500  0.312500  0.125000     48.000000
 -0.250000  0.312500  0.125000     48.000000
 -0.187500  0.312500  0.125000     24.000000
  0.500000  0.375000  0.125000     24.000000
 -0.437500  0.375000  0.125000     48.000000
 -0.375000  0.375000  0.125000     48.000000
 -0.312500  0.375000  0.125000     48.000000
 -0.250000  0.375000  0.125000     24.000000
 -0.437500  0.437500  0.125000     24.000000
 -0.375000  0.437500  0.125000     48.000000
 -0.312500  0.437500  0.125000     24.000000
 -0.375000  0.500000  0.125000     12.000000
 -0.437500  0.375000  0.187500     24.000000
 -0.375000  0.375000  0.187500     48.000000
 -0.312500  0.375000  0.187500     24.000000
 -0.375000  0.437500  0.187500     24.000000
 -0.312500  0.437500  0.187500     48.000000
 -0.250000  0.437500  0.187500     24.000000
 -0.312500  0.500000  0.187500     12.000000
 -0.250000  0.500000  0.250000      6.000000
 
 Following cartesian coordinates:
            Coordinates               Weight
  0.000000  0.000000  0.000000      1.000000
 -0.017553  0.017553  0.017553      8.000000
 -0.035105  0.035105  0.035105      8.000000
 -0.052658  0.052658  0.052658      8.000000
 -0.070210  0.070210  0.070210      8.000000
 -0.087763  0.087763  0.087763      8.000000
 -0.105315  0.105315  0.105315      8.000000
 -0.122868  0.122868  0.122868      8.000000
 -0.140420  0.140420  0.140420      4.000000
  0.000000  0.000000  0.035105      6.000000
 -0.017553  0.017553  0.052658     24.000000
 -0.035105  0.035105  0.070210     24.000000
 -0.052658  0.052658  0.087763     24.000000
 -0.070210  0.070210  0.105315     24.000000
 -0.087763  0.087763  0.122868     24.000000
 -0.105315  0.105315  0.140420     24.000000
 -0.122868  0.122868  0.157973     24.000000
  0.140420 -0.140420 -0.105315     24.000000
  0.122868 -0.122868 -0.087763     24.000000
  0.105315 -0.105315 -0.070210     24.000000
  0.087763 -0.087763 -0.052658     24.000000
  0.070210 -0.070210 -0.035105     24.000000
  0.052658 -0.052658 -0.017553     24.000000
  0.035105 -0.035105  0.000000     12.000000
  0.000000  0.000000  0.070210      6.000000
 -0.017553  0.017553  0.087763     24.000000
 -0.035105  0.035105  0.105315     24.000000
 -0.052658  0.052658  0.122868     24.000000
 -0.070210  0.070210  0.140420     24.000000
 -0.087763  0.087763  0.157973     24.000000
 -0.105315  0.105315  0.175525     24.000000
  0.157973 -0.157973 -0.087763     24.000000
  0.140420 -0.140420 -0.070210     24.000000
  0.122868 -0.122868 -0.052658     24.000000
  0.105315 -0.105315 -0.035105     24.000000
  0.087763 -0.087763 -0.017553     24.000000
  0.070210 -0.070210  0.000000     12.000000
  0.000000  0.000000  0.105315      6.000000
 -0.017553  0.017553  0.122868     24.000000
 -0.035105  0.035105  0.140420     24.000000
 -0.052658  0.052658  0.157973     24.000000
 -0.070210  0.070210  0.175525     24.000000
 -0.087763  0.087763  0.193078     24.000000
  0.175525 -0.175525 -0.070210     24.000000
  0.157973 -0.157973 -0.052658     24.000000
  0.140420 -0.140420 -0.035105     24.000000
  0.122868 -0.122868 -0.017553     24.000000
  0.105315 -0.105315  0.000000     12.000000
  0.000000  0.000000  0.140420      6.000000
 -0.017553  0.017553  0.157973     24.000000
 -0.035105  0.035105  0.175525     24.000000
 -0.052658  0.052658  0.193078     24.000000
 -0.070210  0.070210  0.210630     24.000000
  0.193078 -0.193078 -0.052658     24.000000
  0.175525 -0.175525 -0.035105     24.000000
  0.157973 -0.157973 -0.017553     24.000000
  0.140420 -0.140420  0.000000     12.000000
  0.000000  0.000000  0.175525      6.000000
 -0.017553  0.017553  0.193078     24.000000
 -0.035105  0.035105  0.210630     24.000000
 -0.052658  0.052658  0.228183     24.000000
  0.210630 -0.210630 -0.035105     24.000000
  0.193078 -0.193078 -0.017553     24.000000
  0.175525 -0.175525  0.000000     12.000000
  0.000000  0.000000  0.210630      6.000000
 -0.017553  0.017553  0.228183     24.000000
 -0.035105  0.035105  0.245735     24.000000
  0.228183 -0.228183 -0.017553     24.000000
  0.210630 -0.210630  0.000000     12.000000
  0.000000  0.000000  0.245735      6.000000
 -0.017553  0.017553  0.263288     24.000000
  0.245735 -0.245735  0.000000     12.000000
  0.000000  0.000000  0.280840      3.000000
  0.000000  0.035105  0.070210     24.000000
 -0.017553  0.052658  0.087763     48.000000
 -0.035105  0.070210  0.105315     48.000000
 -0.052658  0.087763  0.122868     48.000000
 -0.070210  0.105315  0.140420     48.000000
 -0.087763  0.122868  0.157973     48.000000
  0.175525 -0.140420 -0.105315     24.000000
  0.000000  0.035105  0.105315     24.000000
 -0.017553  0.052658  0.122868     48.000000
 -0.035105  0.070210  0.140420     48.000000
 -0.052658  0.087763  0.157973     48.000000
 -0.070210  0.105315  0.175525     48.000000
  0.193078 -0.157973 -0.087763     48.000000
  0.175525 -0.140420 -0.070210     48.000000
  0.157973 -0.122868 -0.052658     48.000000
  0.140420 -0.105315 -0.035105     48.000000
  0.122868 -0.087763 -0.017553     48.000000
  0.105315 -0.070210  0.000000     24.000000
  0.000000  0.035105  0.140420     24.000000
 -0.017553  0.052658  0.157973     48.000000
 -0.035105  0.070210  0.175525     48.000000
 -0.052658  0.087763  0.193078     48.000000
  0.210630 -0.175525 -0.070210     48.000000
  0.193078 -0.157973 -0.052658     48.000000
  0.175525 -0.140420 -0.035105     48.000000
  0.157973 -0.122868 -0.017553     48.000000
  0.140420 -0.105315  0.000000     24.000000
  0.000000  0.035105  0.175525     24.000000
 -0.017553  0.052658  0.193078     48.000000
 -0.035105  0.070210  0.210630     48.000000
  0.228183 -0.193078 -0.052658     48.000000
  0.210630 -0.175525 -0.035105     48.000000
  0.193078 -0.157973 -0.017553     48.000000
  0.175525 -0.140420  0.000000     24.000000
  0.000000  0.035105  0.210630     24.000000
 -0.017553  0.052658  0.228183     48.000000
  0.245735 -0.210630 -0.035105     48.000000
  0.228183 -0.193078 -0.017553     48.000000
  0.210630 -0.175525  0.000000     24.000000
  0.000000  0.035105  0.245735     24.000000
  0.263288 -0.228183 -0.017553     48.000000
  0.245735 -0.210630  0.000000     24.000000
  0.280840 -0.245735  0.000000     12.000000
  0.000000  0.070210  0.140420     24.000000
 -0.017553  0.087763  0.157973     48.000000
 -0.035105  0.105315  0.175525     48.000000
  0.228183 -0.157973 -0.087763     48.000000
  0.210630 -0.140420 -0.070210     24.000000
  0.000000  0.070210  0.175525     24.000000
 -0.017553  0.087763  0.193078     48.000000
  0.245735 -0.175525 -0.070210     48.000000
  0.228183 -0.157973 -0.052658     48.000000
  0.210630 -0.140420 -0.035105     48.000000
  0.193078 -0.122868 -0.017553     48.000000
  0.175525 -0.105315  0.000000     24.000000
  0.000000  0.070210  0.210630     24.000000
  0.263288 -0.193078 -0.052658     48.000000
  0.245735 -0.175525 -0.035105     48.000000
  0.228183 -0.157973 -0.017553     48.000000
  0.210630 -0.140420  0.000000     24.000000
  0.280840 -0.210630 -0.035105     24.000000
  0.263288 -0.193078 -0.017553     48.000000
  0.245735 -0.175525  0.000000     24.000000
  0.280840 -0.210630  0.000000     12.000000
  0.280840 -0.175525 -0.070210     24.000000
  0.263288 -0.157973 -0.052658     48.000000
  0.245735 -0.140420 -0.035105     24.000000
  0.280840 -0.175525 -0.035105     24.000000
  0.263288 -0.157973 -0.017553     48.000000
  0.245735 -0.140420  0.000000     24.000000
  0.280840 -0.175525  0.000000     12.000000
  0.280840 -0.140420  0.000000      6.000000
 
 
 Subroutine IBZKPT_HF returns following result:
 ==============================================
 
 Found   4096 k-points in 1st BZ
 the following   4096 k-points will be used (e.g. in the exchange kernel)
 Following reciprocal coordinates:   # in IRBZ
  0.000000  0.000000  0.000000    0.00024414   1 t-inv F
  0.062500  0.000000  0.000000    0.00024414   2 t-inv F
  0.125000  0.000000  0.000000    0.00024414   3 t-inv F
  0.187500  0.000000  0.000000    0.00024414   4 t-inv F
  0.250000  0.000000  0.000000    0.00024414   5 t-inv F
  0.312500  0.000000  0.000000    0.00024414   6 t-inv F
  0.375000  0.000000  0.000000    0.00024414   7 t-inv F
  0.437500  0.000000  0.000000    0.00024414   8 t-inv F
  0.500000  0.000000  0.000000    0.00024414   9 t-inv F
  0.062500  0.062500  0.000000    0.00024414  10 t-inv F
  0.125000  0.062500  0.000000    0.00024414  11 t-inv F
  0.187500  0.062500  0.000000    0.00024414  12 t-inv F
  0.250000  0.062500  0.000000    0.00024414  13 t-inv F
  0.312500  0.062500  0.000000    0.00024414  14 t-inv F
  0.375000  0.062500  0.000000    0.00024414  15 t-inv F
  0.437500  0.062500  0.000000    0.00024414  16 t-inv F
  0.500000  0.062500  0.000000    0.00024414  17 t-inv F
 -0.437500  0.062500  0.000000    0.00024414  18 t-inv F
 -0.375000  0.062500  0.000000    0.00024414  19 t-inv F
 -0.312500  0.062500  0.000000    0.00024414  20 t-inv F
 -0.250000  0.062500  0.000000    0.00024414  21 t-inv F
 -0.187500  0.062500  0.000000    0.00024414  22 t-inv F
 -0.125000  0.062500  0.000000    0.00024414  23 t-inv F
 -0.062500  0.062500  0.000000    0.00024414  24 t-inv F
  0.125000  0.125000  0.000000    0.00024414  25 t-inv F
  0.187500  0.125000  0.000000    0.00024414  26 t-inv F
  0.250000  0.125000  0.000000    0.00024414  27 t-inv F
  0.312500  0.125000  0.000000    0.00024414  28 t-inv F
  0.375000  0.125000  0.000000    0.00024414  29 t-inv F
  0.437500  0.125000  0.000000    0.00024414  30 t-inv F
  0.500000  0.125000  0.000000    0.00024414  31 t-inv F
 -0.437500  0.125000  0.000000    0.00024414  32 t-inv F
 -0.375000  0.125000  0.000000    0.00024414  33 t-inv F
 -0.312500  0.125000  0.000000    0.00024414  34 t-inv F
 -0.250000  0.125000  0.000000    0.00024414  35 t-inv F
 -0.187500  0.125000  0.000000    0.00024414  36 t-inv F
 -0.125000  0.125000  0.000000    0.00024414  37 t-inv F
  0.187500  0.187500  0.000000    0.00024414  38 t-inv F
  0.250000  0.187500  0.000000    0.00024414  39 t-inv F
  0.312500  0.187500  0.000000    0.00024414  40 t-inv F
  0.375000  0.187500  0.000000    0.00024414  41 t-inv F
  0.437500  0.187500  0.000000    0.00024414  42 t-inv F
  0.500000  0.187500  0.000000    0.00024414  43 t-inv F
 -0.437500  0.187500  0.000000    0.00024414  44 t-inv F
 -0.375000  0.187500  0.000000    0.00024414  45 t-inv F
 -0.312500  0.187500  0.000000    0.00024414  46 t-inv F
 -0.250000  0.187500  0.000000    0.00024414  47 t-inv F
 -0.187500  0.187500  0.000000    0.00024414  48 t-inv F
  0.250000  0.250000  0.000000    0.00024414  49 t-inv F
  0.312500  0.250000  0.000000    0.00024414  50 t-inv F
  0.375000  0.250000  0.000000    0.00024414  51 t-inv F
  0.437500  0.250000  0.000000    0.00024414  52 t-inv F
  0.500000  0.250000  0.000000    0.00024414  53 t-inv F
 -0.437500  0.250000  0.000000    0.00024414  54 t-inv F
 -0.375000  0.250000  0.000000    0.00024414  55 t-inv F
 -0.312500  0.250000  0.000000    0.00024414  56 t-inv F
 -0.250000  0.250000  0.000000    0.00024414  57 t-inv F
  0.312500  0.312500  0.000000    0.00024414  58 t-inv F
  0.375000  0.312500  0.000000    0.00024414  59 t-inv F
  0.437500  0.312500  0.000000    0.00024414  60 t-inv F
  0.500000  0.312500  0.000000    0.00024414  61 t-inv F
 -0.437500  0.312500  0.000000    0.00024414  62 t-inv F
 -0.375000  0.312500  0.000000    0.00024414  63 t-inv F
 -0.312500  0.312500  0.000000    0.00024414  64 t-inv F
  0.375000  0.375000  0.000000    0.00024414  65 t-inv F
  0.437500  0.375000  0.000000    0.00024414  66 t-inv F
  0.500000  0.375000  0.000000    0.00024414  67 t-inv F
 -0.437500  0.375000  0.000000    0.00024414  68 t-inv F
 -0.375000  0.375000  0.000000    0.00024414  69 t-inv F
  0.437500  0.437500  0.000000    0.00024414  70 t-inv F
  0.500000  0.437500  0.000000    0.00024414  71 t-inv F
 -0.437500  0.437500  0.000000    0.00024414  72 t-inv F
  0.500000  0.500000  0.000000    0.00024414  73 t-inv F
  0.187500  0.125000  0.062500    0.00024414  74 t-inv F
  0.250000  0.125000  0.062500    0.00024414  75 t-inv F
  0.312500  0.125000  0.062500    0.00024414  76 t-inv F
  0.375000  0.125000  0.062500    0.00024414  77 t-inv F
  0.437500  0.125000  0.062500    0.00024414  78 t-inv F
  0.500000  0.125000  0.062500    0.00024414  79 t-inv F
 -0.437500  0.125000  0.062500    0.00024414  80 t-inv F
  0.250000  0.187500  0.062500    0.00024414  81 t-inv F
  0.312500  0.187500  0.062500    0.00024414  82 t-inv F
  0.375000  0.187500  0.062500    0.00024414  83 t-inv F
  0.437500  0.187500  0.062500    0.00024414  84 t-inv F
  0.500000  0.187500  0.062500    0.00024414  85 t-inv F
 -0.437500  0.187500  0.062500    0.00024414  86 t-inv F
 -0.375000  0.187500  0.062500    0.00024414  87 t-inv F
 -0.312500  0.187500  0.062500    0.00024414  88 t-inv F
 -0.250000  0.187500  0.062500    0.00024414  89 t-inv F
 -0.187500  0.187500  0.062500    0.00024414  90 t-inv F
 -0.125000  0.187500  0.062500    0.00024414  91 t-inv F
  0.312500  0.250000  0.062500    0.00024414  92 t-inv F
  0.375000  0.250000  0.062500    0.00024414  93 t-inv F
  0.437500  0.250000  0.062500    0.00024414  94 t-inv F
  0.500000  0.250000  0.062500    0.00024414  95 t-inv F
 -0.437500  0.250000  0.062500    0.00024414  96 t-inv F
 -0.375000  0.250000  0.062500    0.00024414  97 t-inv F
 -0.312500  0.250000  0.062500    0.00024414  98 t-inv F
 -0.250000  0.250000  0.062500    0.00024414  99 t-inv F
 -0.187500  0.250000  0.062500    0.00024414 100 t-inv F
  0.375000  0.312500  0.062500    0.00024414 101 t-inv F
  0.437500  0.312500  0.062500    0.00024414 102 t-inv F
  0.500000  0.312500  0.062500    0.00024414 103 t-inv F
 -0.437500  0.312500  0.062500    0.00024414 104 t-inv F
 -0.375000  0.312500  0.062500    0.00024414 105 t-inv F
 -0.312500  0.312500  0.062500    0.00024414 106 t-inv F
 -0.250000  0.312500  0.062500    0.00024414 107 t-inv F
  0.437500  0.375000  0.062500    0.00024414 108 t-inv F
  0.500000  0.375000  0.062500    0.00024414 109 t-inv F
 -0.437500  0.375000  0.062500    0.00024414 110 t-inv F
 -0.375000  0.375000  0.062500    0.00024414 111 t-inv F
 -0.312500  0.375000  0.062500    0.00024414 112 t-inv F
  0.500000  0.437500  0.062500    0.00024414 113 t-inv F
 -0.437500  0.437500  0.062500    0.00024414 114 t-inv F
 -0.375000  0.437500  0.062500    0.00024414 115 t-inv F
 -0.437500  0.500000  0.062500    0.00024414 116 t-inv F
  0.375000  0.250000  0.125000    0.00024414 117 t-inv F
  0.437500  0.250000  0.125000    0.00024414 118 t-inv F
  0.500000  0.250000  0.125000    0.00024414 119 t-inv F
 -0.437500  0.250000  0.125000    0.00024414 120 t-inv F
 -0.375000  0.250000  0.125000    0.00024414 121 t-inv F
  0.437500  0.312500  0.125000    0.00024414 122 t-inv F
  0.500000  0.312500  0.125000    0.00024414 123 t-inv F
 -0.437500  0.312500  0.125000    0.00024414 124 t-inv F
 -0.375000  0.312500  0.125000    0.00024414 125 t-inv F
 -0.312500  0.312500  0.125000    0.00024414 126 t-inv F
 -0.250000  0.312500  0.125000    0.00024414 127 t-inv F
 -0.187500  0.312500  0.125000    0.00024414 128 t-inv F
  0.500000  0.375000  0.125000    0.00024414 129 t-inv F
 -0.437500  0.375000  0.125000    0.00024414 130 t-inv F
 -0.375000  0.375000  0.125000    0.00024414 131 t-inv F
 -0.312500  0.375000  0.125000    0.00024414 132 t-inv F
 -0.250000  0.375000  0.125000    0.00024414 133 t-inv F
 -0.437500  0.437500  0.125000    0.00024414 134 t-inv F
 -0.375000  0.437500  0.125000    0.00024414 135 t-inv F
 -0.312500  0.437500  0.125000    0.00024414 136 t-inv F
 -0.375000  0.500000  0.125000    0.00024414 137 t-inv F
 -0.437500  0.375000  0.187500    0.00024414 138 t-inv F
 -0.375000  0.375000  0.187500    0.00024414 139 t-inv F
 -0.312500  0.375000  0.187500    0.00024414 140 t-inv F
 -0.375000  0.437500  0.187500    0.00024414 141 t-inv F
 -0.312500  0.437500  0.187500    0.00024414 142 t-inv F
 -0.250000  0.437500  0.187500    0.00024414 143 t-inv F
 -0.312500  0.500000  0.187500    0.00024414 144 t-inv F
 -0.250000  0.500000  0.250000    0.00024414 145 t-inv F
  0.000000  0.062500  0.000000    0.00024414   2 t-inv F
  0.000000  0.000000  0.062500    0.00024414   2 t-inv F
 -0.062500 -0.062500 -0.062500    0.00024414   2 t-inv F
 -0.062500 -0.000000 -0.000000    0.00024414   2 t-inv F
 -0.000000 -0.062500 -0.000000    0.00024414   2 t-inv F
 -0.000000 -0.000000 -0.062500    0.00024414   2 t-inv F
  0.062500  0.062500  0.062500    0.00024414   2 t-inv F
  0.000000  0.125000  0.000000    0.00024414   3 t-inv F
  0.000000  0.000000  0.125000    0.00024414   3 t-inv F
 -0.125000 -0.125000 -0.125000    0.00024414   3 t-inv F
 -0.125000 -0.000000 -0.000000    0.00024414   3 t-inv F
 -0.000000 -0.125000 -0.000000    0.00024414   3 t-inv F
 -0.000000 -0.000000 -0.125000    0.00024414   3 t-inv F
  0.125000  0.125000  0.125000    0.00024414   3 t-inv F
  0.000000  0.187500  0.000000    0.00024414   4 t-inv F
  0.000000  0.000000  0.187500    0.00024414   4 t-inv F
 -0.187500 -0.187500 -0.187500    0.00024414   4 t-inv F
 -0.187500 -0.000000 -0.000000    0.00024414   4 t-inv F
 -0.000000 -0.187500 -0.000000    0.00024414   4 t-inv F
 -0.000000 -0.000000 -0.187500    0.00024414   4 t-inv F
  0.187500  0.187500  0.187500    0.00024414   4 t-inv F
  0.000000  0.250000  0.000000    0.00024414   5 t-inv F
  0.000000  0.000000  0.250000    0.00024414   5 t-inv F
 -0.250000 -0.250000 -0.250000    0.00024414   5 t-inv F
 -0.250000 -0.000000 -0.000000    0.00024414   5 t-inv F
 -0.000000 -0.250000 -0.000000    0.00024414   5 t-inv F
 -0.000000 -0.000000 -0.250000    0.00024414   5 t-inv F
  0.250000  0.250000  0.250000    0.00024414   5 t-inv F
  0.000000  0.312500  0.000000    0.00024414   6 t-inv F
  0.000000  0.000000  0.312500    0.00024414   6 t-inv F
 -0.312500 -0.312500 -0.312500    0.00024414   6 t-inv F
 -0.312500 -0.000000 -0.000000    0.00024414   6 t-inv F
 -0.000000 -0.312500 -0.000000    0.00024414   6 t-inv F
 -0.000000 -0.000000 -0.312500    0.00024414   6 t-inv F
  0.312500  0.312500  0.312500    0.00024414   6 t-inv F
  0.000000  0.375000  0.000000    0.00024414   7 t-inv F
  0.000000  0.000000  0.375000    0.00024414   7 t-inv F
 -0.375000 -0.375000 -0.375000    0.00024414   7 t-inv F
 -0.375000 -0.000000 -0.000000    0.00024414   7 t-inv F
 -0.000000 -0.375000 -0.000000    0.00024414   7 t-inv F
 -0.000000 -0.000000 -0.375000    0.00024414   7 t-inv F
  0.375000  0.375000  0.375000    0.00024414   7 t-inv F
  0.000000  0.437500  0.000000    0.00024414   8 t-inv F
  0.000000  0.000000  0.437500    0.00024414   8 t-inv F
 -0.437500 -0.437500 -0.437500    0.00024414   8 t-inv F
 -0.437500 -0.000000 -0.000000    0.00024414   8 t-inv F
 -0.000000 -0.437500 -0.000000    0.00024414   8 t-inv F
 -0.000000 -0.000000 -0.437500    0.00024414   8 t-inv F
  0.437500  0.437500  0.437500    0.00024414   8 t-inv F
  0.000000  0.500000  0.000000    0.00024414   9 t-inv F
  0.000000  0.000000  0.500000    0.00024414   9 t-inv F
 -0.500000 -0.500000 -0.500000    0.00024414   9 t-inv F
  0.000000  0.062500  0.062500    0.00024414  10 t-inv F
  0.062500  0.000000  0.062500    0.00024414  10 t-inv F
 -0.062500 -0.062500  0.000000    0.00024414  10 t-inv F
 -0.062500  0.000000 -0.062500    0.00024414  10 t-inv F
  0.000000 -0.062500 -0.062500    0.00024414  10 t-inv F
  0.000000  0.125000  0.062500    0.00024414  11 t-inv F
  0.062500  0.000000  0.125000    0.00024414  11 t-inv F
 -0.062500 -0.062500  0.062500    0.00024414  11 t-inv F
 -0.125000 -0.062500 -0.125000    0.00024414  11 t-inv F
  0.062500  0.125000 -0.000000    0.00024414  11 t-inv F
  0.062500 -0.062500 -0.062500    0.00024414  11 t-inv F
 -0.125000 -0.125000 -0.062500    0.00024414  11 t-inv F
 -0.000000  0.062500  0.125000    0.00024414  11 t-inv F
 -0.062500  0.062500 -0.062500    0.00024414  11 t-inv F
 -0.062500 -0.125000 -0.125000    0.00024414  11 t-inv F
  0.125000 -0.000000  0.062500    0.00024414  11 t-inv F
 -0.125000 -0.062500 -0.000000    0.00024414  11 t-inv F
 -0.000000 -0.125000 -0.062500    0.00024414  11 t-inv F
 -0.062500 -0.000000 -0.125000    0.00024414  11 t-inv F
  0.062500  0.062500 -0.062500    0.00024414  11 t-inv F
  0.125000  0.062500  0.125000    0.00024414  11 t-inv F
 -0.062500 -0.125000  0.000000    0.00024414  11 t-inv F
 -0.062500  0.062500  0.062500    0.00024414  11 t-inv F
  0.125000  0.125000  0.062500    0.00024414  11 t-inv F
  0.000000 -0.062500 -0.125000    0.00024414  11 t-inv F
  0.062500 -0.062500  0.062500    0.00024414  11 t-inv F
  0.062500  0.125000  0.125000    0.00024414  11 t-inv F
 -0.125000  0.000000 -0.062500    0.00024414  11 t-inv F
  0.000000  0.187500  0.062500    0.00024414  12 t-inv F
  0.062500  0.000000  0.187500    0.00024414  12 t-inv F
 -0.062500 -0.062500  0.125000    0.00024414  12 t-inv F
 -0.187500 -0.125000 -0.187500    0.00024414  12 t-inv F
  0.062500  0.187500 -0.000000    0.00024414  12 t-inv F
  0.125000 -0.062500 -0.062500    0.00024414  12 t-inv F
 -0.187500 -0.187500 -0.125000    0.00024414  12 t-inv F
 -0.000000  0.062500  0.187500    0.00024414  12 t-inv F
 -0.062500  0.125000 -0.062500    0.00024414  12 t-inv F
 -0.125000 -0.187500 -0.187500    0.00024414  12 t-inv F
  0.187500 -0.000000  0.062500    0.00024414  12 t-inv F
 -0.187500 -0.062500 -0.000000    0.00024414  12 t-inv F
 -0.000000 -0.187500 -0.062500    0.00024414  12 t-inv F
 -0.062500 -0.000000 -0.187500    0.00024414  12 t-inv F
  0.062500  0.062500 -0.125000    0.00024414  12 t-inv F
  0.187500  0.125000  0.187500    0.00024414  12 t-inv F
 -0.062500 -0.187500  0.000000    0.00024414  12 t-inv F
 -0.125000  0.062500  0.062500    0.00024414  12 t-inv F
  0.187500  0.187500  0.125000    0.00024414  12 t-inv F
  0.000000 -0.062500 -0.187500    0.00024414  12 t-inv F
  0.062500 -0.125000  0.062500    0.00024414  12 t-inv F
  0.125000  0.187500  0.187500    0.00024414  12 t-inv F
 -0.187500  0.000000 -0.062500    0.00024414  12 t-inv F
  0.000000  0.250000  0.062500    0.00024414  13 t-inv F
  0.062500  0.000000  0.250000    0.00024414  13 t-inv F
 -0.062500 -0.062500  0.187500    0.00024414  13 t-inv F
 -0.250000 -0.187500 -0.250000    0.00024414  13 t-inv F
  0.062500  0.250000 -0.000000    0.00024414  13 t-inv F
  0.187500 -0.062500 -0.062500    0.00024414  13 t-inv F
 -0.250000 -0.250000 -0.187500    0.00024414  13 t-inv F
 -0.000000  0.062500  0.250000    0.00024414  13 t-inv F
 -0.062500  0.187500 -0.062500    0.00024414  13 t-inv F
 -0.187500 -0.250000 -0.250000    0.00024414  13 t-inv F
  0.250000 -0.000000  0.062500    0.00024414  13 t-inv F
 -0.250000 -0.062500 -0.000000    0.00024414  13 t-inv F
 -0.000000 -0.250000 -0.062500    0.00024414  13 t-inv F
 -0.062500 -0.000000 -0.250000    0.00024414  13 t-inv F
  0.062500  0.062500 -0.187500    0.00024414  13 t-inv F
  0.250000  0.187500  0.250000    0.00024414  13 t-inv F
 -0.062500 -0.250000  0.000000    0.00024414  13 t-inv F
 -0.187500  0.062500  0.062500    0.00024414  13 t-inv F
  0.250000  0.250000  0.187500    0.00024414  13 t-inv F
  0.000000 -0.062500 -0.250000    0.00024414  13 t-inv F
  0.062500 -0.187500  0.062500    0.00024414  13 t-inv F
  0.187500  0.250000  0.250000    0.00024414  13 t-inv F
 -0.250000  0.000000 -0.062500    0.00024414  13 t-inv F
  0.000000  0.312500  0.062500    0.00024414  14 t-inv F
  0.062500  0.000000  0.312500    0.00024414  14 t-inv F
 -0.062500 -0.062500  0.250000    0.00024414  14 t-inv F
 -0.312500 -0.250000 -0.312500    0.00024414  14 t-inv F
  0.062500  0.312500 -0.000000    0.00024414  14 t-inv F
  0.250000 -0.062500 -0.062500    0.00024414  14 t-inv F
 -0.312500 -0.312500 -0.250000    0.00024414  14 t-inv F
 -0.000000  0.062500  0.312500    0.00024414  14 t-inv F
 -0.062500  0.250000 -0.062500    0.00024414  14 t-inv F
 -0.250000 -0.312500 -0.312500    0.00024414  14 t-inv F
  0.312500 -0.000000  0.062500    0.00024414  14 t-inv F
 -0.312500 -0.062500 -0.000000    0.00024414  14 t-inv F
 -0.000000 -0.312500 -0.062500    0.00024414  14 t-inv F
 -0.062500 -0.000000 -0.312500    0.00024414  14 t-inv F
  0.062500  0.062500 -0.250000    0.00024414  14 t-inv F
  0.312500  0.250000  0.312500    0.00024414  14 t-inv F
 -0.062500 -0.312500  0.000000    0.00024414  14 t-inv F
 -0.250000  0.062500  0.062500    0.00024414  14 t-inv F
  0.312500  0.312500  0.250000    0.00024414  14 t-inv F
  0.000000 -0.062500 -0.312500    0.00024414  14 t-inv F
  0.062500 -0.250000  0.062500    0.00024414  14 t-inv F
  0.250000  0.312500  0.312500    0.00024414  14 t-inv F
 -0.312500  0.000000 -0.062500    0.00024414  14 t-inv F
  0.000000  0.375000  0.062500    0.00024414  15 t-inv F
  0.062500  0.000000  0.375000    0.00024414  15 t-inv F
 -0.062500 -0.062500  0.312500    0.00024414  15 t-inv F
 -0.375000 -0.312500 -0.375000    0.00024414  15 t-inv F
  0.062500  0.375000 -0.000000    0.00024414  15 t-inv F
  0.312500 -0.062500 -0.062500    0.00024414  15 t-inv F
 -0.375000 -0.375000 -0.312500    0.00024414  15 t-inv F
 -0.000000  0.062500  0.375000    0.00024414  15 t-inv F
 -0.062500  0.312500 -0.062500    0.00024414  15 t-inv F
 -0.312500 -0.375000 -0.375000    0.00024414  15 t-inv F
  0.375000 -0.000000  0.062500    0.00024414  15 t-inv F
 -0.375000 -0.062500 -0.000000    0.00024414  15 t-inv F
 -0.000000 -0.375000 -0.062500    0.00024414  15 t-inv F
 -0.062500 -0.000000 -0.375000    0.00024414  15 t-inv F
  0.062500  0.062500 -0.312500    0.00024414  15 t-inv F
  0.375000  0.312500  0.375000    0.00024414  15 t-inv F
 -0.062500 -0.375000  0.000000    0.00024414  15 t-inv F
 -0.312500  0.062500  0.062500    0.00024414  15 t-inv F
  0.375000  0.375000  0.312500    0.00024414  15 t-inv F
  0.000000 -0.062500 -0.375000    0.00024414  15 t-inv F
  0.062500 -0.312500  0.062500    0.00024414  15 t-inv F
  0.312500  0.375000  0.375000    0.00024414  15 t-inv F
 -0.375000  0.000000 -0.062500    0.00024414  15 t-inv F
  0.000000  0.437500  0.062500    0.00024414  16 t-inv F
  0.062500  0.000000  0.437500    0.00024414  16 t-inv F
 -0.062500 -0.062500  0.375000    0.00024414  16 t-inv F
 -0.437500 -0.375000 -0.437500    0.00024414  16 t-inv F
  0.062500  0.437500 -0.000000    0.00024414  16 t-inv F
  0.375000 -0.062500 -0.062500    0.00024414  16 t-inv F
 -0.437500 -0.437500 -0.375000    0.00024414  16 t-inv F
 -0.000000  0.062500  0.437500    0.00024414  16 t-inv F
 -0.062500  0.375000 -0.062500    0.00024414  16 t-inv F
 -0.375000 -0.437500 -0.437500    0.00024414  16 t-inv F
  0.437500 -0.000000  0.062500    0.00024414  16 t-inv F
 -0.437500 -0.062500 -0.000000    0.00024414  16 t-inv F
 -0.000000 -0.437500 -0.062500    0.00024414  16 t-inv F
 -0.062500 -0.000000 -0.437500    0.00024414  16 t-inv F
  0.062500  0.062500 -0.375000    0.00024414  16 t-inv F
  0.437500  0.375000  0.437500    0.00024414  16 t-inv F
 -0.062500 -0.437500  0.000000    0.00024414  16 t-inv F
 -0.375000  0.062500  0.062500    0.00024414  16 t-inv F
  0.437500  0.437500  0.375000    0.00024414  16 t-inv F
  0.000000 -0.062500 -0.437500    0.00024414  16 t-inv F
  0.062500 -0.375000  0.062500    0.00024414  16 t-inv F
  0.375000  0.437500  0.437500    0.00024414  16 t-inv F
 -0.437500  0.000000 -0.062500    0.00024414  16 t-inv F
  0.000000  0.500000  0.062500    0.00024414  17 t-inv F
  0.062500  0.000000  0.500000    0.00024414  17 t-inv F
 -0.062500 -0.062500  0.437500    0.00024414  17 t-inv F
 -0.500000 -0.437500 -0.500000    0.00024414  17 t-inv F
  0.062500  0.500000 -0.000000    0.00024414  17 t-inv F
  0.437500 -0.062500 -0.062500    0.00024414  17 t-inv F
 -0.500000 -0.500000 -0.437500    0.00024414  17 t-inv F
 -0.000000  0.062500  0.500000    0.00024414  17 t-inv F
 -0.062500  0.437500 -0.062500    0.00024414  17 t-inv F
 -0.437500 -0.500000 -0.500000    0.00024414  17 t-inv F
  0.500000 -0.000000  0.062500    0.00024414  17 t-inv F
 -0.500000 -0.062500 -0.000000    0.00024414  17 t-inv F
 -0.000000 -0.500000 -0.062500    0.00024414  17 t-inv F
 -0.062500 -0.000000 -0.500000    0.00024414  17 t-inv F
  0.062500  0.062500 -0.437500    0.00024414  17 t-inv F
  0.500000  0.437500  0.500000    0.00024414  17 t-inv F
 -0.062500 -0.500000  0.000000    0.00024414  17 t-inv F
 -0.437500  0.062500  0.062500    0.00024414  17 t-inv F
  0.500000  0.500000  0.437500    0.00024414  17 t-inv F
  0.000000 -0.062500 -0.500000    0.00024414  17 t-inv F
  0.062500 -0.437500  0.062500    0.00024414  17 t-inv F
  0.437500  0.500000  0.500000    0.00024414  17 t-inv F
 -0.500000  0.000000 -0.062500    0.00024414  17 t-inv F
  0.000000 -0.437500  0.062500    0.00024414  18 t-inv F
  0.062500  0.000000 -0.437500    0.00024414  18 t-inv F
 -0.062500 -0.062500 -0.500000    0.00024414  18 t-inv F
  0.437500  0.500000  0.437500    0.00024414  18 t-inv F
  0.062500 -0.437500 -0.000000    0.00024414  18 t-inv F
 -0.500000 -0.062500 -0.062500    0.00024414  18 t-inv F
  0.437500  0.437500  0.500000    0.00024414  18 t-inv F
 -0.000000  0.062500 -0.437500    0.00024414  18 t-inv F
 -0.062500 -0.500000 -0.062500    0.00024414  18 t-inv F
  0.500000  0.437500  0.437500    0.00024414  18 t-inv F
 -0.437500 -0.000000  0.062500    0.00024414  18 t-inv F
  0.437500 -0.062500 -0.000000    0.00024414  18 t-inv F
 -0.000000  0.437500 -0.062500    0.00024414  18 t-inv F
 -0.062500 -0.000000  0.437500    0.00024414  18 t-inv F
  0.062500  0.062500  0.500000    0.00024414  18 t-inv F
 -0.437500 -0.500000 -0.437500    0.00024414  18 t-inv F
 -0.062500  0.437500  0.000000    0.00024414  18 t-inv F
  0.500000  0.062500  0.062500    0.00024414  18 t-inv F
 -0.437500 -0.437500 -0.500000    0.00024414  18 t-inv F
  0.000000 -0.062500  0.437500    0.00024414  18 t-inv F
  0.062500  0.500000  0.062500    0.00024414  18 t-inv F
 -0.500000 -0.437500 -0.437500    0.00024414  18 t-inv F
  0.437500  0.000000 -0.062500    0.00024414  18 t-inv F
  0.000000 -0.375000  0.062500    0.00024414  19 t-inv F
  0.062500  0.000000 -0.375000    0.00024414  19 t-inv F
 -0.062500 -0.062500 -0.437500    0.00024414  19 t-inv F
  0.375000  0.437500  0.375000    0.00024414  19 t-inv F
  0.062500 -0.375000 -0.000000    0.00024414  19 t-inv F
 -0.437500 -0.062500 -0.062500    0.00024414  19 t-inv F
  0.375000  0.375000  0.437500    0.00024414  19 t-inv F
 -0.000000  0.062500 -0.375000    0.00024414  19 t-inv F
 -0.062500 -0.437500 -0.062500    0.00024414  19 t-inv F
  0.437500  0.375000  0.375000    0.00024414  19 t-inv F
 -0.375000 -0.000000  0.062500    0.00024414  19 t-inv F
  0.375000 -0.062500 -0.000000    0.00024414  19 t-inv F
 -0.000000  0.375000 -0.062500    0.00024414  19 t-inv F
 -0.062500 -0.000000  0.375000    0.00024414  19 t-inv F
  0.062500  0.062500  0.437500    0.00024414  19 t-inv F
 -0.375000 -0.437500 -0.375000    0.00024414  19 t-inv F
 -0.062500  0.375000  0.000000    0.00024414  19 t-inv F
  0.437500  0.062500  0.062500    0.00024414  19 t-inv F
 -0.375000 -0.375000 -0.437500    0.00024414  19 t-inv F
  0.000000 -0.062500  0.375000    0.00024414  19 t-inv F
  0.062500  0.437500  0.062500    0.00024414  19 t-inv F
 -0.437500 -0.375000 -0.375000    0.00024414  19 t-inv F
  0.375000  0.000000 -0.062500    0.00024414  19 t-inv F
  0.000000 -0.312500  0.062500    0.00024414  20 t-inv F
  0.062500  0.000000 -0.312500    0.00024414  20 t-inv F
 -0.062500 -0.062500 -0.375000    0.00024414  20 t-inv F
  0.312500  0.375000  0.312500    0.00024414  20 t-inv F
  0.062500 -0.312500 -0.000000    0.00024414  20 t-inv F
 -0.375000 -0.062500 -0.062500    0.00024414  20 t-inv F
  0.312500  0.312500  0.375000    0.00024414  20 t-inv F
 -0.000000  0.062500 -0.312500    0.00024414  20 t-inv F
 -0.062500 -0.375000 -0.062500    0.00024414  20 t-inv F
  0.375000  0.312500  0.312500    0.00024414  20 t-inv F
 -0.312500 -0.000000  0.062500    0.00024414  20 t-inv F
  0.312500 -0.062500 -0.000000    0.00024414  20 t-inv F
 -0.000000  0.312500 -0.062500    0.00024414  20 t-inv F
 -0.062500 -0.000000  0.312500    0.00024414  20 t-inv F
  0.062500  0.062500  0.375000    0.00024414  20 t-inv F
 -0.312500 -0.375000 -0.312500    0.00024414  20 t-inv F
 -0.062500  0.312500  0.000000    0.00024414  20 t-inv F
  0.375000  0.062500  0.062500    0.00024414  20 t-inv F
 -0.312500 -0.312500 -0.375000    0.00024414  20 t-inv F
  0.000000 -0.062500  0.312500    0.00024414  20 t-inv F
  0.062500  0.375000  0.062500    0.00024414  20 t-inv F
 -0.375000 -0.312500 -0.312500    0.00024414  20 t-inv F
  0.312500  0.000000 -0.062500    0.00024414  20 t-inv F
  0.000000 -0.250000  0.062500    0.00024414  21 t-inv F
  0.062500  0.000000 -0.250000    0.00024414  21 t-inv F
 -0.062500 -0.062500 -0.312500    0.00024414  21 t-inv F
  0.250000  0.312500  0.250000    0.00024414  21 t-inv F
  0.062500 -0.250000 -0.000000    0.00024414  21 t-inv F
 -0.312500 -0.062500 -0.062500    0.00024414  21 t-inv F
  0.250000  0.250000  0.312500    0.00024414  21 t-inv F
 -0.000000  0.062500 -0.250000    0.00024414  21 t-inv F
 -0.062500 -0.312500 -0.062500    0.00024414  21 t-inv F
  0.312500  0.250000  0.250000    0.00024414  21 t-inv F
 -0.250000 -0.000000  0.062500    0.00024414  21 t-inv F
  0.250000 -0.062500 -0.000000    0.00024414  21 t-inv F
 -0.000000  0.250000 -0.062500    0.00024414  21 t-inv F
 -0.062500 -0.000000  0.250000    0.00024414  21 t-inv F
  0.062500  0.062500  0.312500    0.00024414  21 t-inv F
 -0.250000 -0.312500 -0.250000    0.00024414  21 t-inv F
 -0.062500  0.250000  0.000000    0.00024414  21 t-inv F
  0.312500  0.062500  0.062500    0.00024414  21 t-inv F
 -0.250000 -0.250000 -0.312500    0.00024414  21 t-inv F
  0.000000 -0.062500  0.250000    0.00024414  21 t-inv F
  0.062500  0.312500  0.062500    0.00024414  21 t-inv F
 -0.312500 -0.250000 -0.250000    0.00024414  21 t-inv F
  0.250000  0.000000 -0.062500    0.00024414  21 t-inv F
  0.000000 -0.187500  0.062500    0.00024414  22 t-inv F
  0.062500  0.000000 -0.187500    0.00024414  22 t-inv F
 -0.062500 -0.062500 -0.250000    0.00024414  22 t-inv F
  0.187500  0.250000  0.187500    0.00024414  22 t-inv F
  0.062500 -0.187500 -0.000000    0.00024414  22 t-inv F
 -0.250000 -0.062500 -0.062500    0.00024414  22 t-inv F
  0.187500  0.187500  0.250000    0.00024414  22 t-inv F
 -0.000000  0.062500 -0.187500    0.00024414  22 t-inv F
 -0.062500 -0.250000 -0.062500    0.00024414  22 t-inv F
  0.250000  0.187500  0.187500    0.00024414  22 t-inv F
 -0.187500 -0.000000  0.062500    0.00024414  22 t-inv F
  0.187500 -0.062500 -0.000000    0.00024414  22 t-inv F
 -0.000000  0.187500 -0.062500    0.00024414  22 t-inv F
 -0.062500 -0.000000  0.187500    0.00024414  22 t-inv F
  0.062500  0.062500  0.250000    0.00024414  22 t-inv F
 -0.187500 -0.250000 -0.187500    0.00024414  22 t-inv F
 -0.062500  0.187500  0.000000    0.00024414  22 t-inv F
  0.250000  0.062500  0.062500    0.00024414  22 t-inv F
 -0.187500 -0.187500 -0.250000    0.00024414  22 t-inv F
  0.000000 -0.062500  0.187500    0.00024414  22 t-inv F
  0.062500  0.250000  0.062500    0.00024414  22 t-inv F
 -0.250000 -0.187500 -0.187500    0.00024414  22 t-inv F
  0.187500  0.000000 -0.062500    0.00024414  22 t-inv F
  0.000000 -0.125000  0.062500    0.00024414  23 t-inv F
  0.062500  0.000000 -0.125000    0.00024414  23 t-inv F
 -0.062500 -0.062500 -0.187500    0.00024414  23 t-inv F
  0.125000  0.187500  0.125000    0.00024414  23 t-inv F
  0.062500 -0.125000 -0.000000    0.00024414  23 t-inv F
 -0.187500 -0.062500 -0.062500    0.00024414  23 t-inv F
  0.125000  0.125000  0.187500    0.00024414  23 t-inv F
 -0.000000  0.062500 -0.125000    0.00024414  23 t-inv F
 -0.062500 -0.187500 -0.062500    0.00024414  23 t-inv F
  0.187500  0.125000  0.125000    0.00024414  23 t-inv F
 -0.125000 -0.000000  0.062500    0.00024414  23 t-inv F
  0.125000 -0.062500 -0.000000    0.00024414  23 t-inv F
 -0.000000  0.125000 -0.062500    0.00024414  23 t-inv F
 -0.062500 -0.000000  0.125000    0.00024414  23 t-inv F
  0.062500  0.062500  0.187500    0.00024414  23 t-inv F
 -0.125000 -0.187500 -0.125000    0.00024414  23 t-inv F
 -0.062500  0.125000  0.000000    0.00024414  23 t-inv F
  0.187500  0.062500  0.062500    0.00024414  23 t-inv F
 -0.125000 -0.125000 -0.187500    0.00024414  23 t-inv F
  0.000000 -0.062500  0.125000    0.00024414  23 t-inv F
  0.062500  0.187500  0.062500    0.00024414  23 t-inv F
 -0.187500 -0.125000 -0.125000    0.00024414  23 t-inv F
  0.125000  0.000000 -0.062500    0.00024414  23 t-inv F
  0.000000 -0.062500  0.062500    0.00024414  24 t-inv F
  0.062500  0.000000 -0.062500    0.00024414  24 t-inv F
 -0.062500 -0.062500 -0.125000    0.00024414  24 t-inv F
  0.062500  0.125000  0.062500    0.00024414  24 t-inv F
  0.062500 -0.062500 -0.000000    0.00024414  24 t-inv F
 -0.125000 -0.062500 -0.062500    0.00024414  24 t-inv F
  0.062500  0.062500  0.125000    0.00024414  24 t-inv F
 -0.000000  0.062500 -0.062500    0.00024414  24 t-inv F
 -0.062500 -0.125000 -0.062500    0.00024414  24 t-inv F
  0.125000  0.062500  0.062500    0.00024414  24 t-inv F
 -0.062500 -0.000000  0.062500    0.00024414  24 t-inv F
  0.000000  0.125000  0.125000    0.00024414  25 t-inv F
  0.125000  0.000000  0.125000    0.00024414  25 t-inv F
 -0.125000 -0.125000 -0.000000    0.00024414  25 t-inv F
 -0.125000  0.000000 -0.125000    0.00024414  25 t-inv F
 -0.000000 -0.125000 -0.125000    0.00024414  25 t-inv F
  0.000000  0.187500  0.125000    0.00024414  26 t-inv F
  0.125000  0.000000  0.187500    0.00024414  26 t-inv F
 -0.125000 -0.125000  0.062500    0.00024414  26 t-inv F
 -0.187500 -0.062500 -0.187500    0.00024414  26 t-inv F
  0.125000  0.187500 -0.000000    0.00024414  26 t-inv F
  0.062500 -0.125000 -0.125000    0.00024414  26 t-inv F
 -0.187500 -0.187500 -0.062500    0.00024414  26 t-inv F
 -0.000000  0.125000  0.187500    0.00024414  26 t-inv F
 -0.125000  0.062500 -0.125000    0.00024414  26 t-inv F
 -0.062500 -0.187500 -0.187500    0.00024414  26 t-inv F
  0.187500 -0.000000  0.125000    0.00024414  26 t-inv F
 -0.187500 -0.125000 -0.000000    0.00024414  26 t-inv F
 -0.000000 -0.187500 -0.125000    0.00024414  26 t-inv F
 -0.125000 -0.000000 -0.187500    0.00024414  26 t-inv F
  0.125000  0.125000 -0.062500    0.00024414  26 t-inv F
  0.187500  0.062500  0.187500    0.00024414  26 t-inv F
 -0.125000 -0.187500  0.000000    0.00024414  26 t-inv F
 -0.062500  0.125000  0.125000    0.00024414  26 t-inv F
  0.187500  0.187500  0.062500    0.00024414  26 t-inv F
  0.000000 -0.125000 -0.187500    0.00024414  26 t-inv F
  0.125000 -0.062500  0.125000    0.00024414  26 t-inv F
  0.062500  0.187500  0.187500    0.00024414  26 t-inv F
 -0.187500  0.000000 -0.125000    0.00024414  26 t-inv F
  0.000000  0.250000  0.125000    0.00024414  27 t-inv F
  0.125000  0.000000  0.250000    0.00024414  27 t-inv F
 -0.125000 -0.125000  0.125000    0.00024414  27 t-inv F
 -0.250000 -0.125000 -0.250000    0.00024414  27 t-inv F
  0.125000  0.250000 -0.000000    0.00024414  27 t-inv F
  0.125000 -0.125000 -0.125000    0.00024414  27 t-inv F
 -0.250000 -0.250000 -0.125000    0.00024414  27 t-inv F
 -0.000000  0.125000  0.250000    0.00024414  27 t-inv F
 -0.125000  0.125000 -0.125000    0.00024414  27 t-inv F
 -0.125000 -0.250000 -0.250000    0.00024414  27 t-inv F
  0.250000 -0.000000  0.125000    0.00024414  27 t-inv F
 -0.250000 -0.125000 -0.000000    0.00024414  27 t-inv F
 -0.000000 -0.250000 -0.125000    0.00024414  27 t-inv F
 -0.125000 -0.000000 -0.250000    0.00024414  27 t-inv F
  0.125000  0.125000 -0.125000    0.00024414  27 t-inv F
  0.250000  0.125000  0.250000    0.00024414  27 t-inv F
 -0.125000 -0.250000  0.000000    0.00024414  27 t-inv F
 -0.125000  0.125000  0.125000    0.00024414  27 t-inv F
  0.250000  0.250000  0.125000    0.00024414  27 t-inv F
  0.000000 -0.125000 -0.250000    0.00024414  27 t-inv F
  0.125000 -0.125000  0.125000    0.00024414  27 t-inv F
  0.125000  0.250000  0.250000    0.00024414  27 t-inv F
 -0.250000  0.000000 -0.125000    0.00024414  27 t-inv F
  0.000000  0.312500  0.125000    0.00024414  28 t-inv F
  0.125000  0.000000  0.312500    0.00024414  28 t-inv F
 -0.125000 -0.125000  0.187500    0.00024414  28 t-inv F
 -0.312500 -0.187500 -0.312500    0.00024414  28 t-inv F
  0.125000  0.312500 -0.000000    0.00024414  28 t-inv F
  0.187500 -0.125000 -0.125000    0.00024414  28 t-inv F
 -0.312500 -0.312500 -0.187500    0.00024414  28 t-inv F
 -0.000000  0.125000  0.312500    0.00024414  28 t-inv F
 -0.125000  0.187500 -0.125000    0.00024414  28 t-inv F
 -0.187500 -0.312500 -0.312500    0.00024414  28 t-inv F
  0.312500 -0.000000  0.125000    0.00024414  28 t-inv F
 -0.312500 -0.125000 -0.000000    0.00024414  28 t-inv F
 -0.000000 -0.312500 -0.125000    0.00024414  28 t-inv F
 -0.125000 -0.000000 -0.312500    0.00024414  28 t-inv F
  0.125000  0.125000 -0.187500    0.00024414  28 t-inv F
  0.312500  0.187500  0.312500    0.00024414  28 t-inv F
 -0.125000 -0.312500  0.000000    0.00024414  28 t-inv F
 -0.187500  0.125000  0.125000    0.00024414  28 t-inv F
  0.312500  0.312500  0.187500    0.00024414  28 t-inv F
  0.000000 -0.125000 -0.312500    0.00024414  28 t-inv F
  0.125000 -0.187500  0.125000    0.00024414  28 t-inv F
  0.187500  0.312500  0.312500    0.00024414  28 t-inv F
 -0.312500  0.000000 -0.125000    0.00024414  28 t-inv F
  0.000000  0.375000  0.125000    0.00024414  29 t-inv F
  0.125000  0.000000  0.375000    0.00024414  29 t-inv F
 -0.125000 -0.125000  0.250000    0.00024414  29 t-inv F
 -0.375000 -0.250000 -0.375000    0.00024414  29 t-inv F
  0.125000  0.375000 -0.000000    0.00024414  29 t-inv F
  0.250000 -0.125000 -0.125000    0.00024414  29 t-inv F
 -0.375000 -0.375000 -0.250000    0.00024414  29 t-inv F
 -0.000000  0.125000  0.375000    0.00024414  29 t-inv F
 -0.125000  0.250000 -0.125000    0.00024414  29 t-inv F
 -0.250000 -0.375000 -0.375000    0.00024414  29 t-inv F
  0.375000 -0.000000  0.125000    0.00024414  29 t-inv F
 -0.375000 -0.125000 -0.000000    0.00024414  29 t-inv F
 -0.000000 -0.375000 -0.125000    0.00024414  29 t-inv F
 -0.125000 -0.000000 -0.375000    0.00024414  29 t-inv F
  0.125000  0.125000 -0.250000    0.00024414  29 t-inv F
  0.375000  0.250000  0.375000    0.00024414  29 t-inv F
 -0.125000 -0.375000  0.000000    0.00024414  29 t-inv F
 -0.250000  0.125000  0.125000    0.00024414  29 t-inv F
  0.375000  0.375000  0.250000    0.00024414  29 t-inv F
  0.000000 -0.125000 -0.375000    0.00024414  29 t-inv F
  0.125000 -0.250000  0.125000    0.00024414  29 t-inv F
  0.250000  0.375000  0.375000    0.00024414  29 t-inv F
 -0.375000  0.000000 -0.125000    0.00024414  29 t-inv F
  0.000000  0.437500  0.125000    0.00024414  30 t-inv F
  0.125000  0.000000  0.437500    0.00024414  30 t-inv F
 -0.125000 -0.125000  0.312500    0.00024414  30 t-inv F
 -0.437500 -0.312500 -0.437500    0.00024414  30 t-inv F
  0.125000  0.437500 -0.000000    0.00024414  30 t-inv F
  0.312500 -0.125000 -0.125000    0.00024414  30 t-inv F
 -0.437500 -0.437500 -0.312500    0.00024414  30 t-inv F
 -0.000000  0.125000  0.437500    0.00024414  30 t-inv F
 -0.125000  0.312500 -0.125000    0.00024414  30 t-inv F
 -0.312500 -0.437500 -0.437500    0.00024414  30 t-inv F
  0.437500 -0.000000  0.125000    0.00024414  30 t-inv F
 -0.437500 -0.125000 -0.000000    0.00024414  30 t-inv F
 -0.000000 -0.437500 -0.125000    0.00024414  30 t-inv F
 -0.125000 -0.000000 -0.437500    0.00024414  30 t-inv F
  0.125000  0.125000 -0.312500    0.00024414  30 t-inv F
  0.437500  0.312500  0.437500    0.00024414  30 t-inv F
 -0.125000 -0.437500  0.000000    0.00024414  30 t-inv F
 -0.312500  0.125000  0.125000    0.00024414  30 t-inv F
  0.437500  0.437500  0.312500    0.00024414  30 t-inv F
  0.000000 -0.125000 -0.437500    0.00024414  30 t-inv F
  0.125000 -0.312500  0.125000    0.00024414  30 t-inv F
  0.312500  0.437500  0.437500    0.00024414  30 t-inv F
 -0.437500  0.000000 -0.125000    0.00024414  30 t-inv F
  0.000000  0.500000  0.125000    0.00024414  31 t-inv F
  0.125000  0.000000  0.500000    0.00024414  31 t-inv F
 -0.125000 -0.125000  0.375000    0.00024414  31 t-inv F
 -0.500000 -0.375000 -0.500000    0.00024414  31 t-inv F
  0.125000  0.500000 -0.000000    0.00024414  31 t-inv F
  0.375000 -0.125000 -0.125000    0.00024414  31 t-inv F
 -0.500000 -0.500000 -0.375000    0.00024414  31 t-inv F
 -0.000000  0.125000  0.500000    0.00024414  31 t-inv F
 -0.125000  0.375000 -0.125000    0.00024414  31 t-inv F
 -0.375000 -0.500000 -0.500000    0.00024414  31 t-inv F
  0.500000 -0.000000  0.125000    0.00024414  31 t-inv F
 -0.500000 -0.125000 -0.000000    0.00024414  31 t-inv F
 -0.000000 -0.500000 -0.125000    0.00024414  31 t-inv F
 -0.125000 -0.000000 -0.500000    0.00024414  31 t-inv F
  0.125000  0.125000 -0.375000    0.00024414  31 t-inv F
  0.500000  0.375000  0.500000    0.00024414  31 t-inv F
 -0.125000 -0.500000  0.000000    0.00024414  31 t-inv F
 -0.375000  0.125000  0.125000    0.00024414  31 t-inv F
  0.500000  0.500000  0.375000    0.00024414  31 t-inv F
  0.000000 -0.125000 -0.500000    0.00024414  31 t-inv F
  0.125000 -0.375000  0.125000    0.00024414  31 t-inv F
  0.375000  0.500000  0.500000    0.00024414  31 t-inv F
 -0.500000  0.000000 -0.125000    0.00024414  31 t-inv F
  0.000000 -0.437500  0.125000    0.00024414  32 t-inv F
  0.125000  0.000000 -0.437500    0.00024414  32 t-inv F
 -0.125000 -0.125000 -0.562500    0.00024414  32 t-inv F
  0.437500  0.562500  0.437500    0.00024414  32 t-inv F
  0.125000 -0.437500 -0.000000    0.00024414  32 t-inv F
 -0.562500 -0.125000 -0.125000    0.00024414  32 t-inv F
  0.437500  0.437500  0.562500    0.00024414  32 t-inv F
 -0.000000  0.125000 -0.437500    0.00024414  32 t-inv F
 -0.125000 -0.562500 -0.125000    0.00024414  32 t-inv F
  0.562500  0.437500  0.437500    0.00024414  32 t-inv F
 -0.437500 -0.000000  0.125000    0.00024414  32 t-inv F
  0.437500 -0.125000 -0.000000    0.00024414  32 t-inv F
 -0.000000  0.437500 -0.125000    0.00024414  32 t-inv F
 -0.125000 -0.000000  0.437500    0.00024414  32 t-inv F
  0.125000  0.125000  0.562500    0.00024414  32 t-inv F
 -0.437500 -0.562500 -0.437500    0.00024414  32 t-inv F
 -0.125000  0.437500  0.000000    0.00024414  32 t-inv F
  0.562500  0.125000  0.125000    0.00024414  32 t-inv F
 -0.437500 -0.437500 -0.562500    0.00024414  32 t-inv F
  0.000000 -0.125000  0.437500    0.00024414  32 t-inv F
  0.125000  0.562500  0.125000    0.00024414  32 t-inv F
 -0.562500 -0.437500 -0.437500    0.00024414  32 t-inv F
  0.437500  0.000000 -0.125000    0.00024414  32 t-inv F
  0.000000 -0.375000  0.125000    0.00024414  33 t-inv F
  0.125000  0.000000 -0.375000    0.00024414  33 t-inv F
 -0.125000 -0.125000 -0.500000    0.00024414  33 t-inv F
  0.375000  0.500000  0.375000    0.00024414  33 t-inv F
  0.125000 -0.375000 -0.000000    0.00024414  33 t-inv F
 -0.500000 -0.125000 -0.125000    0.00024414  33 t-inv F
  0.375000  0.375000  0.500000    0.00024414  33 t-inv F
 -0.000000  0.125000 -0.375000    0.00024414  33 t-inv F
 -0.125000 -0.500000 -0.125000    0.00024414  33 t-inv F
  0.500000  0.375000  0.375000    0.00024414  33 t-inv F
 -0.375000 -0.000000  0.125000    0.00024414  33 t-inv F
  0.375000 -0.125000 -0.000000    0.00024414  33 t-inv F
 -0.000000  0.375000 -0.125000    0.00024414  33 t-inv F
 -0.125000 -0.000000  0.375000    0.00024414  33 t-inv F
  0.125000  0.125000  0.500000    0.00024414  33 t-inv F
 -0.375000 -0.500000 -0.375000    0.00024414  33 t-inv F
 -0.125000  0.375000  0.000000    0.00024414  33 t-inv F
  0.500000  0.125000  0.125000    0.00024414  33 t-inv F
 -0.375000 -0.375000 -0.500000    0.00024414  33 t-inv F
  0.000000 -0.125000  0.375000    0.00024414  33 t-inv F
  0.125000  0.500000  0.125000    0.00024414  33 t-inv F
 -0.500000 -0.375000 -0.375000    0.00024414  33 t-inv F
  0.375000  0.000000 -0.125000    0.00024414  33 t-inv F
  0.000000 -0.312500  0.125000    0.00024414  34 t-inv F
  0.125000  0.000000 -0.312500    0.00024414  34 t-inv F
 -0.125000 -0.125000 -0.437500    0.00024414  34 t-inv F
  0.312500  0.437500  0.312500    0.00024414  34 t-inv F
  0.125000 -0.312500 -0.000000    0.00024414  34 t-inv F
 -0.437500 -0.125000 -0.125000    0.00024414  34 t-inv F
  0.312500  0.312500  0.437500    0.00024414  34 t-inv F
 -0.000000  0.125000 -0.312500    0.00024414  34 t-inv F
 -0.125000 -0.437500 -0.125000    0.00024414  34 t-inv F
  0.437500  0.312500  0.312500    0.00024414  34 t-inv F
 -0.312500 -0.000000  0.125000    0.00024414  34 t-inv F
  0.312500 -0.125000 -0.000000    0.00024414  34 t-inv F
 -0.000000  0.312500 -0.125000    0.00024414  34 t-inv F
 -0.125000 -0.000000  0.312500    0.00024414  34 t-inv F
  0.125000  0.125000  0.437500    0.00024414  34 t-inv F
 -0.312500 -0.437500 -0.312500    0.00024414  34 t-inv F
 -0.125000  0.312500  0.000000    0.00024414  34 t-inv F
  0.437500  0.125000  0.125000    0.00024414  34 t-inv F
 -0.312500 -0.312500 -0.437500    0.00024414  34 t-inv F
  0.000000 -0.125000  0.312500    0.00024414  34 t-inv F
  0.125000  0.437500  0.125000    0.00024414  34 t-inv F
 -0.437500 -0.312500 -0.312500    0.00024414  34 t-inv F
  0.312500  0.000000 -0.125000    0.00024414  34 t-inv F
  0.000000 -0.250000  0.125000    0.00024414  35 t-inv F
  0.125000  0.000000 -0.250000    0.00024414  35 t-inv F
 -0.125000 -0.125000 -0.375000    0.00024414  35 t-inv F
  0.250000  0.375000  0.250000    0.00024414  35 t-inv F
  0.125000 -0.250000 -0.000000    0.00024414  35 t-inv F
 -0.375000 -0.125000 -0.125000    0.00024414  35 t-inv F
  0.250000  0.250000  0.375000    0.00024414  35 t-inv F
 -0.000000  0.125000 -0.250000    0.00024414  35 t-inv F
 -0.125000 -0.375000 -0.125000    0.00024414  35 t-inv F
  0.375000  0.250000  0.250000    0.00024414  35 t-inv F
 -0.250000 -0.000000  0.125000    0.00024414  35 t-inv F
  0.250000 -0.125000 -0.000000    0.00024414  35 t-inv F
 -0.000000  0.250000 -0.125000    0.00024414  35 t-inv F
 -0.125000 -0.000000  0.250000    0.00024414  35 t-inv F
  0.125000  0.125000  0.375000    0.00024414  35 t-inv F
 -0.250000 -0.375000 -0.250000    0.00024414  35 t-inv F
 -0.125000  0.250000  0.000000    0.00024414  35 t-inv F
  0.375000  0.125000  0.125000    0.00024414  35 t-inv F
 -0.250000 -0.250000 -0.375000    0.00024414  35 t-inv F
  0.000000 -0.125000  0.250000    0.00024414  35 t-inv F
  0.125000  0.375000  0.125000    0.00024414  35 t-inv F
 -0.375000 -0.250000 -0.250000    0.00024414  35 t-inv F
  0.250000  0.000000 -0.125000    0.00024414  35 t-inv F
  0.000000 -0.187500  0.125000    0.00024414  36 t-inv F
  0.125000  0.000000 -0.187500    0.00024414  36 t-inv F
 -0.125000 -0.125000 -0.312500    0.00024414  36 t-inv F
  0.187500  0.312500  0.187500    0.00024414  36 t-inv F
  0.125000 -0.187500 -0.000000    0.00024414  36 t-inv F
 -0.312500 -0.125000 -0.125000    0.00024414  36 t-inv F
  0.187500  0.187500  0.312500    0.00024414  36 t-inv F
 -0.000000  0.125000 -0.187500    0.00024414  36 t-inv F
 -0.125000 -0.312500 -0.125000    0.00024414  36 t-inv F
  0.312500  0.187500  0.187500    0.00024414  36 t-inv F
 -0.187500 -0.000000  0.125000    0.00024414  36 t-inv F
  0.187500 -0.125000 -0.000000    0.00024414  36 t-inv F
 -0.000000  0.187500 -0.125000    0.00024414  36 t-inv F
 -0.125000 -0.000000  0.187500    0.00024414  36 t-inv F
  0.125000  0.125000  0.312500    0.00024414  36 t-inv F
 -0.187500 -0.312500 -0.187500    0.00024414  36 t-inv F
 -0.125000  0.187500  0.000000    0.00024414  36 t-inv F
  0.312500  0.125000  0.125000    0.00024414  36 t-inv F
 -0.187500 -0.187500 -0.312500    0.00024414  36 t-inv F
  0.000000 -0.125000  0.187500    0.00024414  36 t-inv F
  0.125000  0.312500  0.125000    0.00024414  36 t-inv F
 -0.312500 -0.187500 -0.187500    0.00024414  36 t-inv F
  0.187500  0.000000 -0.125000    0.00024414  36 t-inv F
  0.000000 -0.125000  0.125000    0.00024414  37 t-inv F
  0.125000  0.000000 -0.125000    0.00024414  37 t-inv F
 -0.125000 -0.125000 -0.250000    0.00024414  37 t-inv F
  0.125000  0.250000  0.125000    0.00024414  37 t-inv F
  0.125000 -0.125000 -0.000000    0.00024414  37 t-inv F
 -0.250000 -0.125000 -0.125000    0.00024414  37 t-inv F
  0.125000  0.125000  0.250000    0.00024414  37 t-inv F
 -0.000000  0.125000 -0.125000    0.00024414  37 t-inv F
 -0.125000 -0.250000 -0.125000    0.00024414  37 t-inv F
  0.250000  0.125000  0.125000    0.00024414  37 t-inv F
 -0.125000 -0.000000  0.125000    0.00024414  37 t-inv F
  0.000000  0.187500  0.187500    0.00024414  38 t-inv F
  0.187500  0.000000  0.187500    0.00024414  38 t-inv F
 -0.187500 -0.187500  0.000000    0.00024414  38 t-inv F
 -0.187500  0.000000 -0.187500    0.00024414  38 t-inv F
  0.000000 -0.187500 -0.187500    0.00024414  38 t-inv F
  0.000000  0.250000  0.187500    0.00024414  39 t-inv F
  0.187500  0.000000  0.250000    0.00024414  39 t-inv F
 -0.187500 -0.187500  0.062500    0.00024414  39 t-inv F
 -0.250000 -0.062500 -0.250000    0.00024414  39 t-inv F
  0.187500  0.250000 -0.000000    0.00024414  39 t-inv F
  0.062500 -0.187500 -0.187500    0.00024414  39 t-inv F
 -0.250000 -0.250000 -0.062500    0.00024414  39 t-inv F
 -0.000000  0.187500  0.250000    0.00024414  39 t-inv F
 -0.187500  0.062500 -0.187500    0.00024414  39 t-inv F
 -0.062500 -0.250000 -0.250000    0.00024414  39 t-inv F
  0.250000 -0.000000  0.187500    0.00024414  39 t-inv F
 -0.250000 -0.187500 -0.000000    0.00024414  39 t-inv F
 -0.000000 -0.250000 -0.187500    0.00024414  39 t-inv F
 -0.187500 -0.000000 -0.250000    0.00024414  39 t-inv F
  0.187500  0.187500 -0.062500    0.00024414  39 t-inv F
  0.250000  0.062500  0.250000    0.00024414  39 t-inv F
 -0.187500 -0.250000  0.000000    0.00024414  39 t-inv F
 -0.062500  0.187500  0.187500    0.00024414  39 t-inv F
  0.250000  0.250000  0.062500    0.00024414  39 t-inv F
  0.000000 -0.187500 -0.250000    0.00024414  39 t-inv F
  0.187500 -0.062500  0.187500    0.00024414  39 t-inv F
  0.062500  0.250000  0.250000    0.00024414  39 t-inv F
 -0.250000  0.000000 -0.187500    0.00024414  39 t-inv F
  0.000000  0.312500  0.187500    0.00024414  40 t-inv F
  0.187500  0.000000  0.312500    0.00024414  40 t-inv F
 -0.187500 -0.187500  0.125000    0.00024414  40 t-inv F
 -0.312500 -0.125000 -0.312500    0.00024414  40 t-inv F
  0.187500  0.312500 -0.000000    0.00024414  40 t-inv F
  0.125000 -0.187500 -0.187500    0.00024414  40 t-inv F
 -0.312500 -0.312500 -0.125000    0.00024414  40 t-inv F
 -0.000000  0.187500  0.312500    0.00024414  40 t-inv F
 -0.187500  0.125000 -0.187500    0.00024414  40 t-inv F
 -0.125000 -0.312500 -0.312500    0.00024414  40 t-inv F
  0.312500 -0.000000  0.187500    0.00024414  40 t-inv F
 -0.312500 -0.187500 -0.000000    0.00024414  40 t-inv F
 -0.000000 -0.312500 -0.187500    0.00024414  40 t-inv F
 -0.187500 -0.000000 -0.312500    0.00024414  40 t-inv F
  0.187500  0.187500 -0.125000    0.00024414  40 t-inv F
  0.312500  0.125000  0.312500    0.00024414  40 t-inv F
 -0.187500 -0.312500  0.000000    0.00024414  40 t-inv F
 -0.125000  0.187500  0.187500    0.00024414  40 t-inv F
  0.312500  0.312500  0.125000    0.00024414  40 t-inv F
  0.000000 -0.187500 -0.312500    0.00024414  40 t-inv F
  0.187500 -0.125000  0.187500    0.00024414  40 t-inv F
  0.125000  0.312500  0.312500    0.00024414  40 t-inv F
 -0.312500  0.000000 -0.187500    0.00024414  40 t-inv F
  0.000000  0.375000  0.187500    0.00024414  41 t-inv F
  0.187500  0.000000  0.375000    0.00024414  41 t-inv F
 -0.187500 -0.187500  0.187500    0.00024414  41 t-inv F
 -0.375000 -0.187500 -0.375000    0.00024414  41 t-inv F
  0.187500  0.375000 -0.000000    0.00024414  41 t-inv F
  0.187500 -0.187500 -0.187500    0.00024414  41 t-inv F
 -0.375000 -0.375000 -0.187500    0.00024414  41 t-inv F
 -0.000000  0.187500  0.375000    0.00024414  41 t-inv F
 -0.187500  0.187500 -0.187500    0.00024414  41 t-inv F
 -0.187500 -0.375000 -0.375000    0.00024414  41 t-inv F
  0.375000 -0.000000  0.187500    0.00024414  41 t-inv F
 -0.375000 -0.187500 -0.000000    0.00024414  41 t-inv F
 -0.000000 -0.375000 -0.187500    0.00024414  41 t-inv F
 -0.187500 -0.000000 -0.375000    0.00024414  41 t-inv F
  0.187500  0.187500 -0.187500    0.00024414  41 t-inv F
  0.375000  0.187500  0.375000    0.00024414  41 t-inv F
 -0.187500 -0.375000  0.000000    0.00024414  41 t-inv F
 -0.187500  0.187500  0.187500    0.00024414  41 t-inv F
  0.375000  0.375000  0.187500    0.00024414  41 t-inv F
  0.000000 -0.187500 -0.375000    0.00024414  41 t-inv F
  0.187500 -0.187500  0.187500    0.00024414  41 t-inv F
  0.187500  0.375000  0.375000    0.00024414  41 t-inv F
 -0.375000  0.000000 -0.187500    0.00024414  41 t-inv F
  0.000000  0.437500  0.187500    0.00024414  42 t-inv F
  0.187500  0.000000  0.437500    0.00024414  42 t-inv F
 -0.187500 -0.187500  0.250000    0.00024414  42 t-inv F
 -0.437500 -0.250000 -0.437500    0.00024414  42 t-inv F
  0.187500  0.437500 -0.000000    0.00024414  42 t-inv F
  0.250000 -0.187500 -0.187500    0.00024414  42 t-inv F
 -0.437500 -0.437500 -0.250000    0.00024414  42 t-inv F
 -0.000000  0.187500  0.437500    0.00024414  42 t-inv F
 -0.187500  0.250000 -0.187500    0.00024414  42 t-inv F
 -0.250000 -0.437500 -0.437500    0.00024414  42 t-inv F
  0.437500 -0.000000  0.187500    0.00024414  42 t-inv F
 -0.437500 -0.187500 -0.000000    0.00024414  42 t-inv F
 -0.000000 -0.437500 -0.187500    0.00024414  42 t-inv F
 -0.187500 -0.000000 -0.437500    0.00024414  42 t-inv F
  0.187500  0.187500 -0.250000    0.00024414  42 t-inv F
  0.437500  0.250000  0.437500    0.00024414  42 t-inv F
 -0.187500 -0.437500  0.000000    0.00024414  42 t-inv F
 -0.250000  0.187500  0.187500    0.00024414  42 t-inv F
  0.437500  0.437500  0.250000    0.00024414  42 t-inv F
  0.000000 -0.187500 -0.437500    0.00024414  42 t-inv F
  0.187500 -0.250000  0.187500    0.00024414  42 t-inv F
  0.250000  0.437500  0.437500    0.00024414  42 t-inv F
 -0.437500  0.000000 -0.187500    0.00024414  42 t-inv F
  0.000000  0.500000  0.187500    0.00024414  43 t-inv F
  0.187500  0.000000  0.500000    0.00024414  43 t-inv F
 -0.187500 -0.187500  0.312500    0.00024414  43 t-inv F
 -0.500000 -0.312500 -0.500000    0.00024414  43 t-inv F
  0.187500  0.500000 -0.000000    0.00024414  43 t-inv F
  0.312500 -0.187500 -0.187500    0.00024414  43 t-inv F
 -0.500000 -0.500000 -0.312500    0.00024414  43 t-inv F
 -0.000000  0.187500  0.500000    0.00024414  43 t-inv F
 -0.187500  0.312500 -0.187500    0.00024414  43 t-inv F
 -0.312500 -0.500000 -0.500000    0.00024414  43 t-inv F
  0.500000 -0.000000  0.187500    0.00024414  43 t-inv F
 -0.500000 -0.187500 -0.000000    0.00024414  43 t-inv F
 -0.000000 -0.500000 -0.187500    0.00024414  43 t-inv F
 -0.187500 -0.000000 -0.500000    0.00024414  43 t-inv F
  0.187500  0.187500 -0.312500    0.00024414  43 t-inv F
  0.500000  0.312500  0.500000    0.00024414  43 t-inv F
 -0.187500 -0.500000  0.000000    0.00024414  43 t-inv F
 -0.312500  0.187500  0.187500    0.00024414  43 t-inv F
  0.500000  0.500000  0.312500    0.00024414  43 t-inv F
  0.000000 -0.187500 -0.500000    0.00024414  43 t-inv F
  0.187500 -0.312500  0.187500    0.00024414  43 t-inv F
  0.312500  0.500000  0.500000    0.00024414  43 t-inv F
 -0.500000  0.000000 -0.187500    0.00024414  43 t-inv F
  0.000000 -0.437500  0.187500    0.00024414  44 t-inv F
  0.187500  0.000000 -0.437500    0.00024414  44 t-inv F
 -0.187500 -0.187500 -0.625000    0.00024414  44 t-inv F
  0.437500  0.625000  0.437500    0.00024414  44 t-inv F
  0.187500 -0.437500 -0.000000    0.00024414  44 t-inv F
 -0.625000 -0.187500 -0.187500    0.00024414  44 t-inv F
  0.437500  0.437500  0.625000    0.00024414  44 t-inv F
 -0.000000  0.187500 -0.437500    0.00024414  44 t-inv F
 -0.187500 -0.625000 -0.187500    0.00024414  44 t-inv F
  0.625000  0.437500  0.437500    0.00024414  44 t-inv F
 -0.437500 -0.000000  0.187500    0.00024414  44 t-inv F
  0.437500 -0.187500 -0.000000    0.00024414  44 t-inv F
 -0.000000  0.437500 -0.187500    0.00024414  44 t-inv F
 -0.187500 -0.000000  0.437500    0.00024414  44 t-inv F
  0.187500  0.187500  0.625000    0.00024414  44 t-inv F
 -0.437500 -0.625000 -0.437500    0.00024414  44 t-inv F
 -0.187500  0.437500  0.000000    0.00024414  44 t-inv F
  0.625000  0.187500  0.187500    0.00024414  44 t-inv F
 -0.437500 -0.437500 -0.625000    0.00024414  44 t-inv F
  0.000000 -0.187500  0.437500    0.00024414  44 t-inv F
  0.187500  0.625000  0.187500    0.00024414  44 t-inv F
 -0.625000 -0.437500 -0.437500    0.00024414  44 t-inv F
  0.437500  0.000000 -0.187500    0.00024414  44 t-inv F
  0.000000 -0.375000  0.187500    0.00024414  45 t-inv F
  0.187500  0.000000 -0.375000    0.00024414  45 t-inv F
 -0.187500 -0.187500 -0.562500    0.00024414  45 t-inv F
  0.375000  0.562500  0.375000    0.00024414  45 t-inv F
  0.187500 -0.375000 -0.000000    0.00024414  45 t-inv F
 -0.562500 -0.187500 -0.187500    0.00024414  45 t-inv F
  0.375000  0.375000  0.562500    0.00024414  45 t-inv F
 -0.000000  0.187500 -0.375000    0.00024414  45 t-inv F
 -0.187500 -0.562500 -0.187500    0.00024414  45 t-inv F
  0.562500  0.375000  0.375000    0.00024414  45 t-inv F
 -0.375000 -0.000000  0.187500    0.00024414  45 t-inv F
  0.375000 -0.187500 -0.000000    0.00024414  45 t-inv F
 -0.000000  0.375000 -0.187500    0.00024414  45 t-inv F
 -0.187500 -0.000000  0.375000    0.00024414  45 t-inv F
  0.187500  0.187500  0.562500    0.00024414  45 t-inv F
 -0.375000 -0.562500 -0.375000    0.00024414  45 t-inv F
 -0.187500  0.375000  0.000000    0.00024414  45 t-inv F
  0.562500  0.187500  0.187500    0.00024414  45 t-inv F
 -0.375000 -0.375000 -0.562500    0.00024414  45 t-inv F
  0.000000 -0.187500  0.375000    0.00024414  45 t-inv F
  0.187500  0.562500  0.187500    0.00024414  45 t-inv F
 -0.562500 -0.375000 -0.375000    0.00024414  45 t-inv F
  0.375000  0.000000 -0.187500    0.00024414  45 t-inv F
  0.000000 -0.312500  0.187500    0.00024414  46 t-inv F
  0.187500  0.000000 -0.312500    0.00024414  46 t-inv F
 -0.187500 -0.187500 -0.500000    0.00024414  46 t-inv F
  0.312500  0.500000  0.312500    0.00024414  46 t-inv F
  0.187500 -0.312500 -0.000000    0.00024414  46 t-inv F
 -0.500000 -0.187500 -0.187500    0.00024414  46 t-inv F
  0.312500  0.312500  0.500000    0.00024414  46 t-inv F
 -0.000000  0.187500 -0.312500    0.00024414  46 t-inv F
 -0.187500 -0.500000 -0.187500    0.00024414  46 t-inv F
  0.500000  0.312500  0.312500    0.00024414  46 t-inv F
 -0.312500 -0.000000  0.187500    0.00024414  46 t-inv F
  0.312500 -0.187500 -0.000000    0.00024414  46 t-inv F
 -0.000000  0.312500 -0.187500    0.00024414  46 t-inv F
 -0.187500 -0.000000  0.312500    0.00024414  46 t-inv F
  0.187500  0.187500  0.500000    0.00024414  46 t-inv F
 -0.312500 -0.500000 -0.312500    0.00024414  46 t-inv F
 -0.187500  0.312500  0.000000    0.00024414  46 t-inv F
  0.500000  0.187500  0.187500    0.00024414  46 t-inv F
 -0.312500 -0.312500 -0.500000    0.00024414  46 t-inv F
  0.000000 -0.187500  0.312500    0.00024414  46 t-inv F
  0.187500  0.500000  0.187500    0.00024414  46 t-inv F
 -0.500000 -0.312500 -0.312500    0.00024414  46 t-inv F
  0.312500  0.000000 -0.187500    0.00024414  46 t-inv F
  0.000000 -0.250000  0.187500    0.00024414  47 t-inv F
  0.187500  0.000000 -0.250000    0.00024414  47 t-inv F
 -0.187500 -0.187500 -0.437500    0.00024414  47 t-inv F
  0.250000  0.437500  0.250000    0.00024414  47 t-inv F
  0.187500 -0.250000 -0.000000    0.00024414  47 t-inv F
 -0.437500 -0.187500 -0.187500    0.00024414  47 t-inv F
  0.250000  0.250000  0.437500    0.00024414  47 t-inv F
 -0.000000  0.187500 -0.250000    0.00024414  47 t-inv F
 -0.187500 -0.437500 -0.187500    0.00024414  47 t-inv F
  0.437500  0.250000  0.250000    0.00024414  47 t-inv F
 -0.250000 -0.000000  0.187500    0.00024414  47 t-inv F
  0.250000 -0.187500 -0.000000    0.00024414  47 t-inv F
 -0.000000  0.250000 -0.187500    0.00024414  47 t-inv F
 -0.187500 -0.000000  0.250000    0.00024414  47 t-inv F
  0.187500  0.187500  0.437500    0.00024414  47 t-inv F
 -0.250000 -0.437500 -0.250000    0.00024414  47 t-inv F
 -0.187500  0.250000  0.000000    0.00024414  47 t-inv F
  0.437500  0.187500  0.187500    0.00024414  47 t-inv F
 -0.250000 -0.250000 -0.437500    0.00024414  47 t-inv F
  0.000000 -0.187500  0.250000    0.00024414  47 t-inv F
  0.187500  0.437500  0.187500    0.00024414  47 t-inv F
 -0.437500 -0.250000 -0.250000    0.00024414  47 t-inv F
  0.250000  0.000000 -0.187500    0.00024414  47 t-inv F
  0.000000 -0.187500  0.187500    0.00024414  48 t-inv F
  0.187500  0.000000 -0.187500    0.00024414  48 t-inv F
 -0.187500 -0.187500 -0.375000    0.00024414  48 t-inv F
  0.187500  0.375000  0.187500    0.00024414  48 t-inv F
  0.187500 -0.187500 -0.000000    0.00024414  48 t-inv F
 -0.375000 -0.187500 -0.187500    0.00024414  48 t-inv F
  0.187500  0.187500  0.375000    0.00024414  48 t-inv F
 -0.000000  0.187500 -0.187500    0.00024414  48 t-inv F
 -0.187500 -0.375000 -0.187500    0.00024414  48 t-inv F
  0.375000  0.187500  0.187500    0.00024414  48 t-inv F
 -0.187500 -0.000000  0.187500    0.00024414  48 t-inv F
  0.000000  0.250000  0.250000    0.00024414  49 t-inv F
  0.250000  0.000000  0.250000    0.00024414  49 t-inv F
 -0.250000 -0.250000 -0.000000    0.00024414  49 t-inv F
 -0.250000  0.000000 -0.250000    0.00024414  49 t-inv F
 -0.000000 -0.250000 -0.250000    0.00024414  49 t-inv F
  0.000000  0.312500  0.250000    0.00024414  50 t-inv F
  0.250000  0.000000  0.312500    0.00024414  50 t-inv F
 -0.250000 -0.250000  0.062500    0.00024414  50 t-inv F
 -0.312500 -0.062500 -0.312500    0.00024414  50 t-inv F
  0.250000  0.312500 -0.000000    0.00024414  50 t-inv F
  0.062500 -0.250000 -0.250000    0.00024414  50 t-inv F
 -0.312500 -0.312500 -0.062500    0.00024414  50 t-inv F
 -0.000000  0.250000  0.312500    0.00024414  50 t-inv F
 -0.250000  0.062500 -0.250000    0.00024414  50 t-inv F
 -0.062500 -0.312500 -0.312500    0.00024414  50 t-inv F
  0.312500 -0.000000  0.250000    0.00024414  50 t-inv F
 -0.312500 -0.250000 -0.000000    0.00024414  50 t-inv F
 -0.000000 -0.312500 -0.250000    0.00024414  50 t-inv F
 -0.250000 -0.000000 -0.312500    0.00024414  50 t-inv F
  0.250000  0.250000 -0.062500    0.00024414  50 t-inv F
  0.312500  0.062500  0.312500    0.00024414  50 t-inv F
 -0.250000 -0.312500  0.000000    0.00024414  50 t-inv F
 -0.062500  0.250000  0.250000    0.00024414  50 t-inv F
  0.312500  0.312500  0.062500    0.00024414  50 t-inv F
  0.000000 -0.250000 -0.312500    0.00024414  50 t-inv F
  0.250000 -0.062500  0.250000    0.00024414  50 t-inv F
  0.062500  0.312500  0.312500    0.00024414  50 t-inv F
 -0.312500  0.000000 -0.250000    0.00024414  50 t-inv F
  0.000000  0.375000  0.250000    0.00024414  51 t-inv F
  0.250000  0.000000  0.375000    0.00024414  51 t-inv F
 -0.250000 -0.250000  0.125000    0.00024414  51 t-inv F
 -0.375000 -0.125000 -0.375000    0.00024414  51 t-inv F
  0.250000  0.375000 -0.000000    0.00024414  51 t-inv F
  0.125000 -0.250000 -0.250000    0.00024414  51 t-inv F
 -0.375000 -0.375000 -0.125000    0.00024414  51 t-inv F
 -0.000000  0.250000  0.375000    0.00024414  51 t-inv F
 -0.250000  0.125000 -0.250000    0.00024414  51 t-inv F
 -0.125000 -0.375000 -0.375000    0.00024414  51 t-inv F
  0.375000 -0.000000  0.250000    0.00024414  51 t-inv F
 -0.375000 -0.250000 -0.000000    0.00024414  51 t-inv F
 -0.000000 -0.375000 -0.250000    0.00024414  51 t-inv F
 -0.250000 -0.000000 -0.375000    0.00024414  51 t-inv F
  0.250000  0.250000 -0.125000    0.00024414  51 t-inv F
  0.375000  0.125000  0.375000    0.00024414  51 t-inv F
 -0.250000 -0.375000  0.000000    0.00024414  51 t-inv F
 -0.125000  0.250000  0.250000    0.00024414  51 t-inv F
  0.375000  0.375000  0.125000    0.00024414  51 t-inv F
  0.000000 -0.250000 -0.375000    0.00024414  51 t-inv F
  0.250000 -0.125000  0.250000    0.00024414  51 t-inv F
  0.125000  0.375000  0.375000    0.00024414  51 t-inv F
 -0.375000  0.000000 -0.250000    0.00024414  51 t-inv F
  0.000000  0.437500  0.250000    0.00024414  52 t-inv F
  0.250000  0.000000  0.437500    0.00024414  52 t-inv F
 -0.250000 -0.250000  0.187500    0.00024414  52 t-inv F
 -0.437500 -0.187500 -0.437500    0.00024414  52 t-inv F
  0.250000  0.437500 -0.000000    0.00024414  52 t-inv F
  0.187500 -0.250000 -0.250000    0.00024414  52 t-inv F
 -0.437500 -0.437500 -0.187500    0.00024414  52 t-inv F
 -0.000000  0.250000  0.437500    0.00024414  52 t-inv F
 -0.250000  0.187500 -0.250000    0.00024414  52 t-inv F
 -0.187500 -0.437500 -0.437500    0.00024414  52 t-inv F
  0.437500 -0.000000  0.250000    0.00024414  52 t-inv F
 -0.437500 -0.250000 -0.000000    0.00024414  52 t-inv F
 -0.000000 -0.437500 -0.250000    0.00024414  52 t-inv F
 -0.250000 -0.000000 -0.437500    0.00024414  52 t-inv F
  0.250000  0.250000 -0.187500    0.00024414  52 t-inv F
  0.437500  0.187500  0.437500    0.00024414  52 t-inv F
 -0.250000 -0.437500  0.000000    0.00024414  52 t-inv F
 -0.187500  0.250000  0.250000    0.00024414  52 t-inv F
  0.437500  0.437500  0.187500    0.00024414  52 t-inv F
  0.000000 -0.250000 -0.437500    0.00024414  52 t-inv F
  0.250000 -0.187500  0.250000    0.00024414  52 t-inv F
  0.187500  0.437500  0.437500    0.00024414  52 t-inv F
 -0.437500  0.000000 -0.250000    0.00024414  52 t-inv F
  0.000000  0.500000  0.250000    0.00024414  53 t-inv F
  0.250000  0.000000  0.500000    0.00024414  53 t-inv F
 -0.250000 -0.250000  0.250000    0.00024414  53 t-inv F
 -0.500000 -0.250000 -0.500000    0.00024414  53 t-inv F
  0.250000  0.500000 -0.000000    0.00024414  53 t-inv F
  0.250000 -0.250000 -0.250000    0.00024414  53 t-inv F
 -0.500000 -0.500000 -0.250000    0.00024414  53 t-inv F
 -0.000000  0.250000  0.500000    0.00024414  53 t-inv F
 -0.250000  0.250000 -0.250000    0.00024414  53 t-inv F
 -0.250000 -0.500000 -0.500000    0.00024414  53 t-inv F
  0.500000 -0.000000  0.250000    0.00024414  53 t-inv F
 -0.500000 -0.250000 -0.000000    0.00024414  53 t-inv F
 -0.000000 -0.500000 -0.250000    0.00024414  53 t-inv F
 -0.250000 -0.000000 -0.500000    0.00024414  53 t-inv F
  0.250000  0.250000 -0.250000    0.00024414  53 t-inv F
  0.500000  0.250000  0.500000    0.00024414  53 t-inv F
 -0.250000 -0.500000  0.000000    0.00024414  53 t-inv F
 -0.250000  0.250000  0.250000    0.00024414  53 t-inv F
  0.500000  0.500000  0.250000    0.00024414  53 t-inv F
  0.000000 -0.250000 -0.500000    0.00024414  53 t-inv F
  0.250000 -0.250000  0.250000    0.00024414  53 t-inv F
  0.250000  0.500000  0.500000    0.00024414  53 t-inv F
 -0.500000  0.000000 -0.250000    0.00024414  53 t-inv F
  0.000000 -0.437500  0.250000    0.00024414  54 t-inv F
  0.250000  0.000000 -0.437500    0.00024414  54 t-inv F
 -0.250000 -0.250000 -0.687500    0.00024414  54 t-inv F
  0.437500  0.687500  0.437500    0.00024414  54 t-inv F
  0.250000 -0.437500 -0.000000    0.00024414  54 t-inv F
 -0.687500 -0.250000 -0.250000    0.00024414  54 t-inv F
  0.437500  0.437500  0.687500    0.00024414  54 t-inv F
 -0.000000  0.250000 -0.437500    0.00024414  54 t-inv F
 -0.250000 -0.687500 -0.250000    0.00024414  54 t-inv F
  0.687500  0.437500  0.437500    0.00024414  54 t-inv F
 -0.437500 -0.000000  0.250000    0.00024414  54 t-inv F
  0.437500 -0.250000 -0.000000    0.00024414  54 t-inv F
 -0.000000  0.437500 -0.250000    0.00024414  54 t-inv F
 -0.250000 -0.000000  0.437500    0.00024414  54 t-inv F
  0.250000  0.250000  0.687500    0.00024414  54 t-inv F
 -0.437500 -0.687500 -0.437500    0.00024414  54 t-inv F
 -0.250000  0.437500  0.000000    0.00024414  54 t-inv F
  0.687500  0.250000  0.250000    0.00024414  54 t-inv F
 -0.437500 -0.437500 -0.687500    0.00024414  54 t-inv F
  0.000000 -0.250000  0.437500    0.00024414  54 t-inv F
  0.250000  0.687500  0.250000    0.00024414  54 t-inv F
 -0.687500 -0.437500 -0.437500    0.00024414  54 t-inv F
  0.437500  0.000000 -0.250000    0.00024414  54 t-inv F
  0.000000 -0.375000  0.250000    0.00024414  55 t-inv F
  0.250000  0.000000 -0.375000    0.00024414  55 t-inv F
 -0.250000 -0.250000 -0.625000    0.00024414  55 t-inv F
  0.375000  0.625000  0.375000    0.00024414  55 t-inv F
  0.250000 -0.375000 -0.000000    0.00024414  55 t-inv F
 -0.625000 -0.250000 -0.250000    0.00024414  55 t-inv F
  0.375000  0.375000  0.625000    0.00024414  55 t-inv F
 -0.000000  0.250000 -0.375000    0.00024414  55 t-inv F
 -0.250000 -0.625000 -0.250000    0.00024414  55 t-inv F
  0.625000  0.375000  0.375000    0.00024414  55 t-inv F
 -0.375000 -0.000000  0.250000    0.00024414  55 t-inv F
  0.375000 -0.250000 -0.000000    0.00024414  55 t-inv F
 -0.000000  0.375000 -0.250000    0.00024414  55 t-inv F
 -0.250000 -0.000000  0.375000    0.00024414  55 t-inv F
  0.250000  0.250000  0.625000    0.00024414  55 t-inv F
 -0.375000 -0.625000 -0.375000    0.00024414  55 t-inv F
 -0.250000  0.375000  0.000000    0.00024414  55 t-inv F
  0.625000  0.250000  0.250000    0.00024414  55 t-inv F
 -0.375000 -0.375000 -0.625000    0.00024414  55 t-inv F
  0.000000 -0.250000  0.375000    0.00024414  55 t-inv F
  0.250000  0.625000  0.250000    0.00024414  55 t-inv F
 -0.625000 -0.375000 -0.375000    0.00024414  55 t-inv F
  0.375000  0.000000 -0.250000    0.00024414  55 t-inv F
  0.000000 -0.312500  0.250000    0.00024414  56 t-inv F
  0.250000  0.000000 -0.312500    0.00024414  56 t-inv F
 -0.250000 -0.250000 -0.562500    0.00024414  56 t-inv F
  0.312500  0.562500  0.312500    0.00024414  56 t-inv F
  0.250000 -0.312500 -0.000000    0.00024414  56 t-inv F
 -0.562500 -0.250000 -0.250000    0.00024414  56 t-inv F
  0.312500  0.312500  0.562500    0.00024414  56 t-inv F
 -0.000000  0.250000 -0.312500    0.00024414  56 t-inv F
 -0.250000 -0.562500 -0.250000    0.00024414  56 t-inv F
  0.562500  0.312500  0.312500    0.00024414  56 t-inv F
 -0.312500 -0.000000  0.250000    0.00024414  56 t-inv F
  0.312500 -0.250000 -0.000000    0.00024414  56 t-inv F
 -0.000000  0.312500 -0.250000    0.00024414  56 t-inv F
 -0.250000 -0.000000  0.312500    0.00024414  56 t-inv F
  0.250000  0.250000  0.562500    0.00024414  56 t-inv F
 -0.312500 -0.562500 -0.312500    0.00024414  56 t-inv F
 -0.250000  0.312500  0.000000    0.00024414  56 t-inv F
  0.562500  0.250000  0.250000    0.00024414  56 t-inv F
 -0.312500 -0.312500 -0.562500    0.00024414  56 t-inv F
  0.000000 -0.250000  0.312500    0.00024414  56 t-inv F
  0.250000  0.562500  0.250000    0.00024414  56 t-inv F
 -0.562500 -0.312500 -0.312500    0.00024414  56 t-inv F
  0.312500  0.000000 -0.250000    0.00024414  56 t-inv F
  0.000000 -0.250000  0.250000    0.00024414  57 t-inv F
  0.250000  0.000000 -0.250000    0.00024414  57 t-inv F
 -0.250000 -0.250000 -0.500000    0.00024414  57 t-inv F
  0.250000  0.500000  0.250000    0.00024414  57 t-inv F
  0.250000 -0.250000 -0.000000    0.00024414  57 t-inv F
 -0.500000 -0.250000 -0.250000    0.00024414  57 t-inv F
  0.250000  0.250000  0.500000    0.00024414  57 t-inv F
 -0.000000  0.250000 -0.250000    0.00024414  57 t-inv F
 -0.250000 -0.500000 -0.250000    0.00024414  57 t-inv F
  0.500000  0.250000  0.250000    0.00024414  57 t-inv F
 -0.250000 -0.000000  0.250000    0.00024414  57 t-inv F
  0.000000  0.312500  0.312500    0.00024414  58 t-inv F
  0.312500  0.000000  0.312500    0.00024414  58 t-inv F
 -0.312500 -0.312500  0.000000    0.00024414  58 t-inv F
 -0.312500  0.000000 -0.312500    0.00024414  58 t-inv F
  0.000000 -0.312500 -0.312500    0.00024414  58 t-inv F
  0.000000  0.375000  0.312500    0.00024414  59 t-inv F
  0.312500  0.000000  0.375000    0.00024414  59 t-inv F
 -0.312500 -0.312500  0.062500    0.00024414  59 t-inv F
 -0.375000 -0.062500 -0.375000    0.00024414  59 t-inv F
  0.312500  0.375000 -0.000000    0.00024414  59 t-inv F
  0.062500 -0.312500 -0.312500    0.00024414  59 t-inv F
 -0.375000 -0.375000 -0.062500    0.00024414  59 t-inv F
 -0.000000  0.312500  0.375000    0.00024414  59 t-inv F
 -0.312500  0.062500 -0.312500    0.00024414  59 t-inv F
 -0.062500 -0.375000 -0.375000    0.00024414  59 t-inv F
  0.375000 -0.000000  0.312500    0.00024414  59 t-inv F
 -0.375000 -0.312500 -0.000000    0.00024414  59 t-inv F
 -0.000000 -0.375000 -0.312500    0.00024414  59 t-inv F
 -0.312500 -0.000000 -0.375000    0.00024414  59 t-inv F
  0.312500  0.312500 -0.062500    0.00024414  59 t-inv F
  0.375000  0.062500  0.375000    0.00024414  59 t-inv F
 -0.312500 -0.375000  0.000000    0.00024414  59 t-inv F
 -0.062500  0.312500  0.312500    0.00024414  59 t-inv F
  0.375000  0.375000  0.062500    0.00024414  59 t-inv F
  0.000000 -0.312500 -0.375000    0.00024414  59 t-inv F
  0.312500 -0.062500  0.312500    0.00024414  59 t-inv F
  0.062500  0.375000  0.375000    0.00024414  59 t-inv F
 -0.375000  0.000000 -0.312500    0.00024414  59 t-inv F
  0.000000  0.437500  0.312500    0.00024414  60 t-inv F
  0.312500  0.000000  0.437500    0.00024414  60 t-inv F
 -0.312500 -0.312500  0.125000    0.00024414  60 t-inv F
 -0.437500 -0.125000 -0.437500    0.00024414  60 t-inv F
  0.312500  0.437500 -0.000000    0.00024414  60 t-inv F
  0.125000 -0.312500 -0.312500    0.00024414  60 t-inv F
 -0.437500 -0.437500 -0.125000    0.00024414  60 t-inv F
 -0.000000  0.312500  0.437500    0.00024414  60 t-inv F
 -0.312500  0.125000 -0.312500    0.00024414  60 t-inv F
 -0.125000 -0.437500 -0.437500    0.00024414  60 t-inv F
  0.437500 -0.000000  0.312500    0.00024414  60 t-inv F
 -0.437500 -0.312500 -0.000000    0.00024414  60 t-inv F
 -0.000000 -0.437500 -0.312500    0.00024414  60 t-inv F
 -0.312500 -0.000000 -0.437500    0.00024414  60 t-inv F
  0.312500  0.312500 -0.125000    0.00024414  60 t-inv F
  0.437500  0.125000  0.437500    0.00024414  60 t-inv F
 -0.312500 -0.437500  0.000000    0.00024414  60 t-inv F
 -0.125000  0.312500  0.312500    0.00024414  60 t-inv F
  0.437500  0.437500  0.125000    0.00024414  60 t-inv F
  0.000000 -0.312500 -0.437500    0.00024414  60 t-inv F
  0.312500 -0.125000  0.312500    0.00024414  60 t-inv F
  0.125000  0.437500  0.437500    0.00024414  60 t-inv F
 -0.437500  0.000000 -0.312500    0.00024414  60 t-inv F
  0.000000  0.500000  0.312500    0.00024414  61 t-inv F
  0.312500  0.000000  0.500000    0.00024414  61 t-inv F
 -0.312500 -0.312500  0.187500    0.00024414  61 t-inv F
 -0.500000 -0.187500 -0.500000    0.00024414  61 t-inv F
  0.312500  0.500000 -0.000000    0.00024414  61 t-inv F
  0.187500 -0.312500 -0.312500    0.00024414  61 t-inv F
 -0.500000 -0.500000 -0.187500    0.00024414  61 t-inv F
 -0.000000  0.312500  0.500000    0.00024414  61 t-inv F
 -0.312500  0.187500 -0.312500    0.00024414  61 t-inv F
 -0.187500 -0.500000 -0.500000    0.00024414  61 t-inv F
  0.500000 -0.000000  0.312500    0.00024414  61 t-inv F
 -0.500000 -0.312500 -0.000000    0.00024414  61 t-inv F
 -0.000000 -0.500000 -0.312500    0.00024414  61 t-inv F
 -0.312500 -0.000000 -0.500000    0.00024414  61 t-inv F
  0.312500  0.312500 -0.187500    0.00024414  61 t-inv F
  0.500000  0.187500  0.500000    0.00024414  61 t-inv F
 -0.312500 -0.500000  0.000000    0.00024414  61 t-inv F
 -0.187500  0.312500  0.312500    0.00024414  61 t-inv F
  0.500000  0.500000  0.187500    0.00024414  61 t-inv F
  0.000000 -0.312500 -0.500000    0.00024414  61 t-inv F
  0.312500 -0.187500  0.312500    0.00024414  61 t-inv F
  0.187500  0.500000  0.500000    0.00024414  61 t-inv F
 -0.500000  0.000000 -0.312500    0.00024414  61 t-inv F
  0.000000 -0.437500  0.312500    0.00024414  62 t-inv F
  0.312500  0.000000 -0.437500    0.00024414  62 t-inv F
 -0.312500 -0.312500 -0.750000    0.00024414  62 t-inv F
  0.437500  0.750000  0.437500    0.00024414  62 t-inv F
  0.312500 -0.437500 -0.000000    0.00024414  62 t-inv F
 -0.750000 -0.312500 -0.312500    0.00024414  62 t-inv F
  0.437500  0.437500  0.750000    0.00024414  62 t-inv F
 -0.000000  0.312500 -0.437500    0.00024414  62 t-inv F
 -0.312500 -0.750000 -0.312500    0.00024414  62 t-inv F
  0.750000  0.437500  0.437500    0.00024414  62 t-inv F
 -0.437500 -0.000000  0.312500    0.00024414  62 t-inv F
  0.437500 -0.312500 -0.000000    0.00024414  62 t-inv F
 -0.000000  0.437500 -0.312500    0.00024414  62 t-inv F
 -0.312500 -0.000000  0.437500    0.00024414  62 t-inv F
  0.312500  0.312500  0.750000    0.00024414  62 t-inv F
 -0.437500 -0.750000 -0.437500    0.00024414  62 t-inv F
 -0.312500  0.437500  0.000000    0.00024414  62 t-inv F
  0.750000  0.312500  0.312500    0.00024414  62 t-inv F
 -0.437500 -0.437500 -0.750000    0.00024414  62 t-inv F
  0.000000 -0.312500  0.437500    0.00024414  62 t-inv F
  0.312500  0.750000  0.312500    0.00024414  62 t-inv F
 -0.750000 -0.437500 -0.437500    0.00024414  62 t-inv F
  0.437500  0.000000 -0.312500    0.00024414  62 t-inv F
  0.000000 -0.375000  0.312500    0.00024414  63 t-inv F
  0.312500  0.000000 -0.375000    0.00024414  63 t-inv F
 -0.312500 -0.312500 -0.687500    0.00024414  63 t-inv F
  0.375000  0.687500  0.375000    0.00024414  63 t-inv F
  0.312500 -0.375000 -0.000000    0.00024414  63 t-inv F
 -0.687500 -0.312500 -0.312500    0.00024414  63 t-inv F
  0.375000  0.375000  0.687500    0.00024414  63 t-inv F
 -0.000000  0.312500 -0.375000    0.00024414  63 t-inv F
 -0.312500 -0.687500 -0.312500    0.00024414  63 t-inv F
  0.687500  0.375000  0.375000    0.00024414  63 t-inv F
 -0.375000 -0.000000  0.312500    0.00024414  63 t-inv F
  0.375000 -0.312500 -0.000000    0.00024414  63 t-inv F
 -0.000000  0.375000 -0.312500    0.00024414  63 t-inv F
 -0.312500 -0.000000  0.375000    0.00024414  63 t-inv F
  0.312500  0.312500  0.687500    0.00024414  63 t-inv F
 -0.375000 -0.687500 -0.375000    0.00024414  63 t-inv F
 -0.312500  0.375000  0.000000    0.00024414  63 t-inv F
  0.687500  0.312500  0.312500    0.00024414  63 t-inv F
 -0.375000 -0.375000 -0.687500    0.00024414  63 t-inv F
  0.000000 -0.312500  0.375000    0.00024414  63 t-inv F
  0.312500  0.687500  0.312500    0.00024414  63 t-inv F
 -0.687500 -0.375000 -0.375000    0.00024414  63 t-inv F
  0.375000  0.000000 -0.312500    0.00024414  63 t-inv F
  0.000000 -0.312500  0.312500    0.00024414  64 t-inv F
  0.312500  0.000000 -0.312500    0.00024414  64 t-inv F
 -0.312500 -0.312500 -0.625000    0.00024414  64 t-inv F
  0.312500  0.625000  0.312500    0.00024414  64 t-inv F
  0.312500 -0.312500 -0.000000    0.00024414  64 t-inv F
 -0.625000 -0.312500 -0.312500    0.00024414  64 t-inv F
  0.312500  0.312500  0.625000    0.00024414  64 t-inv F
 -0.000000  0.312500 -0.312500    0.00024414  64 t-inv F
 -0.312500 -0.625000 -0.312500    0.00024414  64 t-inv F
  0.625000  0.312500  0.312500    0.00024414  64 t-inv F
 -0.312500 -0.000000  0.312500    0.00024414  64 t-inv F
  0.000000  0.375000  0.375000    0.00024414  65 t-inv F
  0.375000  0.000000  0.375000    0.00024414  65 t-inv F
 -0.375000 -0.375000  0.000000    0.00024414  65 t-inv F
 -0.375000  0.000000 -0.375000    0.00024414  65 t-inv F
  0.000000 -0.375000 -0.375000    0.00024414  65 t-inv F
  0.000000  0.437500  0.375000    0.00024414  66 t-inv F
  0.375000  0.000000  0.437500    0.00024414  66 t-inv F
 -0.375000 -0.375000  0.062500    0.00024414  66 t-inv F
 -0.437500 -0.062500 -0.437500    0.00024414  66 t-inv F
  0.375000  0.437500 -0.000000    0.00024414  66 t-inv F
  0.062500 -0.375000 -0.375000    0.00024414  66 t-inv F
 -0.437500 -0.437500 -0.062500    0.00024414  66 t-inv F
 -0.000000  0.375000  0.437500    0.00024414  66 t-inv F
 -0.375000  0.062500 -0.375000    0.00024414  66 t-inv F
 -0.062500 -0.437500 -0.437500    0.00024414  66 t-inv F
  0.437500 -0.000000  0.375000    0.00024414  66 t-inv F
 -0.437500 -0.375000 -0.000000    0.00024414  66 t-inv F
 -0.000000 -0.437500 -0.375000    0.00024414  66 t-inv F
 -0.375000 -0.000000 -0.437500    0.00024414  66 t-inv F
  0.375000  0.375000 -0.062500    0.00024414  66 t-inv F
  0.437500  0.062500  0.437500    0.00024414  66 t-inv F
 -0.375000 -0.437500  0.000000    0.00024414  66 t-inv F
 -0.062500  0.375000  0.375000    0.00024414  66 t-inv F
  0.437500  0.437500  0.062500    0.00024414  66 t-inv F
  0.000000 -0.375000 -0.437500    0.00024414  66 t-inv F
  0.375000 -0.062500  0.375000    0.00024414  66 t-inv F
  0.062500  0.437500  0.437500    0.00024414  66 t-inv F
 -0.437500  0.000000 -0.375000    0.00024414  66 t-inv F
  0.000000  0.500000  0.375000    0.00024414  67 t-inv F
  0.375000  0.000000  0.500000    0.00024414  67 t-inv F
 -0.375000 -0.375000  0.125000    0.00024414  67 t-inv F
 -0.500000 -0.125000 -0.500000    0.00024414  67 t-inv F
  0.375000  0.500000 -0.000000    0.00024414  67 t-inv F
  0.125000 -0.375000 -0.375000    0.00024414  67 t-inv F
 -0.500000 -0.500000 -0.125000    0.00024414  67 t-inv F
 -0.000000  0.375000  0.500000    0.00024414  67 t-inv F
 -0.375000  0.125000 -0.375000    0.00024414  67 t-inv F
 -0.125000 -0.500000 -0.500000    0.00024414  67 t-inv F
  0.500000 -0.000000  0.375000    0.00024414  67 t-inv F
 -0.500000 -0.375000 -0.000000    0.00024414  67 t-inv F
 -0.000000 -0.500000 -0.375000    0.00024414  67 t-inv F
 -0.375000 -0.000000 -0.500000    0.00024414  67 t-inv F
  0.375000  0.375000 -0.125000    0.00024414  67 t-inv F
  0.500000  0.125000  0.500000    0.00024414  67 t-inv F
 -0.375000 -0.500000  0.000000    0.00024414  67 t-inv F
 -0.125000  0.375000  0.375000    0.00024414  67 t-inv F
  0.500000  0.500000  0.125000    0.00024414  67 t-inv F
  0.000000 -0.375000 -0.500000    0.00024414  67 t-inv F
  0.375000 -0.125000  0.375000    0.00024414  67 t-inv F
  0.125000  0.500000  0.500000    0.00024414  67 t-inv F
 -0.500000  0.000000 -0.375000    0.00024414  67 t-inv F
  0.000000 -0.437500  0.375000    0.00024414  68 t-inv F
  0.375000  0.000000 -0.437500    0.00024414  68 t-inv F
 -0.375000 -0.375000 -0.812500    0.00024414  68 t-inv F
  0.437500  0.812500  0.437500    0.00024414  68 t-inv F
  0.375000 -0.437500 -0.000000    0.00024414  68 t-inv F
 -0.812500 -0.375000 -0.375000    0.00024414  68 t-inv F
  0.437500  0.437500  0.812500    0.00024414  68 t-inv F
 -0.000000  0.375000 -0.437500    0.00024414  68 t-inv F
 -0.375000 -0.812500 -0.375000    0.00024414  68 t-inv F
  0.812500  0.437500  0.437500    0.00024414  68 t-inv F
 -0.437500 -0.000000  0.375000    0.00024414  68 t-inv F
  0.437500 -0.375000 -0.000000    0.00024414  68 t-inv F
 -0.000000  0.437500 -0.375000    0.00024414  68 t-inv F
 -0.375000 -0.000000  0.437500    0.00024414  68 t-inv F
  0.375000  0.375000  0.812500    0.00024414  68 t-inv F
 -0.437500 -0.812500 -0.437500    0.00024414  68 t-inv F
 -0.375000  0.437500  0.000000    0.00024414  68 t-inv F
  0.812500  0.375000  0.375000    0.00024414  68 t-inv F
 -0.437500 -0.437500 -0.812500    0.00024414  68 t-inv F
  0.000000 -0.375000  0.437500    0.00024414  68 t-inv F
  0.375000  0.812500  0.375000    0.00024414  68 t-inv F
 -0.812500 -0.437500 -0.437500    0.00024414  68 t-inv F
  0.437500  0.000000 -0.375000    0.00024414  68 t-inv F
  0.000000 -0.375000  0.375000    0.00024414  69 t-inv F
  0.375000  0.000000 -0.375000    0.00024414  69 t-inv F
 -0.375000 -0.375000 -0.750000    0.00024414  69 t-inv F
  0.375000  0.750000  0.375000    0.00024414  69 t-inv F
  0.375000 -0.375000 -0.000000    0.00024414  69 t-inv F
 -0.750000 -0.375000 -0.375000    0.00024414  69 t-inv F
  0.375000  0.375000  0.750000    0.00024414  69 t-inv F
 -0.000000  0.375000 -0.375000    0.00024414  69 t-inv F
 -0.375000 -0.750000 -0.375000    0.00024414  69 t-inv F
  0.750000  0.375000  0.375000    0.00024414  69 t-inv F
 -0.375000 -0.000000  0.375000    0.00024414  69 t-inv F
  0.000000  0.437500  0.437500    0.00024414  70 t-inv F
  0.437500  0.000000  0.437500    0.00024414  70 t-inv F
 -0.437500 -0.437500  0.000000    0.00024414  70 t-inv F
 -0.437500  0.000000 -0.437500    0.00024414  70 t-inv F
  0.000000 -0.437500 -0.437500    0.00024414  70 t-inv F
  0.000000  0.500000  0.437500    0.00024414  71 t-inv F
  0.437500  0.000000  0.500000    0.00024414  71 t-inv F
 -0.437500 -0.437500  0.062500    0.00024414  71 t-inv F
 -0.500000 -0.062500 -0.500000    0.00024414  71 t-inv F
  0.437500  0.500000 -0.000000    0.00024414  71 t-inv F
  0.062500 -0.437500 -0.437500    0.00024414  71 t-inv F
 -0.500000 -0.500000 -0.062500    0.00024414  71 t-inv F
 -0.000000  0.437500  0.500000    0.00024414  71 t-inv F
 -0.437500  0.062500 -0.437500    0.00024414  71 t-inv F
 -0.062500 -0.500000 -0.500000    0.00024414  71 t-inv F
  0.500000 -0.000000  0.437500    0.00024414  71 t-inv F
 -0.500000 -0.437500 -0.000000    0.00024414  71 t-inv F
 -0.000000 -0.500000 -0.437500    0.00024414  71 t-inv F
 -0.437500 -0.000000 -0.500000    0.00024414  71 t-inv F
  0.437500  0.437500 -0.062500    0.00024414  71 t-inv F
  0.500000  0.062500  0.500000    0.00024414  71 t-inv F
 -0.437500 -0.500000  0.000000    0.00024414  71 t-inv F
 -0.062500  0.437500  0.437500    0.00024414  71 t-inv F
  0.500000  0.500000  0.062500    0.00024414  71 t-inv F
  0.000000 -0.437500 -0.500000    0.00024414  71 t-inv F
  0.437500 -0.062500  0.437500    0.00024414  71 t-inv F
  0.062500  0.500000  0.500000    0.00024414  71 t-inv F
 -0.500000  0.000000 -0.437500    0.00024414  71 t-inv F
  0.000000 -0.437500  0.437500    0.00024414  72 t-inv F
  0.437500  0.000000 -0.437500    0.00024414  72 t-inv F
 -0.437500 -0.437500 -0.875000    0.00024414  72 t-inv F
  0.437500  0.875000  0.437500    0.00024414  72 t-inv F
  0.437500 -0.437500 -0.000000    0.00024414  72 t-inv F
 -0.875000 -0.437500 -0.437500    0.00024414  72 t-inv F
  0.437500  0.437500  0.875000    0.00024414  72 t-inv F
 -0.000000  0.437500 -0.437500    0.00024414  72 t-inv F
 -0.437500 -0.875000 -0.437500    0.00024414  72 t-inv F
  0.875000  0.437500  0.437500    0.00024414  72 t-inv F
 -0.437500 -0.000000  0.437500    0.00024414  72 t-inv F
  0.000000  0.500000  0.500000    0.00024414  73 t-inv F
  0.500000  0.000000  0.500000    0.00024414  73 t-inv F
  0.062500  0.187500  0.125000    0.00024414  74 t-inv F
  0.125000  0.062500  0.187500    0.00024414  74 t-inv F
 -0.125000 -0.062500  0.062500    0.00024414  74 t-inv F
 -0.187500 -0.062500 -0.125000    0.00024414  74 t-inv F
 -0.062500  0.125000  0.062500    0.00024414  74 t-inv F
  0.062500  0.125000 -0.062500    0.00024414  74 t-inv F
  0.062500 -0.062500 -0.125000    0.00024414  74 t-inv F
 -0.125000 -0.062500 -0.187500    0.00024414  74 t-inv F
 -0.125000 -0.187500 -0.062500    0.00024414  74 t-inv F
  0.062500 -0.062500  0.125000    0.00024414  74 t-inv F
  0.062500 -0.125000 -0.062500    0.00024414  74 t-inv F
 -0.062500  0.062500  0.125000    0.00024414  74 t-inv F
 -0.125000  0.062500 -0.062500    0.00024414  74 t-inv F
 -0.187500 -0.125000 -0.062500    0.00024414  74 t-inv F
 -0.062500 -0.125000 -0.187500    0.00024414  74 t-inv F
  0.125000  0.062500 -0.062500    0.00024414  74 t-inv F
 -0.062500  0.062500 -0.125000    0.00024414  74 t-inv F
  0.125000 -0.062500  0.062500    0.00024414  74 t-inv F
 -0.062500 -0.125000  0.062500    0.00024414  74 t-inv F
 -0.062500 -0.187500 -0.125000    0.00024414  74 t-inv F
  0.187500  0.062500  0.125000    0.00024414  74 t-inv F
  0.125000  0.187500  0.062500    0.00024414  74 t-inv F
  0.062500  0.125000  0.187500    0.00024414  74 t-inv F
  0.062500  0.250000  0.125000    0.00024414  75 t-inv F
  0.125000  0.062500  0.250000    0.00024414  75 t-inv F
 -0.125000 -0.062500  0.125000    0.00024414  75 t-inv F
 -0.250000 -0.125000 -0.187500    0.00024414  75 t-inv F
 -0.062500  0.187500  0.062500    0.00024414  75 t-inv F
  0.062500  0.187500 -0.062500    0.00024414  75 t-inv F
  0.125000 -0.062500 -0.125000    0.00024414  75 t-inv F
 -0.187500 -0.125000 -0.250000    0.00024414  75 t-inv F
 -0.187500 -0.250000 -0.125000    0.00024414  75 t-inv F
  0.062500 -0.062500  0.187500    0.00024414  75 t-inv F
  0.125000 -0.125000 -0.062500    0.00024414  75 t-inv F
 -0.062500  0.062500  0.187500    0.00024414  75 t-inv F
 -0.125000  0.125000 -0.062500    0.00024414  75 t-inv F
 -0.250000 -0.187500 -0.125000    0.00024414  75 t-inv F
 -0.125000 -0.187500 -0.250000    0.00024414  75 t-inv F
  0.187500  0.062500 -0.062500    0.00024414  75 t-inv F
 -0.062500  0.125000 -0.125000    0.00024414  75 t-inv F
  0.187500 -0.062500  0.062500    0.00024414  75 t-inv F
 -0.062500 -0.125000  0.125000    0.00024414  75 t-inv F
 -0.125000 -0.250000 -0.187500    0.00024414  75 t-inv F
  0.250000  0.062500  0.125000    0.00024414  75 t-inv F
  0.125000  0.250000  0.062500    0.00024414  75 t-inv F
  0.062500  0.125000  0.250000    0.00024414  75 t-inv F
 -0.250000 -0.125000 -0.062500    0.00024414  75 t-inv F
 -0.062500 -0.250000 -0.125000    0.00024414  75 t-inv F
 -0.125000 -0.062500 -0.250000    0.00024414  75 t-inv F
  0.125000  0.062500 -0.125000    0.00024414  75 t-inv F
  0.250000  0.125000  0.187500    0.00024414  75 t-inv F
  0.062500 -0.187500 -0.062500    0.00024414  75 t-inv F
 -0.062500 -0.187500  0.062500    0.00024414  75 t-inv F
 -0.125000  0.062500  0.125000    0.00024414  75 t-inv F
  0.187500  0.125000  0.250000    0.00024414  75 t-inv F
  0.187500  0.250000  0.125000    0.00024414  75 t-inv F
 -0.062500  0.062500 -0.187500    0.00024414  75 t-inv F
 -0.125000  0.125000  0.062500    0.00024414  75 t-inv F
  0.062500 -0.062500 -0.187500    0.00024414  75 t-inv F
  0.125000 -0.125000  0.062500    0.00024414  75 t-inv F
  0.250000  0.187500  0.125000    0.00024414  75 t-inv F
  0.125000  0.187500  0.250000    0.00024414  75 t-inv F
 -0.187500 -0.062500  0.062500    0.00024414  75 t-inv F
  0.062500 -0.125000  0.125000    0.00024414  75 t-inv F
 -0.187500  0.062500 -0.062500    0.00024414  75 t-inv F
  0.062500  0.125000 -0.125000    0.00024414  75 t-inv F
  0.125000  0.250000  0.187500    0.00024414  75 t-inv F
 -0.250000 -0.062500 -0.125000    0.00024414  75 t-inv F
 -0.125000 -0.250000 -0.062500    0.00024414  75 t-inv F
 -0.062500 -0.125000 -0.250000    0.00024414  75 t-inv F
  0.062500  0.312500  0.125000    0.00024414  76 t-inv F
  0.125000  0.062500  0.312500    0.00024414  76 t-inv F
 -0.125000 -0.062500  0.187500    0.00024414  76 t-inv F
 -0.312500 -0.187500 -0.250000    0.00024414  76 t-inv F
 -0.062500  0.250000  0.062500    0.00024414  76 t-inv F
  0.062500  0.250000 -0.062500    0.00024414  76 t-inv F
  0.187500 -0.062500 -0.125000    0.00024414  76 t-inv F
 -0.250000 -0.187500 -0.312500    0.00024414  76 t-inv F
 -0.250000 -0.312500 -0.187500    0.00024414  76 t-inv F
  0.062500 -0.062500  0.250000    0.00024414  76 t-inv F
  0.187500 -0.125000 -0.062500    0.00024414  76 t-inv F
 -0.062500  0.062500  0.250000    0.00024414  76 t-inv F
 -0.125000  0.187500 -0.062500    0.00024414  76 t-inv F
 -0.312500 -0.250000 -0.187500    0.00024414  76 t-inv F
 -0.187500 -0.250000 -0.312500    0.00024414  76 t-inv F
  0.250000  0.062500 -0.062500    0.00024414  76 t-inv F
 -0.062500  0.187500 -0.125000    0.00024414  76 t-inv F
  0.250000 -0.062500  0.062500    0.00024414  76 t-inv F
 -0.062500 -0.125000  0.187500    0.00024414  76 t-inv F
 -0.187500 -0.312500 -0.250000    0.00024414  76 t-inv F
  0.312500  0.062500  0.125000    0.00024414  76 t-inv F
  0.125000  0.312500  0.062500    0.00024414  76 t-inv F
  0.062500  0.125000  0.312500    0.00024414  76 t-inv F
 -0.312500 -0.125000 -0.062500    0.00024414  76 t-inv F
 -0.062500 -0.312500 -0.125000    0.00024414  76 t-inv F
 -0.125000 -0.062500 -0.312500    0.00024414  76 t-inv F
  0.125000  0.062500 -0.187500    0.00024414  76 t-inv F
  0.312500  0.187500  0.250000    0.00024414  76 t-inv F
  0.062500 -0.250000 -0.062500    0.00024414  76 t-inv F
 -0.062500 -0.250000  0.062500    0.00024414  76 t-inv F
 -0.187500  0.062500  0.125000    0.00024414  76 t-inv F
  0.250000  0.187500  0.312500    0.00024414  76 t-inv F
  0.250000  0.312500  0.187500    0.00024414  76 t-inv F
 -0.062500  0.062500 -0.250000    0.00024414  76 t-inv F
 -0.187500  0.125000  0.062500    0.00024414  76 t-inv F
  0.062500 -0.062500 -0.250000    0.00024414  76 t-inv F
  0.125000 -0.187500  0.062500    0.00024414  76 t-inv F
  0.312500  0.250000  0.187500    0.00024414  76 t-inv F
  0.187500  0.250000  0.312500    0.00024414  76 t-inv F
 -0.250000 -0.062500  0.062500    0.00024414  76 t-inv F
  0.062500 -0.187500  0.125000    0.00024414  76 t-inv F
 -0.250000  0.062500 -0.062500    0.00024414  76 t-inv F
  0.062500  0.125000 -0.187500    0.00024414  76 t-inv F
  0.187500  0.312500  0.250000    0.00024414  76 t-inv F
 -0.312500 -0.062500 -0.125000    0.00024414  76 t-inv F
 -0.125000 -0.312500 -0.062500    0.00024414  76 t-inv F
 -0.062500 -0.125000 -0.312500    0.00024414  76 t-inv F
  0.062500  0.375000  0.125000    0.00024414  77 t-inv F
  0.125000  0.062500  0.375000    0.00024414  77 t-inv F
 -0.125000 -0.062500  0.250000    0.00024414  77 t-inv F
 -0.375000 -0.250000 -0.312500    0.00024414  77 t-inv F
 -0.062500  0.312500  0.062500    0.00024414  77 t-inv F
  0.062500  0.312500 -0.062500    0.00024414  77 t-inv F
  0.250000 -0.062500 -0.125000    0.00024414  77 t-inv F
 -0.312500 -0.250000 -0.375000    0.00024414  77 t-inv F
 -0.312500 -0.375000 -0.250000    0.00024414  77 t-inv F
  0.062500 -0.062500  0.312500    0.00024414  77 t-inv F
  0.250000 -0.125000 -0.062500    0.00024414  77 t-inv F
 -0.062500  0.062500  0.312500    0.00024414  77 t-inv F
 -0.125000  0.250000 -0.062500    0.00024414  77 t-inv F
 -0.375000 -0.312500 -0.250000    0.00024414  77 t-inv F
 -0.250000 -0.312500 -0.375000    0.00024414  77 t-inv F
  0.312500  0.062500 -0.062500    0.00024414  77 t-inv F
 -0.062500  0.250000 -0.125000    0.00024414  77 t-inv F
  0.312500 -0.062500  0.062500    0.00024414  77 t-inv F
 -0.062500 -0.125000  0.250000    0.00024414  77 t-inv F
 -0.250000 -0.375000 -0.312500    0.00024414  77 t-inv F
  0.375000  0.062500  0.125000    0.00024414  77 t-inv F
  0.125000  0.375000  0.062500    0.00024414  77 t-inv F
  0.062500  0.125000  0.375000    0.00024414  77 t-inv F
 -0.375000 -0.125000 -0.062500    0.00024414  77 t-inv F
 -0.062500 -0.375000 -0.125000    0.00024414  77 t-inv F
 -0.125000 -0.062500 -0.375000    0.00024414  77 t-inv F
  0.125000  0.062500 -0.250000    0.00024414  77 t-inv F
  0.375000  0.250000  0.312500    0.00024414  77 t-inv F
  0.062500 -0.312500 -0.062500    0.00024414  77 t-inv F
 -0.062500 -0.312500  0.062500    0.00024414  77 t-inv F
 -0.250000  0.062500  0.125000    0.00024414  77 t-inv F
  0.312500  0.250000  0.375000    0.00024414  77 t-inv F
  0.312500  0.375000  0.250000    0.00024414  77 t-inv F
 -0.062500  0.062500 -0.312500    0.00024414  77 t-inv F
 -0.250000  0.125000  0.062500    0.00024414  77 t-inv F
  0.062500 -0.062500 -0.312500    0.00024414  77 t-inv F
  0.125000 -0.250000  0.062500    0.00024414  77 t-inv F
  0.375000  0.312500  0.250000    0.00024414  77 t-inv F
  0.250000  0.312500  0.375000    0.00024414  77 t-inv F
 -0.312500 -0.062500  0.062500    0.00024414  77 t-inv F
  0.062500 -0.250000  0.125000    0.00024414  77 t-inv F
 -0.312500  0.062500 -0.062500    0.00024414  77 t-inv F
  0.062500  0.125000 -0.250000    0.00024414  77 t-inv F
  0.250000  0.375000  0.312500    0.00024414  77 t-inv F
 -0.375000 -0.062500 -0.125000    0.00024414  77 t-inv F
 -0.125000 -0.375000 -0.062500    0.00024414  77 t-inv F
 -0.062500 -0.125000 -0.375000    0.00024414  77 t-inv F
  0.062500  0.437500  0.125000    0.00024414  78 t-inv F
  0.125000  0.062500  0.437500    0.00024414  78 t-inv F
 -0.125000 -0.062500  0.312500    0.00024414  78 t-inv F
 -0.437500 -0.312500 -0.375000    0.00024414  78 t-inv F
 -0.062500  0.375000  0.062500    0.00024414  78 t-inv F
  0.062500  0.375000 -0.062500    0.00024414  78 t-inv F
  0.312500 -0.062500 -0.125000    0.00024414  78 t-inv F
 -0.375000 -0.312500 -0.437500    0.00024414  78 t-inv F
 -0.375000 -0.437500 -0.312500    0.00024414  78 t-inv F
  0.062500 -0.062500  0.375000    0.00024414  78 t-inv F
  0.312500 -0.125000 -0.062500    0.00024414  78 t-inv F
 -0.062500  0.062500  0.375000    0.00024414  78 t-inv F
 -0.125000  0.312500 -0.062500    0.00024414  78 t-inv F
 -0.437500 -0.375000 -0.312500    0.00024414  78 t-inv F
 -0.312500 -0.375000 -0.437500    0.00024414  78 t-inv F
  0.375000  0.062500 -0.062500    0.00024414  78 t-inv F
 -0.062500  0.312500 -0.125000    0.00024414  78 t-inv F
  0.375000 -0.062500  0.062500    0.00024414  78 t-inv F
 -0.062500 -0.125000  0.312500    0.00024414  78 t-inv F
 -0.312500 -0.437500 -0.375000    0.00024414  78 t-inv F
  0.437500  0.062500  0.125000    0.00024414  78 t-inv F
  0.125000  0.437500  0.062500    0.00024414  78 t-inv F
  0.062500  0.125000  0.437500    0.00024414  78 t-inv F
 -0.437500 -0.125000 -0.062500    0.00024414  78 t-inv F
 -0.062500 -0.437500 -0.125000    0.00024414  78 t-inv F
 -0.125000 -0.062500 -0.437500    0.00024414  78 t-inv F
  0.125000  0.062500 -0.312500    0.00024414  78 t-inv F
  0.437500  0.312500  0.375000    0.00024414  78 t-inv F
  0.062500 -0.375000 -0.062500    0.00024414  78 t-inv F
 -0.062500 -0.375000  0.062500    0.00024414  78 t-inv F
 -0.312500  0.062500  0.125000    0.00024414  78 t-inv F
  0.375000  0.312500  0.437500    0.00024414  78 t-inv F
  0.375000  0.437500  0.312500    0.00024414  78 t-inv F
 -0.062500  0.062500 -0.375000    0.00024414  78 t-inv F
 -0.312500  0.125000  0.062500    0.00024414  78 t-inv F
  0.062500 -0.062500 -0.375000    0.00024414  78 t-inv F
  0.125000 -0.312500  0.062500    0.00024414  78 t-inv F
  0.437500  0.375000  0.312500    0.00024414  78 t-inv F
  0.312500  0.375000  0.437500    0.00024414  78 t-inv F
 -0.375000 -0.062500  0.062500    0.00024414  78 t-inv F
  0.062500 -0.312500  0.125000    0.00024414  78 t-inv F
 -0.375000  0.062500 -0.062500    0.00024414  78 t-inv F
  0.062500  0.125000 -0.312500    0.00024414  78 t-inv F
  0.312500  0.437500  0.375000    0.00024414  78 t-inv F
 -0.437500 -0.062500 -0.125000    0.00024414  78 t-inv F
 -0.125000 -0.437500 -0.062500    0.00024414  78 t-inv F
 -0.062500 -0.125000 -0.437500    0.00024414  78 t-inv F
  0.062500  0.500000  0.125000    0.00024414  79 t-inv F
  0.125000  0.062500  0.500000    0.00024414  79 t-inv F
 -0.125000 -0.062500  0.375000    0.00024414  79 t-inv F
 -0.500000 -0.375000 -0.437500    0.00024414  79 t-inv F
 -0.062500  0.437500  0.062500    0.00024414  79 t-inv F
  0.062500  0.437500 -0.062500    0.00024414  79 t-inv F
  0.375000 -0.062500 -0.125000    0.00024414  79 t-inv F
 -0.437500 -0.375000 -0.500000    0.00024414  79 t-inv F
 -0.437500 -0.500000 -0.375000    0.00024414  79 t-inv F
  0.062500 -0.062500  0.437500    0.00024414  79 t-inv F
  0.375000 -0.125000 -0.062500    0.00024414  79 t-inv F
 -0.062500  0.062500  0.437500    0.00024414  79 t-inv F
 -0.125000  0.375000 -0.062500    0.00024414  79 t-inv F
 -0.500000 -0.437500 -0.375000    0.00024414  79 t-inv F
 -0.375000 -0.437500 -0.500000    0.00024414  79 t-inv F
  0.437500  0.062500 -0.062500    0.00024414  79 t-inv F
 -0.062500  0.375000 -0.125000    0.00024414  79 t-inv F
  0.437500 -0.062500  0.062500    0.00024414  79 t-inv F
 -0.062500 -0.125000  0.375000    0.00024414  79 t-inv F
 -0.375000 -0.500000 -0.437500    0.00024414  79 t-inv F
  0.500000  0.062500  0.125000    0.00024414  79 t-inv F
  0.125000  0.500000  0.062500    0.00024414  79 t-inv F
  0.062500  0.125000  0.500000    0.00024414  79 t-inv F
 -0.500000 -0.125000 -0.062500    0.00024414  79 t-inv F
 -0.062500 -0.500000 -0.125000    0.00024414  79 t-inv F
 -0.125000 -0.062500 -0.500000    0.00024414  79 t-inv F
  0.125000  0.062500 -0.375000    0.00024414  79 t-inv F
  0.500000  0.375000  0.437500    0.00024414  79 t-inv F
  0.062500 -0.437500 -0.062500    0.00024414  79 t-inv F
 -0.062500 -0.437500  0.062500    0.00024414  79 t-inv F
 -0.375000  0.062500  0.125000    0.00024414  79 t-inv F
  0.437500  0.375000  0.500000    0.00024414  79 t-inv F
  0.437500  0.500000  0.375000    0.00024414  79 t-inv F
 -0.062500  0.062500 -0.437500    0.00024414  79 t-inv F
 -0.375000  0.125000  0.062500    0.00024414  79 t-inv F
  0.062500 -0.062500 -0.437500    0.00024414  79 t-inv F
  0.125000 -0.375000  0.062500    0.00024414  79 t-inv F
  0.500000  0.437500  0.375000    0.00024414  79 t-inv F
  0.375000  0.437500  0.500000    0.00024414  79 t-inv F
 -0.437500 -0.062500  0.062500    0.00024414  79 t-inv F
  0.062500 -0.375000  0.125000    0.00024414  79 t-inv F
 -0.437500  0.062500 -0.062500    0.00024414  79 t-inv F
  0.062500  0.125000 -0.375000    0.00024414  79 t-inv F
  0.375000  0.500000  0.437500    0.00024414  79 t-inv F
 -0.500000 -0.062500 -0.125000    0.00024414  79 t-inv F
 -0.125000 -0.500000 -0.062500    0.00024414  79 t-inv F
 -0.062500 -0.125000 -0.500000    0.00024414  79 t-inv F
  0.062500 -0.437500  0.125000    0.00024414  80 t-inv F
  0.125000  0.062500 -0.437500    0.00024414  80 t-inv F
 -0.125000 -0.062500 -0.562500    0.00024414  80 t-inv F
  0.437500  0.562500  0.500000    0.00024414  80 t-inv F
 -0.062500 -0.500000  0.062500    0.00024414  80 t-inv F
  0.062500 -0.500000 -0.062500    0.00024414  80 t-inv F
 -0.562500 -0.062500 -0.125000    0.00024414  80 t-inv F
  0.500000  0.562500  0.437500    0.00024414  80 t-inv F
  0.500000  0.437500  0.562500    0.00024414  80 t-inv F
  0.062500 -0.062500 -0.500000    0.00024414  80 t-inv F
 -0.562500 -0.125000 -0.062500    0.00024414  80 t-inv F
 -0.062500  0.062500 -0.500000    0.00024414  80 t-inv F
 -0.125000 -0.562500 -0.062500    0.00024414  80 t-inv F
  0.437500  0.500000  0.562500    0.00024414  80 t-inv F
  0.562500  0.500000  0.437500    0.00024414  80 t-inv F
 -0.500000  0.062500 -0.062500    0.00024414  80 t-inv F
 -0.062500 -0.562500 -0.125000    0.00024414  80 t-inv F
 -0.500000 -0.062500  0.062500    0.00024414  80 t-inv F
 -0.062500 -0.125000 -0.562500    0.00024414  80 t-inv F
  0.562500  0.437500  0.500000    0.00024414  80 t-inv F
 -0.437500  0.062500  0.125000    0.00024414  80 t-inv F
  0.125000 -0.437500  0.062500    0.00024414  80 t-inv F
  0.062500  0.125000 -0.437500    0.00024414  80 t-inv F
  0.062500  0.250000  0.187500    0.00024414  81 t-inv F
  0.187500  0.062500  0.250000    0.00024414  81 t-inv F
 -0.187500 -0.125000  0.062500    0.00024414  81 t-inv F
 -0.250000 -0.062500 -0.187500    0.00024414  81 t-inv F
 -0.062500  0.187500  0.125000    0.00024414  81 t-inv F
  0.125000  0.187500 -0.062500    0.00024414  81 t-inv F
  0.062500 -0.125000 -0.187500    0.00024414  81 t-inv F
 -0.187500 -0.062500 -0.250000    0.00024414  81 t-inv F
 -0.187500 -0.250000 -0.062500    0.00024414  81 t-inv F
  0.125000 -0.062500  0.187500    0.00024414  81 t-inv F
  0.062500 -0.187500 -0.125000    0.00024414  81 t-inv F
 -0.062500  0.125000  0.187500    0.00024414  81 t-inv F
 -0.187500  0.062500 -0.125000    0.00024414  81 t-inv F
 -0.250000 -0.187500 -0.062500    0.00024414  81 t-inv F
 -0.062500 -0.187500 -0.250000    0.00024414  81 t-inv F
  0.187500  0.125000 -0.062500    0.00024414  81 t-inv F
 -0.125000  0.062500 -0.187500    0.00024414  81 t-inv F
  0.187500 -0.062500  0.125000    0.00024414  81 t-inv F
 -0.125000 -0.187500  0.062500    0.00024414  81 t-inv F
 -0.062500 -0.250000 -0.187500    0.00024414  81 t-inv F
  0.250000  0.062500  0.187500    0.00024414  81 t-inv F
  0.187500  0.250000  0.062500    0.00024414  81 t-inv F
  0.062500  0.187500  0.250000    0.00024414  81 t-inv F
  0.062500  0.312500  0.187500    0.00024414  82 t-inv F
  0.187500  0.062500  0.312500    0.00024414  82 t-inv F
 -0.187500 -0.125000  0.125000    0.00024414  82 t-inv F
 -0.312500 -0.125000 -0.250000    0.00024414  82 t-inv F
 -0.062500  0.250000  0.125000    0.00024414  82 t-inv F
  0.125000  0.250000 -0.062500    0.00024414  82 t-inv F
  0.125000 -0.125000 -0.187500    0.00024414  82 t-inv F
 -0.250000 -0.125000 -0.312500    0.00024414  82 t-inv F
 -0.250000 -0.312500 -0.125000    0.00024414  82 t-inv F
  0.125000 -0.062500  0.250000    0.00024414  82 t-inv F
  0.125000 -0.187500 -0.125000    0.00024414  82 t-inv F
 -0.062500  0.125000  0.250000    0.00024414  82 t-inv F
 -0.187500  0.125000 -0.125000    0.00024414  82 t-inv F
 -0.312500 -0.250000 -0.125000    0.00024414  82 t-inv F
 -0.125000 -0.250000 -0.312500    0.00024414  82 t-inv F
  0.250000  0.125000 -0.062500    0.00024414  82 t-inv F
 -0.125000  0.125000 -0.187500    0.00024414  82 t-inv F
  0.250000 -0.062500  0.125000    0.00024414  82 t-inv F
 -0.125000 -0.187500  0.125000    0.00024414  82 t-inv F
 -0.125000 -0.312500 -0.250000    0.00024414  82 t-inv F
  0.312500  0.062500  0.187500    0.00024414  82 t-inv F
  0.187500  0.312500  0.062500    0.00024414  82 t-inv F
  0.062500  0.187500  0.312500    0.00024414  82 t-inv F
 -0.312500 -0.187500 -0.062500    0.00024414  82 t-inv F
 -0.062500 -0.312500 -0.187500    0.00024414  82 t-inv F
 -0.187500 -0.062500 -0.312500    0.00024414  82 t-inv F
  0.187500  0.125000 -0.125000    0.00024414  82 t-inv F
  0.312500  0.125000  0.250000    0.00024414  82 t-inv F
  0.062500 -0.250000 -0.125000    0.00024414  82 t-inv F
 -0.125000 -0.250000  0.062500    0.00024414  82 t-inv F
 -0.125000  0.125000  0.187500    0.00024414  82 t-inv F
  0.250000  0.125000  0.312500    0.00024414  82 t-inv F
  0.250000  0.312500  0.125000    0.00024414  82 t-inv F
 -0.125000  0.062500 -0.250000    0.00024414  82 t-inv F
 -0.125000  0.187500  0.125000    0.00024414  82 t-inv F
  0.062500 -0.125000 -0.250000    0.00024414  82 t-inv F
  0.187500 -0.125000  0.125000    0.00024414  82 t-inv F
  0.312500  0.250000  0.125000    0.00024414  82 t-inv F
  0.125000  0.250000  0.312500    0.00024414  82 t-inv F
 -0.250000 -0.125000  0.062500    0.00024414  82 t-inv F
  0.125000 -0.125000  0.187500    0.00024414  82 t-inv F
 -0.250000  0.062500 -0.125000    0.00024414  82 t-inv F
  0.125000  0.187500 -0.125000    0.00024414  82 t-inv F
  0.125000  0.312500  0.250000    0.00024414  82 t-inv F
 -0.312500 -0.062500 -0.187500    0.00024414  82 t-inv F
 -0.187500 -0.312500 -0.062500    0.00024414  82 t-inv F
 -0.062500 -0.187500 -0.312500    0.00024414  82 t-inv F
  0.062500  0.375000  0.187500    0.00024414  83 t-inv F
  0.187500  0.062500  0.375000    0.00024414  83 t-inv F
 -0.187500 -0.125000  0.187500    0.00024414  83 t-inv F
 -0.375000 -0.187500 -0.312500    0.00024414  83 t-inv F
 -0.062500  0.312500  0.125000    0.00024414  83 t-inv F
  0.125000  0.312500 -0.062500    0.00024414  83 t-inv F
  0.187500 -0.125000 -0.187500    0.00024414  83 t-inv F
 -0.312500 -0.187500 -0.375000    0.00024414  83 t-inv F
 -0.312500 -0.375000 -0.187500    0.00024414  83 t-inv F
  0.125000 -0.062500  0.312500    0.00024414  83 t-inv F
  0.187500 -0.187500 -0.125000    0.00024414  83 t-inv F
 -0.062500  0.125000  0.312500    0.00024414  83 t-inv F
 -0.187500  0.187500 -0.125000    0.00024414  83 t-inv F
 -0.375000 -0.312500 -0.187500    0.00024414  83 t-inv F
 -0.187500 -0.312500 -0.375000    0.00024414  83 t-inv F
  0.312500  0.125000 -0.062500    0.00024414  83 t-inv F
 -0.125000  0.187500 -0.187500    0.00024414  83 t-inv F
  0.312500 -0.062500  0.125000    0.00024414  83 t-inv F
 -0.125000 -0.187500  0.187500    0.00024414  83 t-inv F
 -0.187500 -0.375000 -0.312500    0.00024414  83 t-inv F
  0.375000  0.062500  0.187500    0.00024414  83 t-inv F
  0.187500  0.375000  0.062500    0.00024414  83 t-inv F
  0.062500  0.187500  0.375000    0.00024414  83 t-inv F
 -0.375000 -0.187500 -0.062500    0.00024414  83 t-inv F
 -0.062500 -0.375000 -0.187500    0.00024414  83 t-inv F
 -0.187500 -0.062500 -0.375000    0.00024414  83 t-inv F
  0.187500  0.125000 -0.187500    0.00024414  83 t-inv F
  0.375000  0.187500  0.312500    0.00024414  83 t-inv F
  0.062500 -0.312500 -0.125000    0.00024414  83 t-inv F
 -0.125000 -0.312500  0.062500    0.00024414  83 t-inv F
 -0.187500  0.125000  0.187500    0.00024414  83 t-inv F
  0.312500  0.187500  0.375000    0.00024414  83 t-inv F
  0.312500  0.375000  0.187500    0.00024414  83 t-inv F
 -0.125000  0.062500 -0.312500    0.00024414  83 t-inv F
 -0.187500  0.187500  0.125000    0.00024414  83 t-inv F
  0.062500 -0.125000 -0.312500    0.00024414  83 t-inv F
  0.187500 -0.187500  0.125000    0.00024414  83 t-inv F
  0.375000  0.312500  0.187500    0.00024414  83 t-inv F
  0.187500  0.312500  0.375000    0.00024414  83 t-inv F
 -0.312500 -0.125000  0.062500    0.00024414  83 t-inv F
  0.125000 -0.187500  0.187500    0.00024414  83 t-inv F
 -0.312500  0.062500 -0.125000    0.00024414  83 t-inv F
  0.125000  0.187500 -0.187500    0.00024414  83 t-inv F
  0.187500  0.375000  0.312500    0.00024414  83 t-inv F
 -0.375000 -0.062500 -0.187500    0.00024414  83 t-inv F
 -0.187500 -0.375000 -0.062500    0.00024414  83 t-inv F
 -0.062500 -0.187500 -0.375000    0.00024414  83 t-inv F
  0.062500  0.437500  0.187500    0.00024414  84 t-inv F
  0.187500  0.062500  0.437500    0.00024414  84 t-inv F
 -0.187500 -0.125000  0.250000    0.00024414  84 t-inv F
 -0.437500 -0.250000 -0.375000    0.00024414  84 t-inv F
 -0.062500  0.375000  0.125000    0.00024414  84 t-inv F
  0.125000  0.375000 -0.062500    0.00024414  84 t-inv F
  0.250000 -0.125000 -0.187500    0.00024414  84 t-inv F
 -0.375000 -0.250000 -0.437500    0.00024414  84 t-inv F
 -0.375000 -0.437500 -0.250000    0.00024414  84 t-inv F
  0.125000 -0.062500  0.375000    0.00024414  84 t-inv F
  0.250000 -0.187500 -0.125000    0.00024414  84 t-inv F
 -0.062500  0.125000  0.375000    0.00024414  84 t-inv F
 -0.187500  0.250000 -0.125000    0.00024414  84 t-inv F
 -0.437500 -0.375000 -0.250000    0.00024414  84 t-inv F
 -0.250000 -0.375000 -0.437500    0.00024414  84 t-inv F
  0.375000  0.125000 -0.062500    0.00024414  84 t-inv F
 -0.125000  0.250000 -0.187500    0.00024414  84 t-inv F
  0.375000 -0.062500  0.125000    0.00024414  84 t-inv F
 -0.125000 -0.187500  0.250000    0.00024414  84 t-inv F
 -0.250000 -0.437500 -0.375000    0.00024414  84 t-inv F
  0.437500  0.062500  0.187500    0.00024414  84 t-inv F
  0.187500  0.437500  0.062500    0.00024414  84 t-inv F
  0.062500  0.187500  0.437500    0.00024414  84 t-inv F
 -0.437500 -0.187500 -0.062500    0.00024414  84 t-inv F
 -0.062500 -0.437500 -0.187500    0.00024414  84 t-inv F
 -0.187500 -0.062500 -0.437500    0.00024414  84 t-inv F
  0.187500  0.125000 -0.250000    0.00024414  84 t-inv F
  0.437500  0.250000  0.375000    0.00024414  84 t-inv F
  0.062500 -0.375000 -0.125000    0.00024414  84 t-inv F
 -0.125000 -0.375000  0.062500    0.00024414  84 t-inv F
 -0.250000  0.125000  0.187500    0.00024414  84 t-inv F
  0.375000  0.250000  0.437500    0.00024414  84 t-inv F
  0.375000  0.437500  0.250000    0.00024414  84 t-inv F
 -0.125000  0.062500 -0.375000    0.00024414  84 t-inv F
 -0.250000  0.187500  0.125000    0.00024414  84 t-inv F
  0.062500 -0.125000 -0.375000    0.00024414  84 t-inv F
  0.187500 -0.250000  0.125000    0.00024414  84 t-inv F
  0.437500  0.375000  0.250000    0.00024414  84 t-inv F
  0.250000  0.375000  0.437500    0.00024414  84 t-inv F
 -0.375000 -0.125000  0.062500    0.00024414  84 t-inv F
  0.125000 -0.250000  0.187500    0.00024414  84 t-inv F
 -0.375000  0.062500 -0.125000    0.00024414  84 t-inv F
  0.125000  0.187500 -0.250000    0.00024414  84 t-inv F
  0.250000  0.437500  0.375000    0.00024414  84 t-inv F
 -0.437500 -0.062500 -0.187500    0.00024414  84 t-inv F
 -0.187500 -0.437500 -0.062500    0.00024414  84 t-inv F
 -0.062500 -0.187500 -0.437500    0.00024414  84 t-inv F
  0.062500  0.500000  0.187500    0.00024414  85 t-inv F
  0.187500  0.062500  0.500000    0.00024414  85 t-inv F
 -0.187500 -0.125000  0.312500    0.00024414  85 t-inv F
 -0.500000 -0.312500 -0.437500    0.00024414  85 t-inv F
 -0.062500  0.437500  0.125000    0.00024414  85 t-inv F
  0.125000  0.437500 -0.062500    0.00024414  85 t-inv F
  0.312500 -0.125000 -0.187500    0.00024414  85 t-inv F
 -0.437500 -0.312500 -0.500000    0.00024414  85 t-inv F
 -0.437500 -0.500000 -0.312500    0.00024414  85 t-inv F
  0.125000 -0.062500  0.437500    0.00024414  85 t-inv F
  0.312500 -0.187500 -0.125000    0.00024414  85 t-inv F
 -0.062500  0.125000  0.437500    0.00024414  85 t-inv F
 -0.187500  0.312500 -0.125000    0.00024414  85 t-inv F
 -0.500000 -0.437500 -0.312500    0.00024414  85 t-inv F
 -0.312500 -0.437500 -0.500000    0.00024414  85 t-inv F
  0.437500  0.125000 -0.062500    0.00024414  85 t-inv F
 -0.125000  0.312500 -0.187500    0.00024414  85 t-inv F
  0.437500 -0.062500  0.125000    0.00024414  85 t-inv F
 -0.125000 -0.187500  0.312500    0.00024414  85 t-inv F
 -0.312500 -0.500000 -0.437500    0.00024414  85 t-inv F
  0.500000  0.062500  0.187500    0.00024414  85 t-inv F
  0.187500  0.500000  0.062500    0.00024414  85 t-inv F
  0.062500  0.187500  0.500000    0.00024414  85 t-inv F
 -0.500000 -0.187500 -0.062500    0.00024414  85 t-inv F
 -0.062500 -0.500000 -0.187500    0.00024414  85 t-inv F
 -0.187500 -0.062500 -0.500000    0.00024414  85 t-inv F
  0.187500  0.125000 -0.312500    0.00024414  85 t-inv F
  0.500000  0.312500  0.437500    0.00024414  85 t-inv F
  0.062500 -0.437500 -0.125000    0.00024414  85 t-inv F
 -0.125000 -0.437500  0.062500    0.00024414  85 t-inv F
 -0.312500  0.125000  0.187500    0.00024414  85 t-inv F
  0.437500  0.312500  0.500000    0.00024414  85 t-inv F
  0.437500  0.500000  0.312500    0.00024414  85 t-inv F
 -0.125000  0.062500 -0.437500    0.00024414  85 t-inv F
 -0.312500  0.187500  0.125000    0.00024414  85 t-inv F
  0.062500 -0.125000 -0.437500    0.00024414  85 t-inv F
  0.187500 -0.312500  0.125000    0.00024414  85 t-inv F
  0.500000  0.437500  0.312500    0.00024414  85 t-inv F
  0.312500  0.437500  0.500000    0.00024414  85 t-inv F
 -0.437500 -0.125000  0.062500    0.00024414  85 t-inv F
  0.125000 -0.312500  0.187500    0.00024414  85 t-inv F
 -0.437500  0.062500 -0.125000    0.00024414  85 t-inv F
  0.125000  0.187500 -0.312500    0.00024414  85 t-inv F
  0.312500  0.500000  0.437500    0.00024414  85 t-inv F
 -0.500000 -0.062500 -0.187500    0.00024414  85 t-inv F
 -0.187500 -0.500000 -0.062500    0.00024414  85 t-inv F
 -0.062500 -0.187500 -0.500000    0.00024414  85 t-inv F
  0.062500 -0.437500  0.187500    0.00024414  86 t-inv F
  0.187500  0.062500 -0.437500    0.00024414  86 t-inv F
 -0.187500 -0.125000 -0.625000    0.00024414  86 t-inv F
  0.437500  0.625000  0.500000    0.00024414  86 t-inv F
 -0.062500 -0.500000  0.125000    0.00024414  86 t-inv F
  0.125000 -0.500000 -0.062500    0.00024414  86 t-inv F
 -0.625000 -0.125000 -0.187500    0.00024414  86 t-inv F
  0.500000  0.625000  0.437500    0.00024414  86 t-inv F
  0.500000  0.437500  0.625000    0.00024414  86 t-inv F
  0.125000 -0.062500 -0.500000    0.00024414  86 t-inv F
 -0.625000 -0.187500 -0.125000    0.00024414  86 t-inv F
 -0.062500  0.125000 -0.500000    0.00024414  86 t-inv F
 -0.187500 -0.625000 -0.125000    0.00024414  86 t-inv F
  0.437500  0.500000  0.625000    0.00024414  86 t-inv F
  0.625000  0.500000  0.437500    0.00024414  86 t-inv F
 -0.500000  0.125000 -0.062500    0.00024414  86 t-inv F
 -0.125000 -0.625000 -0.187500    0.00024414  86 t-inv F
 -0.500000 -0.062500  0.125000    0.00024414  86 t-inv F
 -0.125000 -0.187500 -0.625000    0.00024414  86 t-inv F
  0.625000  0.437500  0.500000    0.00024414  86 t-inv F
 -0.437500  0.062500  0.187500    0.00024414  86 t-inv F
  0.187500 -0.437500  0.062500    0.00024414  86 t-inv F
  0.062500  0.187500 -0.437500    0.00024414  86 t-inv F
  0.437500 -0.187500 -0.062500    0.00024414  86 t-inv F
 -0.062500  0.437500 -0.187500    0.00024414  86 t-inv F
 -0.187500 -0.062500  0.437500    0.00024414  86 t-inv F
  0.187500  0.125000  0.625000    0.00024414  86 t-inv F
 -0.437500 -0.625000 -0.500000    0.00024414  86 t-inv F
  0.062500  0.500000 -0.125000    0.00024414  86 t-inv F
 -0.125000  0.500000  0.062500    0.00024414  86 t-inv F
  0.625000  0.125000  0.187500    0.00024414  86 t-inv F
 -0.500000 -0.625000 -0.437500    0.00024414  86 t-inv F
 -0.500000 -0.437500 -0.625000    0.00024414  86 t-inv F
 -0.125000  0.062500  0.500000    0.00024414  86 t-inv F
  0.625000  0.187500  0.125000    0.00024414  86 t-inv F
  0.062500 -0.125000  0.500000    0.00024414  86 t-inv F
  0.187500  0.625000  0.125000    0.00024414  86 t-inv F
 -0.437500 -0.500000 -0.625000    0.00024414  86 t-inv F
 -0.625000 -0.500000 -0.437500    0.00024414  86 t-inv F
  0.500000 -0.125000  0.062500    0.00024414  86 t-inv F
  0.125000  0.625000  0.187500    0.00024414  86 t-inv F
  0.500000  0.062500 -0.125000    0.00024414  86 t-inv F
  0.125000  0.187500  0.625000    0.00024414  86 t-inv F
 -0.625000 -0.437500 -0.500000    0.00024414  86 t-inv F
  0.437500 -0.062500 -0.187500    0.00024414  86 t-inv F
 -0.187500  0.437500 -0.062500    0.00024414  86 t-inv F
 -0.062500 -0.187500  0.437500    0.00024414  86 t-inv F
  0.062500 -0.375000  0.187500    0.00024414  87 t-inv F
  0.187500  0.062500 -0.375000    0.00024414  87 t-inv F
 -0.187500 -0.125000 -0.562500    0.00024414  87 t-inv F
  0.375000  0.562500  0.437500    0.00024414  87 t-inv F
 -0.062500 -0.437500  0.125000    0.00024414  87 t-inv F
  0.125000 -0.437500 -0.062500    0.00024414  87 t-inv F
 -0.562500 -0.125000 -0.187500    0.00024414  87 t-inv F
  0.437500  0.562500  0.375000    0.00024414  87 t-inv F
  0.437500  0.375000  0.562500    0.00024414  87 t-inv F
  0.125000 -0.062500 -0.437500    0.00024414  87 t-inv F
 -0.562500 -0.187500 -0.125000    0.00024414  87 t-inv F
 -0.062500  0.125000 -0.437500    0.00024414  87 t-inv F
 -0.187500 -0.562500 -0.125000    0.00024414  87 t-inv F
  0.375000  0.437500  0.562500    0.00024414  87 t-inv F
  0.562500  0.437500  0.375000    0.00024414  87 t-inv F
 -0.437500  0.125000 -0.062500    0.00024414  87 t-inv F
 -0.125000 -0.562500 -0.187500    0.00024414  87 t-inv F
 -0.437500 -0.062500  0.125000    0.00024414  87 t-inv F
 -0.125000 -0.187500 -0.562500    0.00024414  87 t-inv F
  0.562500  0.375000  0.437500    0.00024414  87 t-inv F
 -0.375000  0.062500  0.187500    0.00024414  87 t-inv F
  0.187500 -0.375000  0.062500    0.00024414  87 t-inv F
  0.062500  0.187500 -0.375000    0.00024414  87 t-inv F
  0.375000 -0.187500 -0.062500    0.00024414  87 t-inv F
 -0.062500  0.375000 -0.187500    0.00024414  87 t-inv F
 -0.187500 -0.062500  0.375000    0.00024414  87 t-inv F
  0.187500  0.125000  0.562500    0.00024414  87 t-inv F
 -0.375000 -0.562500 -0.437500    0.00024414  87 t-inv F
  0.062500  0.437500 -0.125000    0.00024414  87 t-inv F
 -0.125000  0.437500  0.062500    0.00024414  87 t-inv F
  0.562500  0.125000  0.187500    0.00024414  87 t-inv F
 -0.437500 -0.562500 -0.375000    0.00024414  87 t-inv F
 -0.437500 -0.375000 -0.562500    0.00024414  87 t-inv F
 -0.125000  0.062500  0.437500    0.00024414  87 t-inv F
  0.562500  0.187500  0.125000    0.00024414  87 t-inv F
  0.062500 -0.125000  0.437500    0.00024414  87 t-inv F
  0.187500  0.562500  0.125000    0.00024414  87 t-inv F
 -0.375000 -0.437500 -0.562500    0.00024414  87 t-inv F
 -0.562500 -0.437500 -0.375000    0.00024414  87 t-inv F
  0.437500 -0.125000  0.062500    0.00024414  87 t-inv F
  0.125000  0.562500  0.187500    0.00024414  87 t-inv F
  0.437500  0.062500 -0.125000    0.00024414  87 t-inv F
  0.125000  0.187500  0.562500    0.00024414  87 t-inv F
 -0.562500 -0.375000 -0.437500    0.00024414  87 t-inv F
  0.375000 -0.062500 -0.187500    0.00024414  87 t-inv F
 -0.187500  0.375000 -0.062500    0.00024414  87 t-inv F
 -0.062500 -0.187500  0.375000    0.00024414  87 t-inv F
  0.062500 -0.312500  0.187500    0.00024414  88 t-inv F
  0.187500  0.062500 -0.312500    0.00024414  88 t-inv F
 -0.187500 -0.125000 -0.500000    0.00024414  88 t-inv F
  0.312500  0.500000  0.375000    0.00024414  88 t-inv F
 -0.062500 -0.375000  0.125000    0.00024414  88 t-inv F
  0.125000 -0.375000 -0.062500    0.00024414  88 t-inv F
 -0.500000 -0.125000 -0.187500    0.00024414  88 t-inv F
  0.375000  0.500000  0.312500    0.00024414  88 t-inv F
  0.375000  0.312500  0.500000    0.00024414  88 t-inv F
  0.125000 -0.062500 -0.375000    0.00024414  88 t-inv F
 -0.500000 -0.187500 -0.125000    0.00024414  88 t-inv F
 -0.062500  0.125000 -0.375000    0.00024414  88 t-inv F
 -0.187500 -0.500000 -0.125000    0.00024414  88 t-inv F
  0.312500  0.375000  0.500000    0.00024414  88 t-inv F
  0.500000  0.375000  0.312500    0.00024414  88 t-inv F
 -0.375000  0.125000 -0.062500    0.00024414  88 t-inv F
 -0.125000 -0.500000 -0.187500    0.00024414  88 t-inv F
 -0.375000 -0.062500  0.125000    0.00024414  88 t-inv F
 -0.125000 -0.187500 -0.500000    0.00024414  88 t-inv F
  0.500000  0.312500  0.375000    0.00024414  88 t-inv F
 -0.312500  0.062500  0.187500    0.00024414  88 t-inv F
  0.187500 -0.312500  0.062500    0.00024414  88 t-inv F
  0.062500  0.187500 -0.312500    0.00024414  88 t-inv F
  0.312500 -0.187500 -0.062500    0.00024414  88 t-inv F
 -0.062500  0.312500 -0.187500    0.00024414  88 t-inv F
 -0.187500 -0.062500  0.312500    0.00024414  88 t-inv F
  0.187500  0.125000  0.500000    0.00024414  88 t-inv F
 -0.312500 -0.500000 -0.375000    0.00024414  88 t-inv F
  0.062500  0.375000 -0.125000    0.00024414  88 t-inv F
 -0.125000  0.375000  0.062500    0.00024414  88 t-inv F
  0.500000  0.125000  0.187500    0.00024414  88 t-inv F
 -0.375000 -0.500000 -0.312500    0.00024414  88 t-inv F
 -0.375000 -0.312500 -0.500000    0.00024414  88 t-inv F
 -0.125000  0.062500  0.375000    0.00024414  88 t-inv F
  0.500000  0.187500  0.125000    0.00024414  88 t-inv F
  0.062500 -0.125000  0.375000    0.00024414  88 t-inv F
  0.187500  0.500000  0.125000    0.00024414  88 t-inv F
 -0.312500 -0.375000 -0.500000    0.00024414  88 t-inv F
 -0.500000 -0.375000 -0.312500    0.00024414  88 t-inv F
  0.375000 -0.125000  0.062500    0.00024414  88 t-inv F
  0.125000  0.500000  0.187500    0.00024414  88 t-inv F
  0.375000  0.062500 -0.125000    0.00024414  88 t-inv F
  0.125000  0.187500  0.500000    0.00024414  88 t-inv F
 -0.500000 -0.312500 -0.375000    0.00024414  88 t-inv F
  0.312500 -0.062500 -0.187500    0.00024414  88 t-inv F
 -0.187500  0.312500 -0.062500    0.00024414  88 t-inv F
 -0.062500 -0.187500  0.312500    0.00024414  88 t-inv F
  0.062500 -0.250000  0.187500    0.00024414  89 t-inv F
  0.187500  0.062500 -0.250000    0.00024414  89 t-inv F
 -0.187500 -0.125000 -0.437500    0.00024414  89 t-inv F
  0.250000  0.437500  0.312500    0.00024414  89 t-inv F
 -0.062500 -0.312500  0.125000    0.00024414  89 t-inv F
  0.125000 -0.312500 -0.062500    0.00024414  89 t-inv F
 -0.437500 -0.125000 -0.187500    0.00024414  89 t-inv F
  0.312500  0.437500  0.250000    0.00024414  89 t-inv F
  0.312500  0.250000  0.437500    0.00024414  89 t-inv F
  0.125000 -0.062500 -0.312500    0.00024414  89 t-inv F
 -0.437500 -0.187500 -0.125000    0.00024414  89 t-inv F
 -0.062500  0.125000 -0.312500    0.00024414  89 t-inv F
 -0.187500 -0.437500 -0.125000    0.00024414  89 t-inv F
  0.250000  0.312500  0.437500    0.00024414  89 t-inv F
  0.437500  0.312500  0.250000    0.00024414  89 t-inv F
 -0.312500  0.125000 -0.062500    0.00024414  89 t-inv F
 -0.125000 -0.437500 -0.187500    0.00024414  89 t-inv F
 -0.312500 -0.062500  0.125000    0.00024414  89 t-inv F
 -0.125000 -0.187500 -0.437500    0.00024414  89 t-inv F
  0.437500  0.250000  0.312500    0.00024414  89 t-inv F
 -0.250000  0.062500  0.187500    0.00024414  89 t-inv F
  0.187500 -0.250000  0.062500    0.00024414  89 t-inv F
  0.062500  0.187500 -0.250000    0.00024414  89 t-inv F
  0.250000 -0.187500 -0.062500    0.00024414  89 t-inv F
 -0.062500  0.250000 -0.187500    0.00024414  89 t-inv F
 -0.187500 -0.062500  0.250000    0.00024414  89 t-inv F
  0.187500  0.125000  0.437500    0.00024414  89 t-inv F
 -0.250000 -0.437500 -0.312500    0.00024414  89 t-inv F
  0.062500  0.312500 -0.125000    0.00024414  89 t-inv F
 -0.125000  0.312500  0.062500    0.00024414  89 t-inv F
  0.437500  0.125000  0.187500    0.00024414  89 t-inv F
 -0.312500 -0.437500 -0.250000    0.00024414  89 t-inv F
 -0.312500 -0.250000 -0.437500    0.00024414  89 t-inv F
 -0.125000  0.062500  0.312500    0.00024414  89 t-inv F
  0.437500  0.187500  0.125000    0.00024414  89 t-inv F
  0.062500 -0.125000  0.312500    0.00024414  89 t-inv F
  0.187500  0.437500  0.125000    0.00024414  89 t-inv F
 -0.250000 -0.312500 -0.437500    0.00024414  89 t-inv F
 -0.437500 -0.312500 -0.250000    0.00024414  89 t-inv F
  0.312500 -0.125000  0.062500    0.00024414  89 t-inv F
  0.125000  0.437500  0.187500    0.00024414  89 t-inv F
  0.312500  0.062500 -0.125000    0.00024414  89 t-inv F
  0.125000  0.187500  0.437500    0.00024414  89 t-inv F
 -0.437500 -0.250000 -0.312500    0.00024414  89 t-inv F
  0.250000 -0.062500 -0.187500    0.00024414  89 t-inv F
 -0.187500  0.250000 -0.062500    0.00024414  89 t-inv F
 -0.062500 -0.187500  0.250000    0.00024414  89 t-inv F
  0.062500 -0.187500  0.187500    0.00024414  90 t-inv F
  0.187500  0.062500 -0.187500    0.00024414  90 t-inv F
 -0.187500 -0.125000 -0.375000    0.00024414  90 t-inv F
  0.187500  0.375000  0.250000    0.00024414  90 t-inv F
 -0.062500 -0.250000  0.125000    0.00024414  90 t-inv F
  0.125000 -0.250000 -0.062500    0.00024414  90 t-inv F
 -0.375000 -0.125000 -0.187500    0.00024414  90 t-inv F
  0.250000  0.375000  0.187500    0.00024414  90 t-inv F
  0.250000  0.187500  0.375000    0.00024414  90 t-inv F
  0.125000 -0.062500 -0.250000    0.00024414  90 t-inv F
 -0.375000 -0.187500 -0.125000    0.00024414  90 t-inv F
 -0.062500  0.125000 -0.250000    0.00024414  90 t-inv F
 -0.187500 -0.375000 -0.125000    0.00024414  90 t-inv F
  0.187500  0.250000  0.375000    0.00024414  90 t-inv F
  0.375000  0.250000  0.187500    0.00024414  90 t-inv F
 -0.250000  0.125000 -0.062500    0.00024414  90 t-inv F
 -0.125000 -0.375000 -0.187500    0.00024414  90 t-inv F
 -0.250000 -0.062500  0.125000    0.00024414  90 t-inv F
 -0.125000 -0.187500 -0.375000    0.00024414  90 t-inv F
  0.375000  0.187500  0.250000    0.00024414  90 t-inv F
 -0.187500  0.062500  0.187500    0.00024414  90 t-inv F
  0.187500 -0.187500  0.062500    0.00024414  90 t-inv F
  0.062500  0.187500 -0.187500    0.00024414  90 t-inv F
  0.187500 -0.187500 -0.062500    0.00024414  90 t-inv F
 -0.062500  0.187500 -0.187500    0.00024414  90 t-inv F
 -0.187500 -0.062500  0.187500    0.00024414  90 t-inv F
  0.187500  0.125000  0.375000    0.00024414  90 t-inv F
 -0.187500 -0.375000 -0.250000    0.00024414  90 t-inv F
  0.062500  0.250000 -0.125000    0.00024414  90 t-inv F
 -0.125000  0.250000  0.062500    0.00024414  90 t-inv F
  0.375000  0.125000  0.187500    0.00024414  90 t-inv F
 -0.250000 -0.375000 -0.187500    0.00024414  90 t-inv F
 -0.250000 -0.187500 -0.375000    0.00024414  90 t-inv F
 -0.125000  0.062500  0.250000    0.00024414  90 t-inv F
  0.375000  0.187500  0.125000    0.00024414  90 t-inv F
  0.062500 -0.125000  0.250000    0.00024414  90 t-inv F
  0.187500  0.375000  0.125000    0.00024414  90 t-inv F
 -0.187500 -0.250000 -0.375000    0.00024414  90 t-inv F
 -0.375000 -0.250000 -0.187500    0.00024414  90 t-inv F
  0.250000 -0.125000  0.062500    0.00024414  90 t-inv F
  0.125000  0.375000  0.187500    0.00024414  90 t-inv F
  0.250000  0.062500 -0.125000    0.00024414  90 t-inv F
  0.125000  0.187500  0.375000    0.00024414  90 t-inv F
 -0.375000 -0.187500 -0.250000    0.00024414  90 t-inv F
  0.187500 -0.062500 -0.187500    0.00024414  90 t-inv F
 -0.187500  0.187500 -0.062500    0.00024414  90 t-inv F
 -0.062500 -0.187500  0.187500    0.00024414  90 t-inv F
  0.062500 -0.125000  0.187500    0.00024414  91 t-inv F
  0.187500  0.062500 -0.125000    0.00024414  91 t-inv F
 -0.187500 -0.125000 -0.312500    0.00024414  91 t-inv F
  0.125000  0.312500  0.187500    0.00024414  91 t-inv F
 -0.062500 -0.187500  0.125000    0.00024414  91 t-inv F
  0.125000 -0.187500 -0.062500    0.00024414  91 t-inv F
 -0.312500 -0.125000 -0.187500    0.00024414  91 t-inv F
  0.187500  0.312500  0.125000    0.00024414  91 t-inv F
  0.187500  0.125000  0.312500    0.00024414  91 t-inv F
  0.125000 -0.062500 -0.187500    0.00024414  91 t-inv F
 -0.312500 -0.187500 -0.125000    0.00024414  91 t-inv F
 -0.062500  0.125000 -0.187500    0.00024414  91 t-inv F
 -0.187500 -0.312500 -0.125000    0.00024414  91 t-inv F
  0.125000  0.187500  0.312500    0.00024414  91 t-inv F
  0.312500  0.187500  0.125000    0.00024414  91 t-inv F
 -0.187500  0.125000 -0.062500    0.00024414  91 t-inv F
 -0.125000 -0.312500 -0.187500    0.00024414  91 t-inv F
 -0.187500 -0.062500  0.125000    0.00024414  91 t-inv F
 -0.125000 -0.187500 -0.312500    0.00024414  91 t-inv F
  0.312500  0.125000  0.187500    0.00024414  91 t-inv F
 -0.125000  0.062500  0.187500    0.00024414  91 t-inv F
  0.187500 -0.125000  0.062500    0.00024414  91 t-inv F
  0.062500  0.187500 -0.125000    0.00024414  91 t-inv F
  0.062500  0.312500  0.250000    0.00024414  92 t-inv F
  0.250000  0.062500  0.312500    0.00024414  92 t-inv F
 -0.250000 -0.187500  0.062500    0.00024414  92 t-inv F
 -0.312500 -0.062500 -0.250000    0.00024414  92 t-inv F
 -0.062500  0.250000  0.187500    0.00024414  92 t-inv F
  0.187500  0.250000 -0.062500    0.00024414  92 t-inv F
  0.062500 -0.187500 -0.250000    0.00024414  92 t-inv F
 -0.250000 -0.062500 -0.312500    0.00024414  92 t-inv F
 -0.250000 -0.312500 -0.062500    0.00024414  92 t-inv F
  0.187500 -0.062500  0.250000    0.00024414  92 t-inv F
  0.062500 -0.250000 -0.187500    0.00024414  92 t-inv F
 -0.062500  0.187500  0.250000    0.00024414  92 t-inv F
 -0.250000  0.062500 -0.187500    0.00024414  92 t-inv F
 -0.312500 -0.250000 -0.062500    0.00024414  92 t-inv F
 -0.062500 -0.250000 -0.312500    0.00024414  92 t-inv F
  0.250000  0.187500 -0.062500    0.00024414  92 t-inv F
 -0.187500  0.062500 -0.250000    0.00024414  92 t-inv F
  0.250000 -0.062500  0.187500    0.00024414  92 t-inv F
 -0.187500 -0.250000  0.062500    0.00024414  92 t-inv F
 -0.062500 -0.312500 -0.250000    0.00024414  92 t-inv F
  0.312500  0.062500  0.250000    0.00024414  92 t-inv F
  0.250000  0.312500  0.062500    0.00024414  92 t-inv F
  0.062500  0.250000  0.312500    0.00024414  92 t-inv F
  0.062500  0.375000  0.250000    0.00024414  93 t-inv F
  0.250000  0.062500  0.375000    0.00024414  93 t-inv F
 -0.250000 -0.187500  0.125000    0.00024414  93 t-inv F
 -0.375000 -0.125000 -0.312500    0.00024414  93 t-inv F
 -0.062500  0.312500  0.187500    0.00024414  93 t-inv F
  0.187500  0.312500 -0.062500    0.00024414  93 t-inv F
  0.125000 -0.187500 -0.250000    0.00024414  93 t-inv F
 -0.312500 -0.125000 -0.375000    0.00024414  93 t-inv F
 -0.312500 -0.375000 -0.125000    0.00024414  93 t-inv F
  0.187500 -0.062500  0.312500    0.00024414  93 t-inv F
  0.125000 -0.250000 -0.187500    0.00024414  93 t-inv F
 -0.062500  0.187500  0.312500    0.00024414  93 t-inv F
 -0.250000  0.125000 -0.187500    0.00024414  93 t-inv F
 -0.375000 -0.312500 -0.125000    0.00024414  93 t-inv F
 -0.125000 -0.312500 -0.375000    0.00024414  93 t-inv F
  0.312500  0.187500 -0.062500    0.00024414  93 t-inv F
 -0.187500  0.125000 -0.250000    0.00024414  93 t-inv F
  0.312500 -0.062500  0.187500    0.00024414  93 t-inv F
 -0.187500 -0.250000  0.125000    0.00024414  93 t-inv F
 -0.125000 -0.375000 -0.312500    0.00024414  93 t-inv F
  0.375000  0.062500  0.250000    0.00024414  93 t-inv F
  0.250000  0.375000  0.062500    0.00024414  93 t-inv F
  0.062500  0.250000  0.375000    0.00024414  93 t-inv F
 -0.375000 -0.250000 -0.062500    0.00024414  93 t-inv F
 -0.062500 -0.375000 -0.250000    0.00024414  93 t-inv F
 -0.250000 -0.062500 -0.375000    0.00024414  93 t-inv F
  0.250000  0.187500 -0.125000    0.00024414  93 t-inv F
  0.375000  0.125000  0.312500    0.00024414  93 t-inv F
  0.062500 -0.312500 -0.187500    0.00024414  93 t-inv F
 -0.187500 -0.312500  0.062500    0.00024414  93 t-inv F
 -0.125000  0.187500  0.250000    0.00024414  93 t-inv F
  0.312500  0.125000  0.375000    0.00024414  93 t-inv F
  0.312500  0.375000  0.125000    0.00024414  93 t-inv F
 -0.187500  0.062500 -0.312500    0.00024414  93 t-inv F
 -0.125000  0.250000  0.187500    0.00024414  93 t-inv F
  0.062500 -0.187500 -0.312500    0.00024414  93 t-inv F
  0.250000 -0.125000  0.187500    0.00024414  93 t-inv F
  0.375000  0.312500  0.125000    0.00024414  93 t-inv F
  0.125000  0.312500  0.375000    0.00024414  93 t-inv F
 -0.312500 -0.187500  0.062500    0.00024414  93 t-inv F
  0.187500 -0.125000  0.250000    0.00024414  93 t-inv F
 -0.312500  0.062500 -0.187500    0.00024414  93 t-inv F
  0.187500  0.250000 -0.125000    0.00024414  93 t-inv F
  0.125000  0.375000  0.312500    0.00024414  93 t-inv F
 -0.375000 -0.062500 -0.250000    0.00024414  93 t-inv F
 -0.250000 -0.375000 -0.062500    0.00024414  93 t-inv F
 -0.062500 -0.250000 -0.375000    0.00024414  93 t-inv F
  0.062500  0.437500  0.250000    0.00024414  94 t-inv F
  0.250000  0.062500  0.437500    0.00024414  94 t-inv F
 -0.250000 -0.187500  0.187500    0.00024414  94 t-inv F
 -0.437500 -0.187500 -0.375000    0.00024414  94 t-inv F
 -0.062500  0.375000  0.187500    0.00024414  94 t-inv F
  0.187500  0.375000 -0.062500    0.00024414  94 t-inv F
  0.187500 -0.187500 -0.250000    0.00024414  94 t-inv F
 -0.375000 -0.187500 -0.437500    0.00024414  94 t-inv F
 -0.375000 -0.437500 -0.187500    0.00024414  94 t-inv F
  0.187500 -0.062500  0.375000    0.00024414  94 t-inv F
  0.187500 -0.250000 -0.187500    0.00024414  94 t-inv F
 -0.062500  0.187500  0.375000    0.00024414  94 t-inv F
 -0.250000  0.187500 -0.187500    0.00024414  94 t-inv F
 -0.437500 -0.375000 -0.187500    0.00024414  94 t-inv F
 -0.187500 -0.375000 -0.437500    0.00024414  94 t-inv F
  0.375000  0.187500 -0.062500    0.00024414  94 t-inv F
 -0.187500  0.187500 -0.250000    0.00024414  94 t-inv F
  0.375000 -0.062500  0.187500    0.00024414  94 t-inv F
 -0.187500 -0.250000  0.187500    0.00024414  94 t-inv F
 -0.187500 -0.437500 -0.375000    0.00024414  94 t-inv F
  0.437500  0.062500  0.250000    0.00024414  94 t-inv F
  0.250000  0.437500  0.062500    0.00024414  94 t-inv F
  0.062500  0.250000  0.437500    0.00024414  94 t-inv F
 -0.437500 -0.250000 -0.062500    0.00024414  94 t-inv F
 -0.062500 -0.437500 -0.250000    0.00024414  94 t-inv F
 -0.250000 -0.062500 -0.437500    0.00024414  94 t-inv F
  0.250000  0.187500 -0.187500    0.00024414  94 t-inv F
  0.437500  0.187500  0.375000    0.00024414  94 t-inv F
  0.062500 -0.375000 -0.187500    0.00024414  94 t-inv F
 -0.187500 -0.375000  0.062500    0.00024414  94 t-inv F
 -0.187500  0.187500  0.250000    0.00024414  94 t-inv F
  0.375000  0.187500  0.437500    0.00024414  94 t-inv F
  0.375000  0.437500  0.187500    0.00024414  94 t-inv F
 -0.187500  0.062500 -0.375000    0.00024414  94 t-inv F
 -0.187500  0.250000  0.187500    0.00024414  94 t-inv F
  0.062500 -0.187500 -0.375000    0.00024414  94 t-inv F
  0.250000 -0.187500  0.187500    0.00024414  94 t-inv F
  0.437500  0.375000  0.187500    0.00024414  94 t-inv F
  0.187500  0.375000  0.437500    0.00024414  94 t-inv F
 -0.375000 -0.187500  0.062500    0.00024414  94 t-inv F
  0.187500 -0.187500  0.250000    0.00024414  94 t-inv F
 -0.375000  0.062500 -0.187500    0.00024414  94 t-inv F
  0.187500  0.250000 -0.187500    0.00024414  94 t-inv F
  0.187500  0.437500  0.375000    0.00024414  94 t-inv F
 -0.437500 -0.062500 -0.250000    0.00024414  94 t-inv F
 -0.250000 -0.437500 -0.062500    0.00024414  94 t-inv F
 -0.062500 -0.250000 -0.437500    0.00024414  94 t-inv F
  0.062500  0.500000  0.250000    0.00024414  95 t-inv F
  0.250000  0.062500  0.500000    0.00024414  95 t-inv F
 -0.250000 -0.187500  0.250000    0.00024414  95 t-inv F
 -0.500000 -0.250000 -0.437500    0.00024414  95 t-inv F
 -0.062500  0.437500  0.187500    0.00024414  95 t-inv F
  0.187500  0.437500 -0.062500    0.00024414  95 t-inv F
  0.250000 -0.187500 -0.250000    0.00024414  95 t-inv F
 -0.437500 -0.250000 -0.500000    0.00024414  95 t-inv F
 -0.437500 -0.500000 -0.250000    0.00024414  95 t-inv F
  0.187500 -0.062500  0.437500    0.00024414  95 t-inv F
  0.250000 -0.250000 -0.187500    0.00024414  95 t-inv F
 -0.062500  0.187500  0.437500    0.00024414  95 t-inv F
 -0.250000  0.250000 -0.187500    0.00024414  95 t-inv F
 -0.500000 -0.437500 -0.250000    0.00024414  95 t-inv F
 -0.250000 -0.437500 -0.500000    0.00024414  95 t-inv F
  0.437500  0.187500 -0.062500    0.00024414  95 t-inv F
 -0.187500  0.250000 -0.250000    0.00024414  95 t-inv F
  0.437500 -0.062500  0.187500    0.00024414  95 t-inv F
 -0.187500 -0.250000  0.250000    0.00024414  95 t-inv F
 -0.250000 -0.500000 -0.437500    0.00024414  95 t-inv F
  0.500000  0.062500  0.250000    0.00024414  95 t-inv F
  0.250000  0.500000  0.062500    0.00024414  95 t-inv F
  0.062500  0.250000  0.500000    0.00024414  95 t-inv F
 -0.500000 -0.250000 -0.062500    0.00024414  95 t-inv F
 -0.062500 -0.500000 -0.250000    0.00024414  95 t-inv F
 -0.250000 -0.062500 -0.500000    0.00024414  95 t-inv F
  0.250000  0.187500 -0.250000    0.00024414  95 t-inv F
  0.500000  0.250000  0.437500    0.00024414  95 t-inv F
  0.062500 -0.437500 -0.187500    0.00024414  95 t-inv F
 -0.187500 -0.437500  0.062500    0.00024414  95 t-inv F
 -0.250000  0.187500  0.250000    0.00024414  95 t-inv F
  0.437500  0.250000  0.500000    0.00024414  95 t-inv F
  0.437500  0.500000  0.250000    0.00024414  95 t-inv F
 -0.187500  0.062500 -0.437500    0.00024414  95 t-inv F
 -0.250000  0.250000  0.187500    0.00024414  95 t-inv F
  0.062500 -0.187500 -0.437500    0.00024414  95 t-inv F
  0.250000 -0.250000  0.187500    0.00024414  95 t-inv F
  0.500000  0.437500  0.250000    0.00024414  95 t-inv F
  0.250000  0.437500  0.500000    0.00024414  95 t-inv F
 -0.437500 -0.187500  0.062500    0.00024414  95 t-inv F
  0.187500 -0.250000  0.250000    0.00024414  95 t-inv F
 -0.437500  0.062500 -0.187500    0.00024414  95 t-inv F
  0.187500  0.250000 -0.250000    0.00024414  95 t-inv F
  0.250000  0.500000  0.437500    0.00024414  95 t-inv F
 -0.500000 -0.062500 -0.250000    0.00024414  95 t-inv F
 -0.250000 -0.500000 -0.062500    0.00024414  95 t-inv F
 -0.062500 -0.250000 -0.500000    0.00024414  95 t-inv F
  0.062500 -0.437500  0.250000    0.00024414  96 t-inv F
  0.250000  0.062500 -0.437500    0.00024414  96 t-inv F
 -0.250000 -0.187500 -0.687500    0.00024414  96 t-inv F
  0.437500  0.687500  0.500000    0.00024414  96 t-inv F
 -0.062500 -0.500000  0.187500    0.00024414  96 t-inv F
  0.187500 -0.500000 -0.062500    0.00024414  96 t-inv F
 -0.687500 -0.187500 -0.250000    0.00024414  96 t-inv F
  0.500000  0.687500  0.437500    0.00024414  96 t-inv F
  0.500000  0.437500  0.687500    0.00024414  96 t-inv F
  0.187500 -0.062500 -0.500000    0.00024414  96 t-inv F
 -0.687500 -0.250000 -0.187500    0.00024414  96 t-inv F
 -0.062500  0.187500 -0.500000    0.00024414  96 t-inv F
 -0.250000 -0.687500 -0.187500    0.00024414  96 t-inv F
  0.437500  0.500000  0.687500    0.00024414  96 t-inv F
  0.687500  0.500000  0.437500    0.00024414  96 t-inv F
 -0.500000  0.187500 -0.062500    0.00024414  96 t-inv F
 -0.187500 -0.687500 -0.250000    0.00024414  96 t-inv F
 -0.500000 -0.062500  0.187500    0.00024414  96 t-inv F
 -0.187500 -0.250000 -0.687500    0.00024414  96 t-inv F
  0.687500  0.437500  0.500000    0.00024414  96 t-inv F
 -0.437500  0.062500  0.250000    0.00024414  96 t-inv F
  0.250000 -0.437500  0.062500    0.00024414  96 t-inv F
  0.062500  0.250000 -0.437500    0.00024414  96 t-inv F
  0.437500 -0.250000 -0.062500    0.00024414  96 t-inv F
 -0.062500  0.437500 -0.250000    0.00024414  96 t-inv F
 -0.250000 -0.062500  0.437500    0.00024414  96 t-inv F
  0.250000  0.187500  0.687500    0.00024414  96 t-inv F
 -0.437500 -0.687500 -0.500000    0.00024414  96 t-inv F
  0.062500  0.500000 -0.187500    0.00024414  96 t-inv F
 -0.187500  0.500000  0.062500    0.00024414  96 t-inv F
  0.687500  0.187500  0.250000    0.00024414  96 t-inv F
 -0.500000 -0.687500 -0.437500    0.00024414  96 t-inv F
 -0.500000 -0.437500 -0.687500    0.00024414  96 t-inv F
 -0.187500  0.062500  0.500000    0.00024414  96 t-inv F
  0.687500  0.250000  0.187500    0.00024414  96 t-inv F
  0.062500 -0.187500  0.500000    0.00024414  96 t-inv F
  0.250000  0.687500  0.187500    0.00024414  96 t-inv F
 -0.437500 -0.500000 -0.687500    0.00024414  96 t-inv F
 -0.687500 -0.500000 -0.437500    0.00024414  96 t-inv F
  0.500000 -0.187500  0.062500    0.00024414  96 t-inv F
  0.187500  0.687500  0.250000    0.00024414  96 t-inv F
  0.500000  0.062500 -0.187500    0.00024414  96 t-inv F
  0.187500  0.250000  0.687500    0.00024414  96 t-inv F
 -0.687500 -0.437500 -0.500000    0.00024414  96 t-inv F
  0.437500 -0.062500 -0.250000    0.00024414  96 t-inv F
 -0.250000  0.437500 -0.062500    0.00024414  96 t-inv F
 -0.062500 -0.250000  0.437500    0.00024414  96 t-inv F
  0.062500 -0.375000  0.250000    0.00024414  97 t-inv F
  0.250000  0.062500 -0.375000    0.00024414  97 t-inv F
 -0.250000 -0.187500 -0.625000    0.00024414  97 t-inv F
  0.375000  0.625000  0.437500    0.00024414  97 t-inv F
 -0.062500 -0.437500  0.187500    0.00024414  97 t-inv F
  0.187500 -0.437500 -0.062500    0.00024414  97 t-inv F
 -0.625000 -0.187500 -0.250000    0.00024414  97 t-inv F
  0.437500  0.625000  0.375000    0.00024414  97 t-inv F
  0.437500  0.375000  0.625000    0.00024414  97 t-inv F
  0.187500 -0.062500 -0.437500    0.00024414  97 t-inv F
 -0.625000 -0.250000 -0.187500    0.00024414  97 t-inv F
 -0.062500  0.187500 -0.437500    0.00024414  97 t-inv F
 -0.250000 -0.625000 -0.187500    0.00024414  97 t-inv F
  0.375000  0.437500  0.625000    0.00024414  97 t-inv F
  0.625000  0.437500  0.375000    0.00024414  97 t-inv F
 -0.437500  0.187500 -0.062500    0.00024414  97 t-inv F
 -0.187500 -0.625000 -0.250000    0.00024414  97 t-inv F
 -0.437500 -0.062500  0.187500    0.00024414  97 t-inv F
 -0.187500 -0.250000 -0.625000    0.00024414  97 t-inv F
  0.625000  0.375000  0.437500    0.00024414  97 t-inv F
 -0.375000  0.062500  0.250000    0.00024414  97 t-inv F
  0.250000 -0.375000  0.062500    0.00024414  97 t-inv F
  0.062500  0.250000 -0.375000    0.00024414  97 t-inv F
  0.375000 -0.250000 -0.062500    0.00024414  97 t-inv F
 -0.062500  0.375000 -0.250000    0.00024414  97 t-inv F
 -0.250000 -0.062500  0.375000    0.00024414  97 t-inv F
  0.250000  0.187500  0.625000    0.00024414  97 t-inv F
 -0.375000 -0.625000 -0.437500    0.00024414  97 t-inv F
  0.062500  0.437500 -0.187500    0.00024414  97 t-inv F
 -0.187500  0.437500  0.062500    0.00024414  97 t-inv F
  0.625000  0.187500  0.250000    0.00024414  97 t-inv F
 -0.437500 -0.625000 -0.375000    0.00024414  97 t-inv F
 -0.437500 -0.375000 -0.625000    0.00024414  97 t-inv F
 -0.187500  0.062500  0.437500    0.00024414  97 t-inv F
  0.625000  0.250000  0.187500    0.00024414  97 t-inv F
  0.062500 -0.187500  0.437500    0.00024414  97 t-inv F
  0.250000  0.625000  0.187500    0.00024414  97 t-inv F
 -0.375000 -0.437500 -0.625000    0.00024414  97 t-inv F
 -0.625000 -0.437500 -0.375000    0.00024414  97 t-inv F
  0.437500 -0.187500  0.062500    0.00024414  97 t-inv F
  0.187500  0.625000  0.250000    0.00024414  97 t-inv F
  0.437500  0.062500 -0.187500    0.00024414  97 t-inv F
  0.187500  0.250000  0.625000    0.00024414  97 t-inv F
 -0.625000 -0.375000 -0.437500    0.00024414  97 t-inv F
  0.375000 -0.062500 -0.250000    0.00024414  97 t-inv F
 -0.250000  0.375000 -0.062500    0.00024414  97 t-inv F
 -0.062500 -0.250000  0.375000    0.00024414  97 t-inv F
  0.062500 -0.312500  0.250000    0.00024414  98 t-inv F
  0.250000  0.062500 -0.312500    0.00024414  98 t-inv F
 -0.250000 -0.187500 -0.562500    0.00024414  98 t-inv F
  0.312500  0.562500  0.375000    0.00024414  98 t-inv F
 -0.062500 -0.375000  0.187500    0.00024414  98 t-inv F
  0.187500 -0.375000 -0.062500    0.00024414  98 t-inv F
 -0.562500 -0.187500 -0.250000    0.00024414  98 t-inv F
  0.375000  0.562500  0.312500    0.00024414  98 t-inv F
  0.375000  0.312500  0.562500    0.00024414  98 t-inv F
  0.187500 -0.062500 -0.375000    0.00024414  98 t-inv F
 -0.562500 -0.250000 -0.187500    0.00024414  98 t-inv F
 -0.062500  0.187500 -0.375000    0.00024414  98 t-inv F
 -0.250000 -0.562500 -0.187500    0.00024414  98 t-inv F
  0.312500  0.375000  0.562500    0.00024414  98 t-inv F
  0.562500  0.375000  0.312500    0.00024414  98 t-inv F
 -0.375000  0.187500 -0.062500    0.00024414  98 t-inv F
 -0.187500 -0.562500 -0.250000    0.00024414  98 t-inv F
 -0.375000 -0.062500  0.187500    0.00024414  98 t-inv F
 -0.187500 -0.250000 -0.562500    0.00024414  98 t-inv F
  0.562500  0.312500  0.375000    0.00024414  98 t-inv F
 -0.312500  0.062500  0.250000    0.00024414  98 t-inv F
  0.250000 -0.312500  0.062500    0.00024414  98 t-inv F
  0.062500  0.250000 -0.312500    0.00024414  98 t-inv F
  0.312500 -0.250000 -0.062500    0.00024414  98 t-inv F
 -0.062500  0.312500 -0.250000    0.00024414  98 t-inv F
 -0.250000 -0.062500  0.312500    0.00024414  98 t-inv F
  0.250000  0.187500  0.562500    0.00024414  98 t-inv F
 -0.312500 -0.562500 -0.375000    0.00024414  98 t-inv F
  0.062500  0.375000 -0.187500    0.00024414  98 t-inv F
 -0.187500  0.375000  0.062500    0.00024414  98 t-inv F
  0.562500  0.187500  0.250000    0.00024414  98 t-inv F
 -0.375000 -0.562500 -0.312500    0.00024414  98 t-inv F
 -0.375000 -0.312500 -0.562500    0.00024414  98 t-inv F
 -0.187500  0.062500  0.375000    0.00024414  98 t-inv F
  0.562500  0.250000  0.187500    0.00024414  98 t-inv F
  0.062500 -0.187500  0.375000    0.00024414  98 t-inv F
  0.250000  0.562500  0.187500    0.00024414  98 t-inv F
 -0.312500 -0.375000 -0.562500    0.00024414  98 t-inv F
 -0.562500 -0.375000 -0.312500    0.00024414  98 t-inv F
  0.375000 -0.187500  0.062500    0.00024414  98 t-inv F
  0.187500  0.562500  0.250000    0.00024414  98 t-inv F
  0.375000  0.062500 -0.187500    0.00024414  98 t-inv F
  0.187500  0.250000  0.562500    0.00024414  98 t-inv F
 -0.562500 -0.312500 -0.375000    0.00024414  98 t-inv F
  0.312500 -0.062500 -0.250000    0.00024414  98 t-inv F
 -0.250000  0.312500 -0.062500    0.00024414  98 t-inv F
 -0.062500 -0.250000  0.312500    0.00024414  98 t-inv F
  0.062500 -0.250000  0.250000    0.00024414  99 t-inv F
  0.250000  0.062500 -0.250000    0.00024414  99 t-inv F
 -0.250000 -0.187500 -0.500000    0.00024414  99 t-inv F
  0.250000  0.500000  0.312500    0.00024414  99 t-inv F
 -0.062500 -0.312500  0.187500    0.00024414  99 t-inv F
  0.187500 -0.312500 -0.062500    0.00024414  99 t-inv F
 -0.500000 -0.187500 -0.250000    0.00024414  99 t-inv F
  0.312500  0.500000  0.250000    0.00024414  99 t-inv F
  0.312500  0.250000  0.500000    0.00024414  99 t-inv F
  0.187500 -0.062500 -0.312500    0.00024414  99 t-inv F
 -0.500000 -0.250000 -0.187500    0.00024414  99 t-inv F
 -0.062500  0.187500 -0.312500    0.00024414  99 t-inv F
 -0.250000 -0.500000 -0.187500    0.00024414  99 t-inv F
  0.250000  0.312500  0.500000    0.00024414  99 t-inv F
  0.500000  0.312500  0.250000    0.00024414  99 t-inv F
 -0.312500  0.187500 -0.062500    0.00024414  99 t-inv F
 -0.187500 -0.500000 -0.250000    0.00024414  99 t-inv F
 -0.312500 -0.062500  0.187500    0.00024414  99 t-inv F
 -0.187500 -0.250000 -0.500000    0.00024414  99 t-inv F
  0.500000  0.250000  0.312500    0.00024414  99 t-inv F
 -0.250000  0.062500  0.250000    0.00024414  99 t-inv F
  0.250000 -0.250000  0.062500    0.00024414  99 t-inv F
  0.062500  0.250000 -0.250000    0.00024414  99 t-inv F
  0.250000 -0.250000 -0.062500    0.00024414  99 t-inv F
 -0.062500  0.250000 -0.250000    0.00024414  99 t-inv F
 -0.250000 -0.062500  0.250000    0.00024414  99 t-inv F
  0.250000  0.187500  0.500000    0.00024414  99 t-inv F
 -0.250000 -0.500000 -0.312500    0.00024414  99 t-inv F
  0.062500  0.312500 -0.187500    0.00024414  99 t-inv F
 -0.187500  0.312500  0.062500    0.00024414  99 t-inv F
  0.500000  0.187500  0.250000    0.00024414  99 t-inv F
 -0.312500 -0.500000 -0.250000    0.00024414  99 t-inv F
 -0.312500 -0.250000 -0.500000    0.00024414  99 t-inv F
 -0.187500  0.062500  0.312500    0.00024414  99 t-inv F
  0.500000  0.250000  0.187500    0.00024414  99 t-inv F
  0.062500 -0.187500  0.312500    0.00024414  99 t-inv F
  0.250000  0.500000  0.187500    0.00024414  99 t-inv F
 -0.250000 -0.312500 -0.500000    0.00024414  99 t-inv F
 -0.500000 -0.312500 -0.250000    0.00024414  99 t-inv F
  0.312500 -0.187500  0.062500    0.00024414  99 t-inv F
  0.187500  0.500000  0.250000    0.00024414  99 t-inv F
  0.312500  0.062500 -0.187500    0.00024414  99 t-inv F
  0.187500  0.250000  0.500000    0.00024414  99 t-inv F
 -0.500000 -0.250000 -0.312500    0.00024414  99 t-inv F
  0.250000 -0.062500 -0.250000    0.00024414  99 t-inv F
 -0.250000  0.250000 -0.062500    0.00024414  99 t-inv F
 -0.062500 -0.250000  0.250000    0.00024414  99 t-inv F
  0.062500 -0.187500  0.250000    0.00024414 100 t-inv F
  0.250000  0.062500 -0.187500    0.00024414 100 t-inv F
 -0.250000 -0.187500 -0.437500    0.00024414 100 t-inv F
  0.187500  0.437500  0.250000    0.00024414 100 t-inv F
 -0.062500 -0.250000  0.187500    0.00024414 100 t-inv F
  0.187500 -0.250000 -0.062500    0.00024414 100 t-inv F
 -0.437500 -0.187500 -0.250000    0.00024414 100 t-inv F
  0.250000  0.437500  0.187500    0.00024414 100 t-inv F
  0.250000  0.187500  0.437500    0.00024414 100 t-inv F
  0.187500 -0.062500 -0.250000    0.00024414 100 t-inv F
 -0.437500 -0.250000 -0.187500    0.00024414 100 t-inv F
 -0.062500  0.187500 -0.250000    0.00024414 100 t-inv F
 -0.250000 -0.437500 -0.187500    0.00024414 100 t-inv F
  0.187500  0.250000  0.437500    0.00024414 100 t-inv F
  0.437500  0.250000  0.187500    0.00024414 100 t-inv F
 -0.250000  0.187500 -0.062500    0.00024414 100 t-inv F
 -0.187500 -0.437500 -0.250000    0.00024414 100 t-inv F
 -0.250000 -0.062500  0.187500    0.00024414 100 t-inv F
 -0.187500 -0.250000 -0.437500    0.00024414 100 t-inv F
  0.437500  0.187500  0.250000    0.00024414 100 t-inv F
 -0.187500  0.062500  0.250000    0.00024414 100 t-inv F
  0.250000 -0.187500  0.062500    0.00024414 100 t-inv F
  0.062500  0.250000 -0.187500    0.00024414 100 t-inv F
  0.062500  0.375000  0.312500    0.00024414 101 t-inv F
  0.312500  0.062500  0.375000    0.00024414 101 t-inv F
 -0.312500 -0.250000  0.062500    0.00024414 101 t-inv F
 -0.375000 -0.062500 -0.312500    0.00024414 101 t-inv F
 -0.062500  0.312500  0.250000    0.00024414 101 t-inv F
  0.250000  0.312500 -0.062500    0.00024414 101 t-inv F
  0.062500 -0.250000 -0.312500    0.00024414 101 t-inv F
 -0.312500 -0.062500 -0.375000    0.00024414 101 t-inv F
 -0.312500 -0.375000 -0.062500    0.00024414 101 t-inv F
  0.250000 -0.062500  0.312500    0.00024414 101 t-inv F
  0.062500 -0.312500 -0.250000    0.00024414 101 t-inv F
 -0.062500  0.250000  0.312500    0.00024414 101 t-inv F
 -0.312500  0.062500 -0.250000    0.00024414 101 t-inv F
 -0.375000 -0.312500 -0.062500    0.00024414 101 t-inv F
 -0.062500 -0.312500 -0.375000    0.00024414 101 t-inv F
  0.312500  0.250000 -0.062500    0.00024414 101 t-inv F
 -0.250000  0.062500 -0.312500    0.00024414 101 t-inv F
  0.312500 -0.062500  0.250000    0.00024414 101 t-inv F
 -0.250000 -0.312500  0.062500    0.00024414 101 t-inv F
 -0.062500 -0.375000 -0.312500    0.00024414 101 t-inv F
  0.375000  0.062500  0.312500    0.00024414 101 t-inv F
  0.312500  0.375000  0.062500    0.00024414 101 t-inv F
  0.062500  0.312500  0.375000    0.00024414 101 t-inv F
  0.062500  0.437500  0.312500    0.00024414 102 t-inv F
  0.312500  0.062500  0.437500    0.00024414 102 t-inv F
 -0.312500 -0.250000  0.125000    0.00024414 102 t-inv F
 -0.437500 -0.125000 -0.375000    0.00024414 102 t-inv F
 -0.062500  0.375000  0.250000    0.00024414 102 t-inv F
  0.250000  0.375000 -0.062500    0.00024414 102 t-inv F
  0.125000 -0.250000 -0.312500    0.00024414 102 t-inv F
 -0.375000 -0.125000 -0.437500    0.00024414 102 t-inv F
 -0.375000 -0.437500 -0.125000    0.00024414 102 t-inv F
  0.250000 -0.062500  0.375000    0.00024414 102 t-inv F
  0.125000 -0.312500 -0.250000    0.00024414 102 t-inv F
 -0.062500  0.250000  0.375000    0.00024414 102 t-inv F
 -0.312500  0.125000 -0.250000    0.00024414 102 t-inv F
 -0.437500 -0.375000 -0.125000    0.00024414 102 t-inv F
 -0.125000 -0.375000 -0.437500    0.00024414 102 t-inv F
  0.375000  0.250000 -0.062500    0.00024414 102 t-inv F
 -0.250000  0.125000 -0.312500    0.00024414 102 t-inv F
  0.375000 -0.062500  0.250000    0.00024414 102 t-inv F
 -0.250000 -0.312500  0.125000    0.00024414 102 t-inv F
 -0.125000 -0.437500 -0.375000    0.00024414 102 t-inv F
  0.437500  0.062500  0.312500    0.00024414 102 t-inv F
  0.312500  0.437500  0.062500    0.00024414 102 t-inv F
  0.062500  0.312500  0.437500    0.00024414 102 t-inv F
 -0.437500 -0.312500 -0.062500    0.00024414 102 t-inv F
 -0.062500 -0.437500 -0.312500    0.00024414 102 t-inv F
 -0.312500 -0.062500 -0.437500    0.00024414 102 t-inv F
  0.312500  0.250000 -0.125000    0.00024414 102 t-inv F
  0.437500  0.125000  0.375000    0.00024414 102 t-inv F
  0.062500 -0.375000 -0.250000    0.00024414 102 t-inv F
 -0.250000 -0.375000  0.062500    0.00024414 102 t-inv F
 -0.125000  0.250000  0.312500    0.00024414 102 t-inv F
  0.375000  0.125000  0.437500    0.00024414 102 t-inv F
  0.375000  0.437500  0.125000    0.00024414 102 t-inv F
 -0.250000  0.062500 -0.375000    0.00024414 102 t-inv F
 -0.125000  0.312500  0.250000    0.00024414 102 t-inv F
  0.062500 -0.250000 -0.375000    0.00024414 102 t-inv F
  0.312500 -0.125000  0.250000    0.00024414 102 t-inv F
  0.437500  0.375000  0.125000    0.00024414 102 t-inv F
  0.125000  0.375000  0.437500    0.00024414 102 t-inv F
 -0.375000 -0.250000  0.062500    0.00024414 102 t-inv F
  0.250000 -0.125000  0.312500    0.00024414 102 t-inv F
 -0.375000  0.062500 -0.250000    0.00024414 102 t-inv F
  0.250000  0.312500 -0.125000    0.00024414 102 t-inv F
  0.125000  0.437500  0.375000    0.00024414 102 t-inv F
 -0.437500 -0.062500 -0.312500    0.00024414 102 t-inv F
 -0.312500 -0.437500 -0.062500    0.00024414 102 t-inv F
 -0.062500 -0.312500 -0.437500    0.00024414 102 t-inv F
  0.062500  0.500000  0.312500    0.00024414 103 t-inv F
  0.312500  0.062500  0.500000    0.00024414 103 t-inv F
 -0.312500 -0.250000  0.187500    0.00024414 103 t-inv F
 -0.500000 -0.187500 -0.437500    0.00024414 103 t-inv F
 -0.062500  0.437500  0.250000    0.00024414 103 t-inv F
  0.250000  0.437500 -0.062500    0.00024414 103 t-inv F
  0.187500 -0.250000 -0.312500    0.00024414 103 t-inv F
 -0.437500 -0.187500 -0.500000    0.00024414 103 t-inv F
 -0.437500 -0.500000 -0.187500    0.00024414 103 t-inv F
  0.250000 -0.062500  0.437500    0.00024414 103 t-inv F
  0.187500 -0.312500 -0.250000    0.00024414 103 t-inv F
 -0.062500  0.250000  0.437500    0.00024414 103 t-inv F
 -0.312500  0.187500 -0.250000    0.00024414 103 t-inv F
 -0.500000 -0.437500 -0.187500    0.00024414 103 t-inv F
 -0.187500 -0.437500 -0.500000    0.00024414 103 t-inv F
  0.437500  0.250000 -0.062500    0.00024414 103 t-inv F
 -0.250000  0.187500 -0.312500    0.00024414 103 t-inv F
  0.437500 -0.062500  0.250000    0.00024414 103 t-inv F
 -0.250000 -0.312500  0.187500    0.00024414 103 t-inv F
 -0.187500 -0.500000 -0.437500    0.00024414 103 t-inv F
  0.500000  0.062500  0.312500    0.00024414 103 t-inv F
  0.312500  0.500000  0.062500    0.00024414 103 t-inv F
  0.062500  0.312500  0.500000    0.00024414 103 t-inv F
 -0.500000 -0.312500 -0.062500    0.00024414 103 t-inv F
 -0.062500 -0.500000 -0.312500    0.00024414 103 t-inv F
 -0.312500 -0.062500 -0.500000    0.00024414 103 t-inv F
  0.312500  0.250000 -0.187500    0.00024414 103 t-inv F
  0.500000  0.187500  0.437500    0.00024414 103 t-inv F
  0.062500 -0.437500 -0.250000    0.00024414 103 t-inv F
 -0.250000 -0.437500  0.062500    0.00024414 103 t-inv F
 -0.187500  0.250000  0.312500    0.00024414 103 t-inv F
  0.437500  0.187500  0.500000    0.00024414 103 t-inv F
  0.437500  0.500000  0.187500    0.00024414 103 t-inv F
 -0.250000  0.062500 -0.437500    0.00024414 103 t-inv F
 -0.187500  0.312500  0.250000    0.00024414 103 t-inv F
  0.062500 -0.250000 -0.437500    0.00024414 103 t-inv F
  0.312500 -0.187500  0.250000    0.00024414 103 t-inv F
  0.500000  0.437500  0.187500    0.00024414 103 t-inv F
  0.187500  0.437500  0.500000    0.00024414 103 t-inv F
 -0.437500 -0.250000  0.062500    0.00024414 103 t-inv F
  0.250000 -0.187500  0.312500    0.00024414 103 t-inv F
 -0.437500  0.062500 -0.250000    0.00024414 103 t-inv F
  0.250000  0.312500 -0.187500    0.00024414 103 t-inv F
  0.187500  0.500000  0.437500    0.00024414 103 t-inv F
 -0.500000 -0.062500 -0.312500    0.00024414 103 t-inv F
 -0.312500 -0.500000 -0.062500    0.00024414 103 t-inv F
 -0.062500 -0.312500 -0.500000    0.00024414 103 t-inv F
  0.062500 -0.437500  0.312500    0.00024414 104 t-inv F
  0.312500  0.062500 -0.437500    0.00024414 104 t-inv F
 -0.312500 -0.250000 -0.750000    0.00024414 104 t-inv F
  0.437500  0.750000  0.500000    0.00024414 104 t-inv F
 -0.062500 -0.500000  0.250000    0.00024414 104 t-inv F
  0.250000 -0.500000 -0.062500    0.00024414 104 t-inv F
 -0.750000 -0.250000 -0.312500    0.00024414 104 t-inv F
  0.500000  0.750000  0.437500    0.00024414 104 t-inv F
  0.500000  0.437500  0.750000    0.00024414 104 t-inv F
  0.250000 -0.062500 -0.500000    0.00024414 104 t-inv F
 -0.750000 -0.312500 -0.250000    0.00024414 104 t-inv F
 -0.062500  0.250000 -0.500000    0.00024414 104 t-inv F
 -0.312500 -0.750000 -0.250000    0.00024414 104 t-inv F
  0.437500  0.500000  0.750000    0.00024414 104 t-inv F
  0.750000  0.500000  0.437500    0.00024414 104 t-inv F
 -0.500000  0.250000 -0.062500    0.00024414 104 t-inv F
 -0.250000 -0.750000 -0.312500    0.00024414 104 t-inv F
 -0.500000 -0.062500  0.250000    0.00024414 104 t-inv F
 -0.250000 -0.312500 -0.750000    0.00024414 104 t-inv F
  0.750000  0.437500  0.500000    0.00024414 104 t-inv F
 -0.437500  0.062500  0.312500    0.00024414 104 t-inv F
  0.312500 -0.437500  0.062500    0.00024414 104 t-inv F
  0.062500  0.312500 -0.437500    0.00024414 104 t-inv F
  0.437500 -0.312500 -0.062500    0.00024414 104 t-inv F
 -0.062500  0.437500 -0.312500    0.00024414 104 t-inv F
 -0.312500 -0.062500  0.437500    0.00024414 104 t-inv F
  0.312500  0.250000  0.750000    0.00024414 104 t-inv F
 -0.437500 -0.750000 -0.500000    0.00024414 104 t-inv F
  0.062500  0.500000 -0.250000    0.00024414 104 t-inv F
 -0.250000  0.500000  0.062500    0.00024414 104 t-inv F
  0.750000  0.250000  0.312500    0.00024414 104 t-inv F
 -0.500000 -0.750000 -0.437500    0.00024414 104 t-inv F
 -0.500000 -0.437500 -0.750000    0.00024414 104 t-inv F
 -0.250000  0.062500  0.500000    0.00024414 104 t-inv F
  0.750000  0.312500  0.250000    0.00024414 104 t-inv F
  0.062500 -0.250000  0.500000    0.00024414 104 t-inv F
  0.312500  0.750000  0.250000    0.00024414 104 t-inv F
 -0.437500 -0.500000 -0.750000    0.00024414 104 t-inv F
 -0.750000 -0.500000 -0.437500    0.00024414 104 t-inv F
  0.500000 -0.250000  0.062500    0.00024414 104 t-inv F
  0.250000  0.750000  0.312500    0.00024414 104 t-inv F
  0.500000  0.062500 -0.250000    0.00024414 104 t-inv F
  0.250000  0.312500  0.750000    0.00024414 104 t-inv F
 -0.750000 -0.437500 -0.500000    0.00024414 104 t-inv F
  0.437500 -0.062500 -0.312500    0.00024414 104 t-inv F
 -0.312500  0.437500 -0.062500    0.00024414 104 t-inv F
 -0.062500 -0.312500  0.437500    0.00024414 104 t-inv F
  0.062500 -0.375000  0.312500    0.00024414 105 t-inv F
  0.312500  0.062500 -0.375000    0.00024414 105 t-inv F
 -0.312500 -0.250000 -0.687500    0.00024414 105 t-inv F
  0.375000  0.687500  0.437500    0.00024414 105 t-inv F
 -0.062500 -0.437500  0.250000    0.00024414 105 t-inv F
  0.250000 -0.437500 -0.062500    0.00024414 105 t-inv F
 -0.687500 -0.250000 -0.312500    0.00024414 105 t-inv F
  0.437500  0.687500  0.375000    0.00024414 105 t-inv F
  0.437500  0.375000  0.687500    0.00024414 105 t-inv F
  0.250000 -0.062500 -0.437500    0.00024414 105 t-inv F
 -0.687500 -0.312500 -0.250000    0.00024414 105 t-inv F
 -0.062500  0.250000 -0.437500    0.00024414 105 t-inv F
 -0.312500 -0.687500 -0.250000    0.00024414 105 t-inv F
  0.375000  0.437500  0.687500    0.00024414 105 t-inv F
  0.687500  0.437500  0.375000    0.00024414 105 t-inv F
 -0.437500  0.250000 -0.062500    0.00024414 105 t-inv F
 -0.250000 -0.687500 -0.312500    0.00024414 105 t-inv F
 -0.437500 -0.062500  0.250000    0.00024414 105 t-inv F
 -0.250000 -0.312500 -0.687500    0.00024414 105 t-inv F
  0.687500  0.375000  0.437500    0.00024414 105 t-inv F
 -0.375000  0.062500  0.312500    0.00024414 105 t-inv F
  0.312500 -0.375000  0.062500    0.00024414 105 t-inv F
  0.062500  0.312500 -0.375000    0.00024414 105 t-inv F
  0.375000 -0.312500 -0.062500    0.00024414 105 t-inv F
 -0.062500  0.375000 -0.312500    0.00024414 105 t-inv F
 -0.312500 -0.062500  0.375000    0.00024414 105 t-inv F
  0.312500  0.250000  0.687500    0.00024414 105 t-inv F
 -0.375000 -0.687500 -0.437500    0.00024414 105 t-inv F
  0.062500  0.437500 -0.250000    0.00024414 105 t-inv F
 -0.250000  0.437500  0.062500    0.00024414 105 t-inv F
  0.687500  0.250000  0.312500    0.00024414 105 t-inv F
 -0.437500 -0.687500 -0.375000    0.00024414 105 t-inv F
 -0.437500 -0.375000 -0.687500    0.00024414 105 t-inv F
 -0.250000  0.062500  0.437500    0.00024414 105 t-inv F
  0.687500  0.312500  0.250000    0.00024414 105 t-inv F
  0.062500 -0.250000  0.437500    0.00024414 105 t-inv F
  0.312500  0.687500  0.250000    0.00024414 105 t-inv F
 -0.375000 -0.437500 -0.687500    0.00024414 105 t-inv F
 -0.687500 -0.437500 -0.375000    0.00024414 105 t-inv F
  0.437500 -0.250000  0.062500    0.00024414 105 t-inv F
  0.250000  0.687500  0.312500    0.00024414 105 t-inv F
  0.437500  0.062500 -0.250000    0.00024414 105 t-inv F
  0.250000  0.312500  0.687500    0.00024414 105 t-inv F
 -0.687500 -0.375000 -0.437500    0.00024414 105 t-inv F
  0.375000 -0.062500 -0.312500    0.00024414 105 t-inv F
 -0.312500  0.375000 -0.062500    0.00024414 105 t-inv F
 -0.062500 -0.312500  0.375000    0.00024414 105 t-inv F
  0.062500 -0.312500  0.312500    0.00024414 106 t-inv F
  0.312500  0.062500 -0.312500    0.00024414 106 t-inv F
 -0.312500 -0.250000 -0.625000    0.00024414 106 t-inv F
  0.312500  0.625000  0.375000    0.00024414 106 t-inv F
 -0.062500 -0.375000  0.250000    0.00024414 106 t-inv F
  0.250000 -0.375000 -0.062500    0.00024414 106 t-inv F
 -0.625000 -0.250000 -0.312500    0.00024414 106 t-inv F
  0.375000  0.625000  0.312500    0.00024414 106 t-inv F
  0.375000  0.312500  0.625000    0.00024414 106 t-inv F
  0.250000 -0.062500 -0.375000    0.00024414 106 t-inv F
 -0.625000 -0.312500 -0.250000    0.00024414 106 t-inv F
 -0.062500  0.250000 -0.375000    0.00024414 106 t-inv F
 -0.312500 -0.625000 -0.250000    0.00024414 106 t-inv F
  0.312500  0.375000  0.625000    0.00024414 106 t-inv F
  0.625000  0.375000  0.312500    0.00024414 106 t-inv F
 -0.375000  0.250000 -0.062500    0.00024414 106 t-inv F
 -0.250000 -0.625000 -0.312500    0.00024414 106 t-inv F
 -0.375000 -0.062500  0.250000    0.00024414 106 t-inv F
 -0.250000 -0.312500 -0.625000    0.00024414 106 t-inv F
  0.625000  0.312500  0.375000    0.00024414 106 t-inv F
 -0.312500  0.062500  0.312500    0.00024414 106 t-inv F
  0.312500 -0.312500  0.062500    0.00024414 106 t-inv F
  0.062500  0.312500 -0.312500    0.00024414 106 t-inv F
  0.312500 -0.312500 -0.062500    0.00024414 106 t-inv F
 -0.062500  0.312500 -0.312500    0.00024414 106 t-inv F
 -0.312500 -0.062500  0.312500    0.00024414 106 t-inv F
  0.312500  0.250000  0.625000    0.00024414 106 t-inv F
 -0.312500 -0.625000 -0.375000    0.00024414 106 t-inv F
  0.062500  0.375000 -0.250000    0.00024414 106 t-inv F
 -0.250000  0.375000  0.062500    0.00024414 106 t-inv F
  0.625000  0.250000  0.312500    0.00024414 106 t-inv F
 -0.375000 -0.625000 -0.312500    0.00024414 106 t-inv F
 -0.375000 -0.312500 -0.625000    0.00024414 106 t-inv F
 -0.250000  0.062500  0.375000    0.00024414 106 t-inv F
  0.625000  0.312500  0.250000    0.00024414 106 t-inv F
  0.062500 -0.250000  0.375000    0.00024414 106 t-inv F
  0.312500  0.625000  0.250000    0.00024414 106 t-inv F
 -0.312500 -0.375000 -0.625000    0.00024414 106 t-inv F
 -0.625000 -0.375000 -0.312500    0.00024414 106 t-inv F
  0.375000 -0.250000  0.062500    0.00024414 106 t-inv F
  0.250000  0.625000  0.312500    0.00024414 106 t-inv F
  0.375000  0.062500 -0.250000    0.00024414 106 t-inv F
  0.250000  0.312500  0.625000    0.00024414 106 t-inv F
 -0.625000 -0.312500 -0.375000    0.00024414 106 t-inv F
  0.312500 -0.062500 -0.312500    0.00024414 106 t-inv F
 -0.312500  0.312500 -0.062500    0.00024414 106 t-inv F
 -0.062500 -0.312500  0.312500    0.00024414 106 t-inv F
  0.062500 -0.250000  0.312500    0.00024414 107 t-inv F
  0.312500  0.062500 -0.250000    0.00024414 107 t-inv F
 -0.312500 -0.250000 -0.562500    0.00024414 107 t-inv F
  0.250000  0.562500  0.312500    0.00024414 107 t-inv F
 -0.062500 -0.312500  0.250000    0.00024414 107 t-inv F
  0.250000 -0.312500 -0.062500    0.00024414 107 t-inv F
 -0.562500 -0.250000 -0.312500    0.00024414 107 t-inv F
  0.312500  0.562500  0.250000    0.00024414 107 t-inv F
  0.312500  0.250000  0.562500    0.00024414 107 t-inv F
  0.250000 -0.062500 -0.312500    0.00024414 107 t-inv F
 -0.562500 -0.312500 -0.250000    0.00024414 107 t-inv F
 -0.062500  0.250000 -0.312500    0.00024414 107 t-inv F
 -0.312500 -0.562500 -0.250000    0.00024414 107 t-inv F
  0.250000  0.312500  0.562500    0.00024414 107 t-inv F
  0.562500  0.312500  0.250000    0.00024414 107 t-inv F
 -0.312500  0.250000 -0.062500    0.00024414 107 t-inv F
 -0.250000 -0.562500 -0.312500    0.00024414 107 t-inv F
 -0.312500 -0.062500  0.250000    0.00024414 107 t-inv F
 -0.250000 -0.312500 -0.562500    0.00024414 107 t-inv F
  0.562500  0.250000  0.312500    0.00024414 107 t-inv F
 -0.250000  0.062500  0.312500    0.00024414 107 t-inv F
  0.312500 -0.250000  0.062500    0.00024414 107 t-inv F
  0.062500  0.312500 -0.250000    0.00024414 107 t-inv F
  0.062500  0.437500  0.375000    0.00024414 108 t-inv F
  0.375000  0.062500  0.437500    0.00024414 108 t-inv F
 -0.375000 -0.312500  0.062500    0.00024414 108 t-inv F
 -0.437500 -0.062500 -0.375000    0.00024414 108 t-inv F
 -0.062500  0.375000  0.312500    0.00024414 108 t-inv F
  0.312500  0.375000 -0.062500    0.00024414 108 t-inv F
  0.062500 -0.312500 -0.375000    0.00024414 108 t-inv F
 -0.375000 -0.062500 -0.437500    0.00024414 108 t-inv F
 -0.375000 -0.437500 -0.062500    0.00024414 108 t-inv F
  0.312500 -0.062500  0.375000    0.00024414 108 t-inv F
  0.062500 -0.375000 -0.312500    0.00024414 108 t-inv F
 -0.062500  0.312500  0.375000    0.00024414 108 t-inv F
 -0.375000  0.062500 -0.312500    0.00024414 108 t-inv F
 -0.437500 -0.375000 -0.062500    0.00024414 108 t-inv F
 -0.062500 -0.375000 -0.437500    0.00024414 108 t-inv F
  0.375000  0.312500 -0.062500    0.00024414 108 t-inv F
 -0.312500  0.062500 -0.375000    0.00024414 108 t-inv F
  0.375000 -0.062500  0.312500    0.00024414 108 t-inv F
 -0.312500 -0.375000  0.062500    0.00024414 108 t-inv F
 -0.062500 -0.437500 -0.375000    0.00024414 108 t-inv F
  0.437500  0.062500  0.375000    0.00024414 108 t-inv F
  0.375000  0.437500  0.062500    0.00024414 108 t-inv F
  0.062500  0.375000  0.437500    0.00024414 108 t-inv F
  0.062500  0.500000  0.375000    0.00024414 109 t-inv F
  0.375000  0.062500  0.500000    0.00024414 109 t-inv F
 -0.375000 -0.312500  0.125000    0.00024414 109 t-inv F
 -0.500000 -0.125000 -0.437500    0.00024414 109 t-inv F
 -0.062500  0.437500  0.312500    0.00024414 109 t-inv F
  0.312500  0.437500 -0.062500    0.00024414 109 t-inv F
  0.125000 -0.312500 -0.375000    0.00024414 109 t-inv F
 -0.437500 -0.125000 -0.500000    0.00024414 109 t-inv F
 -0.437500 -0.500000 -0.125000    0.00024414 109 t-inv F
  0.312500 -0.062500  0.437500    0.00024414 109 t-inv F
  0.125000 -0.375000 -0.312500    0.00024414 109 t-inv F
 -0.062500  0.312500  0.437500    0.00024414 109 t-inv F
 -0.375000  0.125000 -0.312500    0.00024414 109 t-inv F
 -0.500000 -0.437500 -0.125000    0.00024414 109 t-inv F
 -0.125000 -0.437500 -0.500000    0.00024414 109 t-inv F
  0.437500  0.312500 -0.062500    0.00024414 109 t-inv F
 -0.312500  0.125000 -0.375000    0.00024414 109 t-inv F
  0.437500 -0.062500  0.312500    0.00024414 109 t-inv F
 -0.312500 -0.375000  0.125000    0.00024414 109 t-inv F
 -0.125000 -0.500000 -0.437500    0.00024414 109 t-inv F
  0.500000  0.062500  0.375000    0.00024414 109 t-inv F
  0.375000  0.500000  0.062500    0.00024414 109 t-inv F
  0.062500  0.375000  0.500000    0.00024414 109 t-inv F
 -0.500000 -0.375000 -0.062500    0.00024414 109 t-inv F
 -0.062500 -0.500000 -0.375000    0.00024414 109 t-inv F
 -0.375000 -0.062500 -0.500000    0.00024414 109 t-inv F
  0.375000  0.312500 -0.125000    0.00024414 109 t-inv F
  0.500000  0.125000  0.437500    0.00024414 109 t-inv F
  0.062500 -0.437500 -0.312500    0.00024414 109 t-inv F
 -0.312500 -0.437500  0.062500    0.00024414 109 t-inv F
 -0.125000  0.312500  0.375000    0.00024414 109 t-inv F
  0.437500  0.125000  0.500000    0.00024414 109 t-inv F
  0.437500  0.500000  0.125000    0.00024414 109 t-inv F
 -0.312500  0.062500 -0.437500    0.00024414 109 t-inv F
 -0.125000  0.375000  0.312500    0.00024414 109 t-inv F
  0.062500 -0.312500 -0.437500    0.00024414 109 t-inv F
  0.375000 -0.125000  0.312500    0.00024414 109 t-inv F
  0.500000  0.437500  0.125000    0.00024414 109 t-inv F
  0.125000  0.437500  0.500000    0.00024414 109 t-inv F
 -0.437500 -0.312500  0.062500    0.00024414 109 t-inv F
  0.312500 -0.125000  0.375000    0.00024414 109 t-inv F
 -0.437500  0.062500 -0.312500    0.00024414 109 t-inv F
  0.312500  0.375000 -0.125000    0.00024414 109 t-inv F
  0.125000  0.500000  0.437500    0.00024414 109 t-inv F
 -0.500000 -0.062500 -0.375000    0.00024414 109 t-inv F
 -0.375000 -0.500000 -0.062500    0.00024414 109 t-inv F
 -0.062500 -0.375000 -0.500000    0.00024414 109 t-inv F
  0.062500 -0.437500  0.375000    0.00024414 110 t-inv F
  0.375000  0.062500 -0.437500    0.00024414 110 t-inv F
 -0.375000 -0.312500 -0.812500    0.00024414 110 t-inv F
  0.437500  0.812500  0.500000    0.00024414 110 t-inv F
 -0.062500 -0.500000  0.312500    0.00024414 110 t-inv F
  0.312500 -0.500000 -0.062500    0.00024414 110 t-inv F
 -0.812500 -0.312500 -0.375000    0.00024414 110 t-inv F
  0.500000  0.812500  0.437500    0.00024414 110 t-inv F
  0.500000  0.437500  0.812500    0.00024414 110 t-inv F
  0.312500 -0.062500 -0.500000    0.00024414 110 t-inv F
 -0.812500 -0.375000 -0.312500    0.00024414 110 t-inv F
 -0.062500  0.312500 -0.500000    0.00024414 110 t-inv F
 -0.375000 -0.812500 -0.312500    0.00024414 110 t-inv F
  0.437500  0.500000  0.812500    0.00024414 110 t-inv F
  0.812500  0.500000  0.437500    0.00024414 110 t-inv F
 -0.500000  0.312500 -0.062500    0.00024414 110 t-inv F
 -0.312500 -0.812500 -0.375000    0.00024414 110 t-inv F
 -0.500000 -0.062500  0.312500    0.00024414 110 t-inv F
 -0.312500 -0.375000 -0.812500    0.00024414 110 t-inv F
  0.812500  0.437500  0.500000    0.00024414 110 t-inv F
 -0.437500  0.062500  0.375000    0.00024414 110 t-inv F
  0.375000 -0.437500  0.062500    0.00024414 110 t-inv F
  0.062500  0.375000 -0.437500    0.00024414 110 t-inv F
  0.437500 -0.375000 -0.062500    0.00024414 110 t-inv F
 -0.062500  0.437500 -0.375000    0.00024414 110 t-inv F
 -0.375000 -0.062500  0.437500    0.00024414 110 t-inv F
  0.375000  0.312500  0.812500    0.00024414 110 t-inv F
 -0.437500 -0.812500 -0.500000    0.00024414 110 t-inv F
  0.062500  0.500000 -0.312500    0.00024414 110 t-inv F
 -0.312500  0.500000  0.062500    0.00024414 110 t-inv F
  0.812500  0.312500  0.375000    0.00024414 110 t-inv F
 -0.500000 -0.812500 -0.437500    0.00024414 110 t-inv F
 -0.500000 -0.437500 -0.812500    0.00024414 110 t-inv F
 -0.312500  0.062500  0.500000    0.00024414 110 t-inv F
  0.812500  0.375000  0.312500    0.00024414 110 t-inv F
  0.062500 -0.312500  0.500000    0.00024414 110 t-inv F
  0.375000  0.812500  0.312500    0.00024414 110 t-inv F
 -0.437500 -0.500000 -0.812500    0.00024414 110 t-inv F
 -0.812500 -0.500000 -0.437500    0.00024414 110 t-inv F
  0.500000 -0.312500  0.062500    0.00024414 110 t-inv F
  0.312500  0.812500  0.375000    0.00024414 110 t-inv F
  0.500000  0.062500 -0.312500    0.00024414 110 t-inv F
  0.312500  0.375000  0.812500    0.00024414 110 t-inv F
 -0.812500 -0.437500 -0.500000    0.00024414 110 t-inv F
  0.437500 -0.062500 -0.375000    0.00024414 110 t-inv F
 -0.375000  0.437500 -0.062500    0.00024414 110 t-inv F
 -0.062500 -0.375000  0.437500    0.00024414 110 t-inv F
  0.062500 -0.375000  0.375000    0.00024414 111 t-inv F
  0.375000  0.062500 -0.375000    0.00024414 111 t-inv F
 -0.375000 -0.312500 -0.750000    0.00024414 111 t-inv F
  0.375000  0.750000  0.437500    0.00024414 111 t-inv F
 -0.062500 -0.437500  0.312500    0.00024414 111 t-inv F
  0.312500 -0.437500 -0.062500    0.00024414 111 t-inv F
 -0.750000 -0.312500 -0.375000    0.00024414 111 t-inv F
  0.437500  0.750000  0.375000    0.00024414 111 t-inv F
  0.437500  0.375000  0.750000    0.00024414 111 t-inv F
  0.312500 -0.062500 -0.437500    0.00024414 111 t-inv F
 -0.750000 -0.375000 -0.312500    0.00024414 111 t-inv F
 -0.062500  0.312500 -0.437500    0.00024414 111 t-inv F
 -0.375000 -0.750000 -0.312500    0.00024414 111 t-inv F
  0.375000  0.437500  0.750000    0.00024414 111 t-inv F
  0.750000  0.437500  0.375000    0.00024414 111 t-inv F
 -0.437500  0.312500 -0.062500    0.00024414 111 t-inv F
 -0.312500 -0.750000 -0.375000    0.00024414 111 t-inv F
 -0.437500 -0.062500  0.312500    0.00024414 111 t-inv F
 -0.312500 -0.375000 -0.750000    0.00024414 111 t-inv F
  0.750000  0.375000  0.437500    0.00024414 111 t-inv F
 -0.375000  0.062500  0.375000    0.00024414 111 t-inv F
  0.375000 -0.375000  0.062500    0.00024414 111 t-inv F
  0.062500  0.375000 -0.375000    0.00024414 111 t-inv F
  0.375000 -0.375000 -0.062500    0.00024414 111 t-inv F
 -0.062500  0.375000 -0.375000    0.00024414 111 t-inv F
 -0.375000 -0.062500  0.375000    0.00024414 111 t-inv F
  0.375000  0.312500  0.750000    0.00024414 111 t-inv F
 -0.375000 -0.750000 -0.437500    0.00024414 111 t-inv F
  0.062500  0.437500 -0.312500    0.00024414 111 t-inv F
 -0.312500  0.437500  0.062500    0.00024414 111 t-inv F
  0.750000  0.312500  0.375000    0.00024414 111 t-inv F
 -0.437500 -0.750000 -0.375000    0.00024414 111 t-inv F
 -0.437500 -0.375000 -0.750000    0.00024414 111 t-inv F
 -0.312500  0.062500  0.437500    0.00024414 111 t-inv F
  0.750000  0.375000  0.312500    0.00024414 111 t-inv F
  0.062500 -0.312500  0.437500    0.00024414 111 t-inv F
  0.375000  0.750000  0.312500    0.00024414 111 t-inv F
 -0.375000 -0.437500 -0.750000    0.00024414 111 t-inv F
 -0.750000 -0.437500 -0.375000    0.00024414 111 t-inv F
  0.437500 -0.312500  0.062500    0.00024414 111 t-inv F
  0.312500  0.750000  0.375000    0.00024414 111 t-inv F
  0.437500  0.062500 -0.312500    0.00024414 111 t-inv F
  0.312500  0.375000  0.750000    0.00024414 111 t-inv F
 -0.750000 -0.375000 -0.437500    0.00024414 111 t-inv F
  0.375000 -0.062500 -0.375000    0.00024414 111 t-inv F
 -0.375000  0.375000 -0.062500    0.00024414 111 t-inv F
 -0.062500 -0.375000  0.375000    0.00024414 111 t-inv F
  0.062500 -0.312500  0.375000    0.00024414 112 t-inv F
  0.375000  0.062500 -0.312500    0.00024414 112 t-inv F
 -0.375000 -0.312500 -0.687500    0.00024414 112 t-inv F
  0.312500  0.687500  0.375000    0.00024414 112 t-inv F
 -0.062500 -0.375000  0.312500    0.00024414 112 t-inv F
  0.312500 -0.375000 -0.062500    0.00024414 112 t-inv F
 -0.687500 -0.312500 -0.375000    0.00024414 112 t-inv F
  0.375000  0.687500  0.312500    0.00024414 112 t-inv F
  0.375000  0.312500  0.687500    0.00024414 112 t-inv F
  0.312500 -0.062500 -0.375000    0.00024414 112 t-inv F
 -0.687500 -0.375000 -0.312500    0.00024414 112 t-inv F
 -0.062500  0.312500 -0.375000    0.00024414 112 t-inv F
 -0.375000 -0.687500 -0.312500    0.00024414 112 t-inv F
  0.312500  0.375000  0.687500    0.00024414 112 t-inv F
  0.687500  0.375000  0.312500    0.00024414 112 t-inv F
 -0.375000  0.312500 -0.062500    0.00024414 112 t-inv F
 -0.312500 -0.687500 -0.375000    0.00024414 112 t-inv F
 -0.375000 -0.062500  0.312500    0.00024414 112 t-inv F
 -0.312500 -0.375000 -0.687500    0.00024414 112 t-inv F
  0.687500  0.312500  0.375000    0.00024414 112 t-inv F
 -0.312500  0.062500  0.375000    0.00024414 112 t-inv F
  0.375000 -0.312500  0.062500    0.00024414 112 t-inv F
  0.062500  0.375000 -0.312500    0.00024414 112 t-inv F
  0.062500  0.500000  0.437500    0.00024414 113 t-inv F
  0.437500  0.062500  0.500000    0.00024414 113 t-inv F
 -0.437500 -0.375000  0.062500    0.00024414 113 t-inv F
 -0.500000 -0.062500 -0.437500    0.00024414 113 t-inv F
 -0.062500  0.437500  0.375000    0.00024414 113 t-inv F
  0.375000  0.437500 -0.062500    0.00024414 113 t-inv F
  0.062500 -0.375000 -0.437500    0.00024414 113 t-inv F
 -0.437500 -0.062500 -0.500000    0.00024414 113 t-inv F
 -0.437500 -0.500000 -0.062500    0.00024414 113 t-inv F
  0.375000 -0.062500  0.437500    0.00024414 113 t-inv F
  0.062500 -0.437500 -0.375000    0.00024414 113 t-inv F
 -0.062500  0.375000  0.437500    0.00024414 113 t-inv F
 -0.437500  0.062500 -0.375000    0.00024414 113 t-inv F
 -0.500000 -0.437500 -0.062500    0.00024414 113 t-inv F
 -0.062500 -0.437500 -0.500000    0.00024414 113 t-inv F
  0.437500  0.375000 -0.062500    0.00024414 113 t-inv F
 -0.375000  0.062500 -0.437500    0.00024414 113 t-inv F
  0.437500 -0.062500  0.375000    0.00024414 113 t-inv F
 -0.375000 -0.437500  0.062500    0.00024414 113 t-inv F
 -0.062500 -0.500000 -0.437500    0.00024414 113 t-inv F
  0.500000  0.062500  0.437500    0.00024414 113 t-inv F
  0.437500  0.500000  0.062500    0.00024414 113 t-inv F
  0.062500  0.437500  0.500000    0.00024414 113 t-inv F
  0.062500 -0.437500  0.437500    0.00024414 114 t-inv F
  0.437500  0.062500 -0.437500    0.00024414 114 t-inv F
 -0.437500 -0.375000 -0.875000    0.00024414 114 t-inv F
  0.437500  0.875000  0.500000    0.00024414 114 t-inv F
 -0.062500 -0.500000  0.375000    0.00024414 114 t-inv F
  0.375000 -0.500000 -0.062500    0.00024414 114 t-inv F
 -0.875000 -0.375000 -0.437500    0.00024414 114 t-inv F
  0.500000  0.875000  0.437500    0.00024414 114 t-inv F
  0.500000  0.437500  0.875000    0.00024414 114 t-inv F
  0.375000 -0.062500 -0.500000    0.00024414 114 t-inv F
 -0.875000 -0.437500 -0.375000    0.00024414 114 t-inv F
 -0.062500  0.375000 -0.500000    0.00024414 114 t-inv F
 -0.437500 -0.875000 -0.375000    0.00024414 114 t-inv F
  0.437500  0.500000  0.875000    0.00024414 114 t-inv F
  0.875000  0.500000  0.437500    0.00024414 114 t-inv F
 -0.500000  0.375000 -0.062500    0.00024414 114 t-inv F
 -0.375000 -0.875000 -0.437500    0.00024414 114 t-inv F
 -0.500000 -0.062500  0.375000    0.00024414 114 t-inv F
 -0.375000 -0.437500 -0.875000    0.00024414 114 t-inv F
  0.875000  0.437500  0.500000    0.00024414 114 t-inv F
 -0.437500  0.062500  0.437500    0.00024414 114 t-inv F
  0.437500 -0.437500  0.062500    0.00024414 114 t-inv F
  0.062500  0.437500 -0.437500    0.00024414 114 t-inv F
  0.437500 -0.437500 -0.062500    0.00024414 114 t-inv F
 -0.062500  0.437500 -0.437500    0.00024414 114 t-inv F
 -0.437500 -0.062500  0.437500    0.00024414 114 t-inv F
  0.437500  0.375000  0.875000    0.00024414 114 t-inv F
 -0.437500 -0.875000 -0.500000    0.00024414 114 t-inv F
  0.062500  0.500000 -0.375000    0.00024414 114 t-inv F
 -0.375000  0.500000  0.062500    0.00024414 114 t-inv F
  0.875000  0.375000  0.437500    0.00024414 114 t-inv F
 -0.500000 -0.875000 -0.437500    0.00024414 114 t-inv F
 -0.500000 -0.437500 -0.875000    0.00024414 114 t-inv F
 -0.375000  0.062500  0.500000    0.00024414 114 t-inv F
  0.875000  0.437500  0.375000    0.00024414 114 t-inv F
  0.062500 -0.375000  0.500000    0.00024414 114 t-inv F
  0.437500  0.875000  0.375000    0.00024414 114 t-inv F
 -0.437500 -0.500000 -0.875000    0.00024414 114 t-inv F
 -0.875000 -0.500000 -0.437500    0.00024414 114 t-inv F
  0.500000 -0.375000  0.062500    0.00024414 114 t-inv F
  0.375000  0.875000  0.437500    0.00024414 114 t-inv F
  0.500000  0.062500 -0.375000    0.00024414 114 t-inv F
  0.375000  0.437500  0.875000    0.00024414 114 t-inv F
 -0.875000 -0.437500 -0.500000    0.00024414 114 t-inv F
  0.437500 -0.062500 -0.437500    0.00024414 114 t-inv F
 -0.437500  0.437500 -0.062500    0.00024414 114 t-inv F
 -0.062500 -0.437500  0.437500    0.00024414 114 t-inv F
  0.062500 -0.375000  0.437500    0.00024414 115 t-inv F
  0.437500  0.062500 -0.375000    0.00024414 115 t-inv F
 -0.437500 -0.375000 -0.812500    0.00024414 115 t-inv F
  0.375000  0.812500  0.437500    0.00024414 115 t-inv F
 -0.062500 -0.437500  0.375000    0.00024414 115 t-inv F
  0.375000 -0.437500 -0.062500    0.00024414 115 t-inv F
 -0.812500 -0.375000 -0.437500    0.00024414 115 t-inv F
  0.437500  0.812500  0.375000    0.00024414 115 t-inv F
  0.437500  0.375000  0.812500    0.00024414 115 t-inv F
  0.375000 -0.062500 -0.437500    0.00024414 115 t-inv F
 -0.812500 -0.437500 -0.375000    0.00024414 115 t-inv F
 -0.062500  0.375000 -0.437500    0.00024414 115 t-inv F
 -0.437500 -0.812500 -0.375000    0.00024414 115 t-inv F
  0.375000  0.437500  0.812500    0.00024414 115 t-inv F
  0.812500  0.437500  0.375000    0.00024414 115 t-inv F
 -0.437500  0.375000 -0.062500    0.00024414 115 t-inv F
 -0.375000 -0.812500 -0.437500    0.00024414 115 t-inv F
 -0.437500 -0.062500  0.375000    0.00024414 115 t-inv F
 -0.375000 -0.437500 -0.812500    0.00024414 115 t-inv F
  0.812500  0.375000  0.437500    0.00024414 115 t-inv F
 -0.375000  0.062500  0.437500    0.00024414 115 t-inv F
  0.437500 -0.375000  0.062500    0.00024414 115 t-inv F
  0.062500  0.437500 -0.375000    0.00024414 115 t-inv F
  0.062500 -0.437500  0.500000    0.00024414 116 t-inv F
  0.500000  0.062500 -0.437500    0.00024414 116 t-inv F
 -0.500000 -0.437500 -0.937500    0.00024414 116 t-inv F
  0.437500  0.937500  0.500000    0.00024414 116 t-inv F
 -0.062500 -0.500000  0.437500    0.00024414 116 t-inv F
  0.437500 -0.500000 -0.062500    0.00024414 116 t-inv F
  0.500000  0.937500  0.437500    0.00024414 116 t-inv F
  0.500000  0.437500  0.937500    0.00024414 116 t-inv F
 -0.937500 -0.500000 -0.437500    0.00024414 116 t-inv F
 -0.062500  0.437500 -0.500000    0.00024414 116 t-inv F
 -0.437500 -0.937500 -0.500000    0.00024414 116 t-inv F
  0.125000  0.375000  0.250000    0.00024414 117 t-inv F
  0.250000  0.125000  0.375000    0.00024414 117 t-inv F
 -0.250000 -0.125000  0.125000    0.00024414 117 t-inv F
 -0.375000 -0.125000 -0.250000    0.00024414 117 t-inv F
 -0.125000  0.250000  0.125000    0.00024414 117 t-inv F
  0.125000  0.250000 -0.125000    0.00024414 117 t-inv F
  0.125000 -0.125000 -0.250000    0.00024414 117 t-inv F
 -0.250000 -0.125000 -0.375000    0.00024414 117 t-inv F
 -0.250000 -0.375000 -0.125000    0.00024414 117 t-inv F
  0.125000 -0.125000  0.250000    0.00024414 117 t-inv F
  0.125000 -0.250000 -0.125000    0.00024414 117 t-inv F
 -0.125000  0.125000  0.250000    0.00024414 117 t-inv F
 -0.250000  0.125000 -0.125000    0.00024414 117 t-inv F
 -0.375000 -0.250000 -0.125000    0.00024414 117 t-inv F
 -0.125000 -0.250000 -0.375000    0.00024414 117 t-inv F
  0.250000  0.125000 -0.125000    0.00024414 117 t-inv F
 -0.125000  0.125000 -0.250000    0.00024414 117 t-inv F
  0.250000 -0.125000  0.125000    0.00024414 117 t-inv F
 -0.125000 -0.250000  0.125000    0.00024414 117 t-inv F
 -0.125000 -0.375000 -0.250000    0.00024414 117 t-inv F
  0.375000  0.125000  0.250000    0.00024414 117 t-inv F
  0.250000  0.375000  0.125000    0.00024414 117 t-inv F
  0.125000  0.250000  0.375000    0.00024414 117 t-inv F
  0.125000  0.437500  0.250000    0.00024414 118 t-inv F
  0.250000  0.125000  0.437500    0.00024414 118 t-inv F
 -0.250000 -0.125000  0.187500    0.00024414 118 t-inv F
 -0.437500 -0.187500 -0.312500    0.00024414 118 t-inv F
 -0.125000  0.312500  0.125000    0.00024414 118 t-inv F
  0.125000  0.312500 -0.125000    0.00024414 118 t-inv F
  0.187500 -0.125000 -0.250000    0.00024414 118 t-inv F
 -0.312500 -0.187500 -0.437500    0.00024414 118 t-inv F
 -0.312500 -0.437500 -0.187500    0.00024414 118 t-inv F
  0.125000 -0.125000  0.312500    0.00024414 118 t-inv F
  0.187500 -0.250000 -0.125000    0.00024414 118 t-inv F
 -0.125000  0.125000  0.312500    0.00024414 118 t-inv F
 -0.250000  0.187500 -0.125000    0.00024414 118 t-inv F
 -0.437500 -0.312500 -0.187500    0.00024414 118 t-inv F
 -0.187500 -0.312500 -0.437500    0.00024414 118 t-inv F
  0.312500  0.125000 -0.125000    0.00024414 118 t-inv F
 -0.125000  0.187500 -0.250000    0.00024414 118 t-inv F
  0.312500 -0.125000  0.125000    0.00024414 118 t-inv F
 -0.125000 -0.250000  0.187500    0.00024414 118 t-inv F
 -0.187500 -0.437500 -0.312500    0.00024414 118 t-inv F
  0.437500  0.125000  0.250000    0.00024414 118 t-inv F
  0.250000  0.437500  0.125000    0.00024414 118 t-inv F
  0.125000  0.250000  0.437500    0.00024414 118 t-inv F
 -0.437500 -0.250000 -0.125000    0.00024414 118 t-inv F
 -0.125000 -0.437500 -0.250000    0.00024414 118 t-inv F
 -0.250000 -0.125000 -0.437500    0.00024414 118 t-inv F
  0.250000  0.125000 -0.187500    0.00024414 118 t-inv F
  0.437500  0.187500  0.312500    0.00024414 118 t-inv F
  0.125000 -0.312500 -0.125000    0.00024414 118 t-inv F
 -0.125000 -0.312500  0.125000    0.00024414 118 t-inv F
 -0.187500  0.125000  0.250000    0.00024414 118 t-inv F
  0.312500  0.187500  0.437500    0.00024414 118 t-inv F
  0.312500  0.437500  0.187500    0.00024414 118 t-inv F
 -0.125000  0.125000 -0.312500    0.00024414 118 t-inv F
 -0.187500  0.250000  0.125000    0.00024414 118 t-inv F
  0.125000 -0.125000 -0.312500    0.00024414 118 t-inv F
  0.250000 -0.187500  0.125000    0.00024414 118 t-inv F
  0.437500  0.312500  0.187500    0.00024414 118 t-inv F
  0.187500  0.312500  0.437500    0.00024414 118 t-inv F
 -0.312500 -0.125000  0.125000    0.00024414 118 t-inv F
  0.125000 -0.187500  0.250000    0.00024414 118 t-inv F
 -0.312500  0.125000 -0.125000    0.00024414 118 t-inv F
  0.125000  0.250000 -0.187500    0.00024414 118 t-inv F
  0.187500  0.437500  0.312500    0.00024414 118 t-inv F
 -0.437500 -0.125000 -0.250000    0.00024414 118 t-inv F
 -0.250000 -0.437500 -0.125000    0.00024414 118 t-inv F
 -0.125000 -0.250000 -0.437500    0.00024414 118 t-inv F
  0.125000  0.500000  0.250000    0.00024414 119 t-inv F
  0.250000  0.125000  0.500000    0.00024414 119 t-inv F
 -0.250000 -0.125000  0.250000    0.00024414 119 t-inv F
 -0.500000 -0.250000 -0.375000    0.00024414 119 t-inv F
 -0.125000  0.375000  0.125000    0.00024414 119 t-inv F
  0.125000  0.375000 -0.125000    0.00024414 119 t-inv F
  0.250000 -0.125000 -0.250000    0.00024414 119 t-inv F
 -0.375000 -0.250000 -0.500000    0.00024414 119 t-inv F
 -0.375000 -0.500000 -0.250000    0.00024414 119 t-inv F
  0.125000 -0.125000  0.375000    0.00024414 119 t-inv F
  0.250000 -0.250000 -0.125000    0.00024414 119 t-inv F
 -0.125000  0.125000  0.375000    0.00024414 119 t-inv F
 -0.250000  0.250000 -0.125000    0.00024414 119 t-inv F
 -0.500000 -0.375000 -0.250000    0.00024414 119 t-inv F
 -0.250000 -0.375000 -0.500000    0.00024414 119 t-inv F
  0.375000  0.125000 -0.125000    0.00024414 119 t-inv F
 -0.125000  0.250000 -0.250000    0.00024414 119 t-inv F
  0.375000 -0.125000  0.125000    0.00024414 119 t-inv F
 -0.125000 -0.250000  0.250000    0.00024414 119 t-inv F
 -0.250000 -0.500000 -0.375000    0.00024414 119 t-inv F
  0.500000  0.125000  0.250000    0.00024414 119 t-inv F
  0.250000  0.500000  0.125000    0.00024414 119 t-inv F
  0.125000  0.250000  0.500000    0.00024414 119 t-inv F
 -0.500000 -0.250000 -0.125000    0.00024414 119 t-inv F
 -0.125000 -0.500000 -0.250000    0.00024414 119 t-inv F
 -0.250000 -0.125000 -0.500000    0.00024414 119 t-inv F
  0.250000  0.125000 -0.250000    0.00024414 119 t-inv F
  0.500000  0.250000  0.375000    0.00024414 119 t-inv F
  0.125000 -0.375000 -0.125000    0.00024414 119 t-inv F
 -0.125000 -0.375000  0.125000    0.00024414 119 t-inv F
 -0.250000  0.125000  0.250000    0.00024414 119 t-inv F
  0.375000  0.250000  0.500000    0.00024414 119 t-inv F
  0.375000  0.500000  0.250000    0.00024414 119 t-inv F
 -0.125000  0.125000 -0.375000    0.00024414 119 t-inv F
 -0.250000  0.250000  0.125000    0.00024414 119 t-inv F
  0.125000 -0.125000 -0.375000    0.00024414 119 t-inv F
  0.250000 -0.250000  0.125000    0.00024414 119 t-inv F
  0.500000  0.375000  0.250000    0.00024414 119 t-inv F
  0.250000  0.375000  0.500000    0.00024414 119 t-inv F
 -0.375000 -0.125000  0.125000    0.00024414 119 t-inv F
  0.125000 -0.250000  0.250000    0.00024414 119 t-inv F
 -0.375000  0.125000 -0.125000    0.00024414 119 t-inv F
  0.125000  0.250000 -0.250000    0.00024414 119 t-inv F
  0.250000  0.500000  0.375000    0.00024414 119 t-inv F
 -0.500000 -0.125000 -0.250000    0.00024414 119 t-inv F
 -0.250000 -0.500000 -0.125000    0.00024414 119 t-inv F
 -0.125000 -0.250000 -0.500000    0.00024414 119 t-inv F
  0.125000 -0.437500  0.250000    0.00024414 120 t-inv F
  0.250000  0.125000 -0.437500    0.00024414 120 t-inv F
 -0.250000 -0.125000 -0.687500    0.00024414 120 t-inv F
  0.437500  0.687500  0.562500    0.00024414 120 t-inv F
 -0.125000 -0.562500  0.125000    0.00024414 120 t-inv F
  0.125000 -0.562500 -0.125000    0.00024414 120 t-inv F
 -0.687500 -0.125000 -0.250000    0.00024414 120 t-inv F
  0.562500  0.687500  0.437500    0.00024414 120 t-inv F
  0.562500  0.437500  0.687500    0.00024414 120 t-inv F
  0.125000 -0.125000 -0.562500    0.00024414 120 t-inv F
 -0.687500 -0.250000 -0.125000    0.00024414 120 t-inv F
 -0.125000  0.125000 -0.562500    0.00024414 120 t-inv F
 -0.250000 -0.687500 -0.125000    0.00024414 120 t-inv F
  0.437500  0.562500  0.687500    0.00024414 120 t-inv F
  0.687500  0.562500  0.437500    0.00024414 120 t-inv F
 -0.562500  0.125000 -0.125000    0.00024414 120 t-inv F
 -0.125000 -0.687500 -0.250000    0.00024414 120 t-inv F
 -0.562500 -0.125000  0.125000    0.00024414 120 t-inv F
 -0.125000 -0.250000 -0.687500    0.00024414 120 t-inv F
  0.687500  0.437500  0.562500    0.00024414 120 t-inv F
 -0.437500  0.125000  0.250000    0.00024414 120 t-inv F
  0.250000 -0.437500  0.125000    0.00024414 120 t-inv F
  0.125000  0.250000 -0.437500    0.00024414 120 t-inv F
  0.437500 -0.250000 -0.125000    0.00024414 120 t-inv F
 -0.125000  0.437500 -0.250000    0.00024414 120 t-inv F
 -0.250000 -0.125000  0.437500    0.00024414 120 t-inv F
  0.250000  0.125000  0.687500    0.00024414 120 t-inv F
 -0.437500 -0.687500 -0.562500    0.00024414 120 t-inv F
  0.125000  0.562500 -0.125000    0.00024414 120 t-inv F
 -0.125000  0.562500  0.125000    0.00024414 120 t-inv F
  0.687500  0.125000  0.250000    0.00024414 120 t-inv F
 -0.562500 -0.687500 -0.437500    0.00024414 120 t-inv F
 -0.562500 -0.437500 -0.687500    0.00024414 120 t-inv F
 -0.125000  0.125000  0.562500    0.00024414 120 t-inv F
  0.687500  0.250000  0.125000    0.00024414 120 t-inv F
  0.125000 -0.125000  0.562500    0.00024414 120 t-inv F
  0.250000  0.687500  0.125000    0.00024414 120 t-inv F
 -0.437500 -0.562500 -0.687500    0.00024414 120 t-inv F
 -0.687500 -0.562500 -0.437500    0.00024414 120 t-inv F
  0.562500 -0.125000  0.125000    0.00024414 120 t-inv F
  0.125000  0.687500  0.250000    0.00024414 120 t-inv F
  0.562500  0.125000 -0.125000    0.00024414 120 t-inv F
  0.125000  0.250000  0.687500    0.00024414 120 t-inv F
 -0.687500 -0.437500 -0.562500    0.00024414 120 t-inv F
  0.437500 -0.125000 -0.250000    0.00024414 120 t-inv F
 -0.250000  0.437500 -0.125000    0.00024414 120 t-inv F
 -0.125000 -0.250000  0.437500    0.00024414 120 t-inv F
  0.125000 -0.375000  0.250000    0.00024414 121 t-inv F
  0.250000  0.125000 -0.375000    0.00024414 121 t-inv F
 -0.250000 -0.125000 -0.625000    0.00024414 121 t-inv F
  0.375000  0.625000  0.500000    0.00024414 121 t-inv F
 -0.125000 -0.500000  0.125000    0.00024414 121 t-inv F
  0.125000 -0.500000 -0.125000    0.00024414 121 t-inv F
 -0.625000 -0.125000 -0.250000    0.00024414 121 t-inv F
  0.500000  0.625000  0.375000    0.00024414 121 t-inv F
  0.500000  0.375000  0.625000    0.00024414 121 t-inv F
  0.125000 -0.125000 -0.500000    0.00024414 121 t-inv F
 -0.625000 -0.250000 -0.125000    0.00024414 121 t-inv F
 -0.125000  0.125000 -0.500000    0.00024414 121 t-inv F
 -0.250000 -0.625000 -0.125000    0.00024414 121 t-inv F
  0.375000  0.500000  0.625000    0.00024414 121 t-inv F
  0.625000  0.500000  0.375000    0.00024414 121 t-inv F
 -0.500000  0.125000 -0.125000    0.00024414 121 t-inv F
 -0.125000 -0.625000 -0.250000    0.00024414 121 t-inv F
 -0.500000 -0.125000  0.125000    0.00024414 121 t-inv F
 -0.125000 -0.250000 -0.625000    0.00024414 121 t-inv F
  0.625000  0.375000  0.500000    0.00024414 121 t-inv F
 -0.375000  0.125000  0.250000    0.00024414 121 t-inv F
  0.250000 -0.375000  0.125000    0.00024414 121 t-inv F
  0.125000  0.250000 -0.375000    0.00024414 121 t-inv F
  0.125000  0.437500  0.312500    0.00024414 122 t-inv F
  0.312500  0.125000  0.437500    0.00024414 122 t-inv F
 -0.312500 -0.187500  0.125000    0.00024414 122 t-inv F
 -0.437500 -0.125000 -0.312500    0.00024414 122 t-inv F
 -0.125000  0.312500  0.187500    0.00024414 122 t-inv F
  0.187500  0.312500 -0.125000    0.00024414 122 t-inv F
  0.125000 -0.187500 -0.312500    0.00024414 122 t-inv F
 -0.312500 -0.125000 -0.437500    0.00024414 122 t-inv F
 -0.312500 -0.437500 -0.125000    0.00024414 122 t-inv F
  0.187500 -0.125000  0.312500    0.00024414 122 t-inv F
  0.125000 -0.312500 -0.187500    0.00024414 122 t-inv F
 -0.125000  0.187500  0.312500    0.00024414 122 t-inv F
 -0.312500  0.125000 -0.187500    0.00024414 122 t-inv F
 -0.437500 -0.312500 -0.125000    0.00024414 122 t-inv F
 -0.125000 -0.312500 -0.437500    0.00024414 122 t-inv F
  0.312500  0.187500 -0.125000    0.00024414 122 t-inv F
 -0.187500  0.125000 -0.312500    0.00024414 122 t-inv F
  0.312500 -0.125000  0.187500    0.00024414 122 t-inv F
 -0.187500 -0.312500  0.125000    0.00024414 122 t-inv F
 -0.125000 -0.437500 -0.312500    0.00024414 122 t-inv F
  0.437500  0.125000  0.312500    0.00024414 122 t-inv F
  0.312500  0.437500  0.125000    0.00024414 122 t-inv F
  0.125000  0.312500  0.437500    0.00024414 122 t-inv F
  0.125000  0.500000  0.312500    0.00024414 123 t-inv F
  0.312500  0.125000  0.500000    0.00024414 123 t-inv F
 -0.312500 -0.187500  0.187500    0.00024414 123 t-inv F
 -0.500000 -0.187500 -0.375000    0.00024414 123 t-inv F
 -0.125000  0.375000  0.187500    0.00024414 123 t-inv F
  0.187500  0.375000 -0.125000    0.00024414 123 t-inv F
  0.187500 -0.187500 -0.312500    0.00024414 123 t-inv F
 -0.375000 -0.187500 -0.500000    0.00024414 123 t-inv F
 -0.375000 -0.500000 -0.187500    0.00024414 123 t-inv F
  0.187500 -0.125000  0.375000    0.00024414 123 t-inv F
  0.187500 -0.312500 -0.187500    0.00024414 123 t-inv F
 -0.125000  0.187500  0.375000    0.00024414 123 t-inv F
 -0.312500  0.187500 -0.187500    0.00024414 123 t-inv F
 -0.500000 -0.375000 -0.187500    0.00024414 123 t-inv F
 -0.187500 -0.375000 -0.500000    0.00024414 123 t-inv F
  0.375000  0.187500 -0.125000    0.00024414 123 t-inv F
 -0.187500  0.187500 -0.312500    0.00024414 123 t-inv F
  0.375000 -0.125000  0.187500    0.00024414 123 t-inv F
 -0.187500 -0.312500  0.187500    0.00024414 123 t-inv F
 -0.187500 -0.500000 -0.375000    0.00024414 123 t-inv F
  0.500000  0.125000  0.312500    0.00024414 123 t-inv F
  0.312500  0.500000  0.125000    0.00024414 123 t-inv F
  0.125000  0.312500  0.500000    0.00024414 123 t-inv F
 -0.500000 -0.312500 -0.125000    0.00024414 123 t-inv F
 -0.125000 -0.500000 -0.312500    0.00024414 123 t-inv F
 -0.312500 -0.125000 -0.500000    0.00024414 123 t-inv F
  0.312500  0.187500 -0.187500    0.00024414 123 t-inv F
  0.500000  0.187500  0.375000    0.00024414 123 t-inv F
  0.125000 -0.375000 -0.187500    0.00024414 123 t-inv F
 -0.187500 -0.375000  0.125000    0.00024414 123 t-inv F
 -0.187500  0.187500  0.312500    0.00024414 123 t-inv F
  0.375000  0.187500  0.500000    0.00024414 123 t-inv F
  0.375000  0.500000  0.187500    0.00024414 123 t-inv F
 -0.187500  0.125000 -0.375000    0.00024414 123 t-inv F
 -0.187500  0.312500  0.187500    0.00024414 123 t-inv F
  0.125000 -0.187500 -0.375000    0.00024414 123 t-inv F
  0.312500 -0.187500  0.187500    0.00024414 123 t-inv F
  0.500000  0.375000  0.187500    0.00024414 123 t-inv F
  0.187500  0.375000  0.500000    0.00024414 123 t-inv F
 -0.375000 -0.187500  0.125000    0.00024414 123 t-inv F
  0.187500 -0.187500  0.312500    0.00024414 123 t-inv F
 -0.375000  0.125000 -0.187500    0.00024414 123 t-inv F
  0.187500  0.312500 -0.187500    0.00024414 123 t-inv F
  0.187500  0.500000  0.375000    0.00024414 123 t-inv F
 -0.500000 -0.125000 -0.312500    0.00024414 123 t-inv F
 -0.312500 -0.500000 -0.125000    0.00024414 123 t-inv F
 -0.125000 -0.312500 -0.500000    0.00024414 123 t-inv F
  0.125000 -0.437500  0.312500    0.00024414 124 t-inv F
  0.312500  0.125000 -0.437500    0.00024414 124 t-inv F
 -0.312500 -0.187500 -0.750000    0.00024414 124 t-inv F
  0.437500  0.750000  0.562500    0.00024414 124 t-inv F
 -0.125000 -0.562500  0.187500    0.00024414 124 t-inv F
  0.187500 -0.562500 -0.125000    0.00024414 124 t-inv F
 -0.750000 -0.187500 -0.312500    0.00024414 124 t-inv F
  0.562500  0.750000  0.437500    0.00024414 124 t-inv F
  0.562500  0.437500  0.750000    0.00024414 124 t-inv F
  0.187500 -0.125000 -0.562500    0.00024414 124 t-inv F
 -0.750000 -0.312500 -0.187500    0.00024414 124 t-inv F
 -0.125000  0.187500 -0.562500    0.00024414 124 t-inv F
 -0.312500 -0.750000 -0.187500    0.00024414 124 t-inv F
  0.437500  0.562500  0.750000    0.00024414 124 t-inv F
  0.750000  0.562500  0.437500    0.00024414 124 t-inv F
 -0.562500  0.187500 -0.125000    0.00024414 124 t-inv F
 -0.187500 -0.750000 -0.312500    0.00024414 124 t-inv F
 -0.562500 -0.125000  0.187500    0.00024414 124 t-inv F
 -0.187500 -0.312500 -0.750000    0.00024414 124 t-inv F
  0.750000  0.437500  0.562500    0.00024414 124 t-inv F
 -0.437500  0.125000  0.312500    0.00024414 124 t-inv F
  0.312500 -0.437500  0.125000    0.00024414 124 t-inv F
  0.125000  0.312500 -0.437500    0.00024414 124 t-inv F
  0.437500 -0.312500 -0.125000    0.00024414 124 t-inv F
 -0.125000  0.437500 -0.312500    0.00024414 124 t-inv F
 -0.312500 -0.125000  0.437500    0.00024414 124 t-inv F
  0.312500  0.187500  0.750000    0.00024414 124 t-inv F
 -0.437500 -0.750000 -0.562500    0.00024414 124 t-inv F
  0.125000  0.562500 -0.187500    0.00024414 124 t-inv F
 -0.187500  0.562500  0.125000    0.00024414 124 t-inv F
  0.750000  0.187500  0.312500    0.00024414 124 t-inv F
 -0.562500 -0.750000 -0.437500    0.00024414 124 t-inv F
 -0.562500 -0.437500 -0.750000    0.00024414 124 t-inv F
 -0.187500  0.125000  0.562500    0.00024414 124 t-inv F
  0.750000  0.312500  0.187500    0.00024414 124 t-inv F
  0.125000 -0.187500  0.562500    0.00024414 124 t-inv F
  0.312500  0.750000  0.187500    0.00024414 124 t-inv F
 -0.437500 -0.562500 -0.750000    0.00024414 124 t-inv F
 -0.750000 -0.562500 -0.437500    0.00024414 124 t-inv F
  0.562500 -0.187500  0.125000    0.00024414 124 t-inv F
  0.187500  0.750000  0.312500    0.00024414 124 t-inv F
  0.562500  0.125000 -0.187500    0.00024414 124 t-inv F
  0.187500  0.312500  0.750000    0.00024414 124 t-inv F
 -0.750000 -0.437500 -0.562500    0.00024414 124 t-inv F
  0.437500 -0.125000 -0.312500    0.00024414 124 t-inv F
 -0.312500  0.437500 -0.125000    0.00024414 124 t-inv F
 -0.125000 -0.312500  0.437500    0.00024414 124 t-inv F
  0.125000 -0.375000  0.312500    0.00024414 125 t-inv F
  0.312500  0.125000 -0.375000    0.00024414 125 t-inv F
 -0.312500 -0.187500 -0.687500    0.00024414 125 t-inv F
  0.375000  0.687500  0.500000    0.00024414 125 t-inv F
 -0.125000 -0.500000  0.187500    0.00024414 125 t-inv F
  0.187500 -0.500000 -0.125000    0.00024414 125 t-inv F
 -0.687500 -0.187500 -0.312500    0.00024414 125 t-inv F
  0.500000  0.687500  0.375000    0.00024414 125 t-inv F
  0.500000  0.375000  0.687500    0.00024414 125 t-inv F
  0.187500 -0.125000 -0.500000    0.00024414 125 t-inv F
 -0.687500 -0.312500 -0.187500    0.00024414 125 t-inv F
 -0.125000  0.187500 -0.500000    0.00024414 125 t-inv F
 -0.312500 -0.687500 -0.187500    0.00024414 125 t-inv F
  0.375000  0.500000  0.687500    0.00024414 125 t-inv F
  0.687500  0.500000  0.375000    0.00024414 125 t-inv F
 -0.500000  0.187500 -0.125000    0.00024414 125 t-inv F
 -0.187500 -0.687500 -0.312500    0.00024414 125 t-inv F
 -0.500000 -0.125000  0.187500    0.00024414 125 t-inv F
 -0.187500 -0.312500 -0.687500    0.00024414 125 t-inv F
  0.687500  0.375000  0.500000    0.00024414 125 t-inv F
 -0.375000  0.125000  0.312500    0.00024414 125 t-inv F
  0.312500 -0.375000  0.125000    0.00024414 125 t-inv F
  0.125000  0.312500 -0.375000    0.00024414 125 t-inv F
  0.375000 -0.312500 -0.125000    0.00024414 125 t-inv F
 -0.125000  0.375000 -0.312500    0.00024414 125 t-inv F
 -0.312500 -0.125000  0.375000    0.00024414 125 t-inv F
  0.312500  0.187500  0.687500    0.00024414 125 t-inv F
 -0.375000 -0.687500 -0.500000    0.00024414 125 t-inv F
  0.125000  0.500000 -0.187500    0.00024414 125 t-inv F
 -0.187500  0.500000  0.125000    0.00024414 125 t-inv F
  0.687500  0.187500  0.312500    0.00024414 125 t-inv F
 -0.500000 -0.687500 -0.375000    0.00024414 125 t-inv F
 -0.500000 -0.375000 -0.687500    0.00024414 125 t-inv F
 -0.187500  0.125000  0.500000    0.00024414 125 t-inv F
  0.687500  0.312500  0.187500    0.00024414 125 t-inv F
  0.125000 -0.187500  0.500000    0.00024414 125 t-inv F
  0.312500  0.687500  0.187500    0.00024414 125 t-inv F
 -0.375000 -0.500000 -0.687500    0.00024414 125 t-inv F
 -0.687500 -0.500000 -0.375000    0.00024414 125 t-inv F
  0.500000 -0.187500  0.125000    0.00024414 125 t-inv F
  0.187500  0.687500  0.312500    0.00024414 125 t-inv F
  0.500000  0.125000 -0.187500    0.00024414 125 t-inv F
  0.187500  0.312500  0.687500    0.00024414 125 t-inv F
 -0.687500 -0.375000 -0.500000    0.00024414 125 t-inv F
  0.375000 -0.125000 -0.312500    0.00024414 125 t-inv F
 -0.312500  0.375000 -0.125000    0.00024414 125 t-inv F
 -0.125000 -0.312500  0.375000    0.00024414 125 t-inv F
  0.125000 -0.312500  0.312500    0.00024414 126 t-inv F
  0.312500  0.125000 -0.312500    0.00024414 126 t-inv F
 -0.312500 -0.187500 -0.625000    0.00024414 126 t-inv F
  0.312500  0.625000  0.437500    0.00024414 126 t-inv F
 -0.125000 -0.437500  0.187500    0.00024414 126 t-inv F
  0.187500 -0.437500 -0.125000    0.00024414 126 t-inv F
 -0.625000 -0.187500 -0.312500    0.00024414 126 t-inv F
  0.437500  0.625000  0.312500    0.00024414 126 t-inv F
  0.437500  0.312500  0.625000    0.00024414 126 t-inv F
  0.187500 -0.125000 -0.437500    0.00024414 126 t-inv F
 -0.625000 -0.312500 -0.187500    0.00024414 126 t-inv F
 -0.125000  0.187500 -0.437500    0.00024414 126 t-inv F
 -0.312500 -0.625000 -0.187500    0.00024414 126 t-inv F
  0.312500  0.437500  0.625000    0.00024414 126 t-inv F
  0.625000  0.437500  0.312500    0.00024414 126 t-inv F
 -0.437500  0.187500 -0.125000    0.00024414 126 t-inv F
 -0.187500 -0.625000 -0.312500    0.00024414 126 t-inv F
 -0.437500 -0.125000  0.187500    0.00024414 126 t-inv F
 -0.187500 -0.312500 -0.625000    0.00024414 126 t-inv F
  0.625000  0.312500  0.437500    0.00024414 126 t-inv F
 -0.312500  0.125000  0.312500    0.00024414 126 t-inv F
  0.312500 -0.312500  0.125000    0.00024414 126 t-inv F
  0.125000  0.312500 -0.312500    0.00024414 126 t-inv F
  0.312500 -0.312500 -0.125000    0.00024414 126 t-inv F
 -0.125000  0.312500 -0.312500    0.00024414 126 t-inv F
 -0.312500 -0.125000  0.312500    0.00024414 126 t-inv F
  0.312500  0.187500  0.625000    0.00024414 126 t-inv F
 -0.312500 -0.625000 -0.437500    0.00024414 126 t-inv F
  0.125000  0.437500 -0.187500    0.00024414 126 t-inv F
 -0.187500  0.437500  0.125000    0.00024414 126 t-inv F
  0.625000  0.187500  0.312500    0.00024414 126 t-inv F
 -0.437500 -0.625000 -0.312500    0.00024414 126 t-inv F
 -0.437500 -0.312500 -0.625000    0.00024414 126 t-inv F
 -0.187500  0.125000  0.437500    0.00024414 126 t-inv F
  0.625000  0.312500  0.187500    0.00024414 126 t-inv F
  0.125000 -0.187500  0.437500    0.00024414 126 t-inv F
  0.312500  0.625000  0.187500    0.00024414 126 t-inv F
 -0.312500 -0.437500 -0.625000    0.00024414 126 t-inv F
 -0.625000 -0.437500 -0.312500    0.00024414 126 t-inv F
  0.437500 -0.187500  0.125000    0.00024414 126 t-inv F
  0.187500  0.625000  0.312500    0.00024414 126 t-inv F
  0.437500  0.125000 -0.187500    0.00024414 126 t-inv F
  0.187500  0.312500  0.625000    0.00024414 126 t-inv F
 -0.625000 -0.312500 -0.437500    0.00024414 126 t-inv F
  0.312500 -0.125000 -0.312500    0.00024414 126 t-inv F
 -0.312500  0.312500 -0.125000    0.00024414 126 t-inv F
 -0.125000 -0.312500  0.312500    0.00024414 126 t-inv F
  0.125000 -0.250000  0.312500    0.00024414 127 t-inv F
  0.312500  0.125000 -0.250000    0.00024414 127 t-inv F
 -0.312500 -0.187500 -0.562500    0.00024414 127 t-inv F
  0.250000  0.562500  0.375000    0.00024414 127 t-inv F
 -0.125000 -0.375000  0.187500    0.00024414 127 t-inv F
  0.187500 -0.375000 -0.125000    0.00024414 127 t-inv F
 -0.562500 -0.187500 -0.312500    0.00024414 127 t-inv F
  0.375000  0.562500  0.250000    0.00024414 127 t-inv F
  0.375000  0.250000  0.562500    0.00024414 127 t-inv F
  0.187500 -0.125000 -0.375000    0.00024414 127 t-inv F
 -0.562500 -0.312500 -0.187500    0.00024414 127 t-inv F
 -0.125000  0.187500 -0.375000    0.00024414 127 t-inv F
 -0.312500 -0.562500 -0.187500    0.00024414 127 t-inv F
  0.250000  0.375000  0.562500    0.00024414 127 t-inv F
  0.562500  0.375000  0.250000    0.00024414 127 t-inv F
 -0.375000  0.187500 -0.125000    0.00024414 127 t-inv F
 -0.187500 -0.562500 -0.312500    0.00024414 127 t-inv F
 -0.375000 -0.125000  0.187500    0.00024414 127 t-inv F
 -0.187500 -0.312500 -0.562500    0.00024414 127 t-inv F
  0.562500  0.250000  0.375000    0.00024414 127 t-inv F
 -0.250000  0.125000  0.312500    0.00024414 127 t-inv F
  0.312500 -0.250000  0.125000    0.00024414 127 t-inv F
  0.125000  0.312500 -0.250000    0.00024414 127 t-inv F
  0.250000 -0.312500 -0.125000    0.00024414 127 t-inv F
 -0.125000  0.250000 -0.312500    0.00024414 127 t-inv F
 -0.312500 -0.125000  0.250000    0.00024414 127 t-inv F
  0.312500  0.187500  0.562500    0.00024414 127 t-inv F
 -0.250000 -0.562500 -0.375000    0.00024414 127 t-inv F
  0.125000  0.375000 -0.187500    0.00024414 127 t-inv F
 -0.187500  0.375000  0.125000    0.00024414 127 t-inv F
  0.562500  0.187500  0.312500    0.00024414 127 t-inv F
 -0.375000 -0.562500 -0.250000    0.00024414 127 t-inv F
 -0.375000 -0.250000 -0.562500    0.00024414 127 t-inv F
 -0.187500  0.125000  0.375000    0.00024414 127 t-inv F
  0.562500  0.312500  0.187500    0.00024414 127 t-inv F
  0.125000 -0.187500  0.375000    0.00024414 127 t-inv F
  0.312500  0.562500  0.187500    0.00024414 127 t-inv F
 -0.250000 -0.375000 -0.562500    0.00024414 127 t-inv F
 -0.562500 -0.375000 -0.250000    0.00024414 127 t-inv F
  0.375000 -0.187500  0.125000    0.00024414 127 t-inv F
  0.187500  0.562500  0.312500    0.00024414 127 t-inv F
  0.375000  0.125000 -0.187500    0.00024414 127 t-inv F
  0.187500  0.312500  0.562500    0.00024414 127 t-inv F
 -0.562500 -0.250000 -0.375000    0.00024414 127 t-inv F
  0.250000 -0.125000 -0.312500    0.00024414 127 t-inv F
 -0.312500  0.250000 -0.125000    0.00024414 127 t-inv F
 -0.125000 -0.312500  0.250000    0.00024414 127 t-inv F
  0.125000 -0.187500  0.312500    0.00024414 128 t-inv F
  0.312500  0.125000 -0.187500    0.00024414 128 t-inv F
 -0.312500 -0.187500 -0.500000    0.00024414 128 t-inv F
  0.187500  0.500000  0.312500    0.00024414 128 t-inv F
 -0.125000 -0.312500  0.187500    0.00024414 128 t-inv F
  0.187500 -0.312500 -0.125000    0.00024414 128 t-inv F
 -0.500000 -0.187500 -0.312500    0.00024414 128 t-inv F
  0.312500  0.500000  0.187500    0.00024414 128 t-inv F
  0.312500  0.187500  0.500000    0.00024414 128 t-inv F
  0.187500 -0.125000 -0.312500    0.00024414 128 t-inv F
 -0.500000 -0.312500 -0.187500    0.00024414 128 t-inv F
 -0.125000  0.187500 -0.312500    0.00024414 128 t-inv F
 -0.312500 -0.500000 -0.187500    0.00024414 128 t-inv F
  0.187500  0.312500  0.500000    0.00024414 128 t-inv F
  0.500000  0.312500  0.187500    0.00024414 128 t-inv F
 -0.312500  0.187500 -0.125000    0.00024414 128 t-inv F
 -0.187500 -0.500000 -0.312500    0.00024414 128 t-inv F
 -0.312500 -0.125000  0.187500    0.00024414 128 t-inv F
 -0.187500 -0.312500 -0.500000    0.00024414 128 t-inv F
  0.500000  0.187500  0.312500    0.00024414 128 t-inv F
 -0.187500  0.125000  0.312500    0.00024414 128 t-inv F
  0.312500 -0.187500  0.125000    0.00024414 128 t-inv F
  0.125000  0.312500 -0.187500    0.00024414 128 t-inv F
  0.125000  0.500000  0.375000    0.00024414 129 t-inv F
  0.375000  0.125000  0.500000    0.00024414 129 t-inv F
 -0.375000 -0.250000  0.125000    0.00024414 129 t-inv F
 -0.500000 -0.125000 -0.375000    0.00024414 129 t-inv F
 -0.125000  0.375000  0.250000    0.00024414 129 t-inv F
  0.250000  0.375000 -0.125000    0.00024414 129 t-inv F
  0.125000 -0.250000 -0.375000    0.00024414 129 t-inv F
 -0.375000 -0.125000 -0.500000    0.00024414 129 t-inv F
 -0.375000 -0.500000 -0.125000    0.00024414 129 t-inv F
  0.250000 -0.125000  0.375000    0.00024414 129 t-inv F
  0.125000 -0.375000 -0.250000    0.00024414 129 t-inv F
 -0.125000  0.250000  0.375000    0.00024414 129 t-inv F
 -0.375000  0.125000 -0.250000    0.00024414 129 t-inv F
 -0.500000 -0.375000 -0.125000    0.00024414 129 t-inv F
 -0.125000 -0.375000 -0.500000    0.00024414 129 t-inv F
  0.375000  0.250000 -0.125000    0.00024414 129 t-inv F
 -0.250000  0.125000 -0.375000    0.00024414 129 t-inv F
  0.375000 -0.125000  0.250000    0.00024414 129 t-inv F
 -0.250000 -0.375000  0.125000    0.00024414 129 t-inv F
 -0.125000 -0.500000 -0.375000    0.00024414 129 t-inv F
  0.500000  0.125000  0.375000    0.00024414 129 t-inv F
  0.375000  0.500000  0.125000    0.00024414 129 t-inv F
  0.125000  0.375000  0.500000    0.00024414 129 t-inv F
  0.125000 -0.437500  0.375000    0.00024414 130 t-inv F
  0.375000  0.125000 -0.437500    0.00024414 130 t-inv F
 -0.375000 -0.250000 -0.812500    0.00024414 130 t-inv F
  0.437500  0.812500  0.562500    0.00024414 130 t-inv F
 -0.125000 -0.562500  0.250000    0.00024414 130 t-inv F
  0.250000 -0.562500 -0.125000    0.00024414 130 t-inv F
 -0.812500 -0.250000 -0.375000    0.00024414 130 t-inv F
  0.562500  0.812500  0.437500    0.00024414 130 t-inv F
  0.562500  0.437500  0.812500    0.00024414 130 t-inv F
  0.250000 -0.125000 -0.562500    0.00024414 130 t-inv F
 -0.812500 -0.375000 -0.250000    0.00024414 130 t-inv F
 -0.125000  0.250000 -0.562500    0.00024414 130 t-inv F
 -0.375000 -0.812500 -0.250000    0.00024414 130 t-inv F
  0.437500  0.562500  0.812500    0.00024414 130 t-inv F
  0.812500  0.562500  0.437500    0.00024414 130 t-inv F
 -0.562500  0.250000 -0.125000    0.00024414 130 t-inv F
 -0.250000 -0.812500 -0.375000    0.00024414 130 t-inv F
 -0.562500 -0.125000  0.250000    0.00024414 130 t-inv F
 -0.250000 -0.375000 -0.812500    0.00024414 130 t-inv F
  0.812500  0.437500  0.562500    0.00024414 130 t-inv F
 -0.437500  0.125000  0.375000    0.00024414 130 t-inv F
  0.375000 -0.437500  0.125000    0.00024414 130 t-inv F
  0.125000  0.375000 -0.437500    0.00024414 130 t-inv F
  0.437500 -0.375000 -0.125000    0.00024414 130 t-inv F
 -0.125000  0.437500 -0.375000    0.00024414 130 t-inv F
 -0.375000 -0.125000  0.437500    0.00024414 130 t-inv F
  0.375000  0.250000  0.812500    0.00024414 130 t-inv F
 -0.437500 -0.812500 -0.562500    0.00024414 130 t-inv F
  0.125000  0.562500 -0.250000    0.00024414 130 t-inv F
 -0.250000  0.562500  0.125000    0.00024414 130 t-inv F
  0.812500  0.250000  0.375000    0.00024414 130 t-inv F
 -0.562500 -0.812500 -0.437500    0.00024414 130 t-inv F
 -0.562500 -0.437500 -0.812500    0.00024414 130 t-inv F
 -0.250000  0.125000  0.562500    0.00024414 130 t-inv F
  0.812500  0.375000  0.250000    0.00024414 130 t-inv F
  0.125000 -0.250000  0.562500    0.00024414 130 t-inv F
  0.375000  0.812500  0.250000    0.00024414 130 t-inv F
 -0.437500 -0.562500 -0.812500    0.00024414 130 t-inv F
 -0.812500 -0.562500 -0.437500    0.00024414 130 t-inv F
  0.562500 -0.250000  0.125000    0.00024414 130 t-inv F
  0.250000  0.812500  0.375000    0.00024414 130 t-inv F
  0.562500  0.125000 -0.250000    0.00024414 130 t-inv F
  0.250000  0.375000  0.812500    0.00024414 130 t-inv F
 -0.812500 -0.437500 -0.562500    0.00024414 130 t-inv F
  0.437500 -0.125000 -0.375000    0.00024414 130 t-inv F
 -0.375000  0.437500 -0.125000    0.00024414 130 t-inv F
 -0.125000 -0.375000  0.437500    0.00024414 130 t-inv F
  0.125000 -0.375000  0.375000    0.00024414 131 t-inv F
  0.375000  0.125000 -0.375000    0.00024414 131 t-inv F
 -0.375000 -0.250000 -0.750000    0.00024414 131 t-inv F
  0.375000  0.750000  0.500000    0.00024414 131 t-inv F
 -0.125000 -0.500000  0.250000    0.00024414 131 t-inv F
  0.250000 -0.500000 -0.125000    0.00024414 131 t-inv F
 -0.750000 -0.250000 -0.375000    0.00024414 131 t-inv F
  0.500000  0.750000  0.375000    0.00024414 131 t-inv F
  0.500000  0.375000  0.750000    0.00024414 131 t-inv F
  0.250000 -0.125000 -0.500000    0.00024414 131 t-inv F
 -0.750000 -0.375000 -0.250000    0.00024414 131 t-inv F
 -0.125000  0.250000 -0.500000    0.00024414 131 t-inv F
 -0.375000 -0.750000 -0.250000    0.00024414 131 t-inv F
  0.375000  0.500000  0.750000    0.00024414 131 t-inv F
  0.750000  0.500000  0.375000    0.00024414 131 t-inv F
 -0.500000  0.250000 -0.125000    0.00024414 131 t-inv F
 -0.250000 -0.750000 -0.375000    0.00024414 131 t-inv F
 -0.500000 -0.125000  0.250000    0.00024414 131 t-inv F
 -0.250000 -0.375000 -0.750000    0.00024414 131 t-inv F
  0.750000  0.375000  0.500000    0.00024414 131 t-inv F
 -0.375000  0.125000  0.375000    0.00024414 131 t-inv F
  0.375000 -0.375000  0.125000    0.00024414 131 t-inv F
  0.125000  0.375000 -0.375000    0.00024414 131 t-inv F
  0.375000 -0.375000 -0.125000    0.00024414 131 t-inv F
 -0.125000  0.375000 -0.375000    0.00024414 131 t-inv F
 -0.375000 -0.125000  0.375000    0.00024414 131 t-inv F
  0.375000  0.250000  0.750000    0.00024414 131 t-inv F
 -0.375000 -0.750000 -0.500000    0.00024414 131 t-inv F
  0.125000  0.500000 -0.250000    0.00024414 131 t-inv F
 -0.250000  0.500000  0.125000    0.00024414 131 t-inv F
  0.750000  0.250000  0.375000    0.00024414 131 t-inv F
 -0.500000 -0.750000 -0.375000    0.00024414 131 t-inv F
 -0.500000 -0.375000 -0.750000    0.00024414 131 t-inv F
 -0.250000  0.125000  0.500000    0.00024414 131 t-inv F
  0.750000  0.375000  0.250000    0.00024414 131 t-inv F
  0.125000 -0.250000  0.500000    0.00024414 131 t-inv F
  0.375000  0.750000  0.250000    0.00024414 131 t-inv F
 -0.375000 -0.500000 -0.750000    0.00024414 131 t-inv F
 -0.750000 -0.500000 -0.375000    0.00024414 131 t-inv F
  0.500000 -0.250000  0.125000    0.00024414 131 t-inv F
  0.250000  0.750000  0.375000    0.00024414 131 t-inv F
  0.500000  0.125000 -0.250000    0.00024414 131 t-inv F
  0.250000  0.375000  0.750000    0.00024414 131 t-inv F
 -0.750000 -0.375000 -0.500000    0.00024414 131 t-inv F
  0.375000 -0.125000 -0.375000    0.00024414 131 t-inv F
 -0.375000  0.375000 -0.125000    0.00024414 131 t-inv F
 -0.125000 -0.375000  0.375000    0.00024414 131 t-inv F
  0.125000 -0.312500  0.375000    0.00024414 132 t-inv F
  0.375000  0.125000 -0.312500    0.00024414 132 t-inv F
 -0.375000 -0.250000 -0.687500    0.00024414 132 t-inv F
  0.312500  0.687500  0.437500    0.00024414 132 t-inv F
 -0.125000 -0.437500  0.250000    0.00024414 132 t-inv F
  0.250000 -0.437500 -0.125000    0.00024414 132 t-inv F
 -0.687500 -0.250000 -0.375000    0.00024414 132 t-inv F
  0.437500  0.687500  0.312500    0.00024414 132 t-inv F
  0.437500  0.312500  0.687500    0.00024414 132 t-inv F
  0.250000 -0.125000 -0.437500    0.00024414 132 t-inv F
 -0.687500 -0.375000 -0.250000    0.00024414 132 t-inv F
 -0.125000  0.250000 -0.437500    0.00024414 132 t-inv F
 -0.375000 -0.687500 -0.250000    0.00024414 132 t-inv F
  0.312500  0.437500  0.687500    0.00024414 132 t-inv F
  0.687500  0.437500  0.312500    0.00024414 132 t-inv F
 -0.437500  0.250000 -0.125000    0.00024414 132 t-inv F
 -0.250000 -0.687500 -0.375000    0.00024414 132 t-inv F
 -0.437500 -0.125000  0.250000    0.00024414 132 t-inv F
 -0.250000 -0.375000 -0.687500    0.00024414 132 t-inv F
  0.687500  0.312500  0.437500    0.00024414 132 t-inv F
 -0.312500  0.125000  0.375000    0.00024414 132 t-inv F
  0.375000 -0.312500  0.125000    0.00024414 132 t-inv F
  0.125000  0.375000 -0.312500    0.00024414 132 t-inv F
  0.312500 -0.375000 -0.125000    0.00024414 132 t-inv F
 -0.125000  0.312500 -0.375000    0.00024414 132 t-inv F
 -0.375000 -0.125000  0.312500    0.00024414 132 t-inv F
  0.375000  0.250000  0.687500    0.00024414 132 t-inv F
 -0.312500 -0.687500 -0.437500    0.00024414 132 t-inv F
  0.125000  0.437500 -0.250000    0.00024414 132 t-inv F
 -0.250000  0.437500  0.125000    0.00024414 132 t-inv F
  0.687500  0.250000  0.375000    0.00024414 132 t-inv F
 -0.437500 -0.687500 -0.312500    0.00024414 132 t-inv F
 -0.437500 -0.312500 -0.687500    0.00024414 132 t-inv F
 -0.250000  0.125000  0.437500    0.00024414 132 t-inv F
  0.687500  0.375000  0.250000    0.00024414 132 t-inv F
  0.125000 -0.250000  0.437500    0.00024414 132 t-inv F
  0.375000  0.687500  0.250000    0.00024414 132 t-inv F
 -0.312500 -0.437500 -0.687500    0.00024414 132 t-inv F
 -0.687500 -0.437500 -0.312500    0.00024414 132 t-inv F
  0.437500 -0.250000  0.125000    0.00024414 132 t-inv F
  0.250000  0.687500  0.375000    0.00024414 132 t-inv F
  0.437500  0.125000 -0.250000    0.00024414 132 t-inv F
  0.250000  0.375000  0.687500    0.00024414 132 t-inv F
 -0.687500 -0.312500 -0.437500    0.00024414 132 t-inv F
  0.312500 -0.125000 -0.375000    0.00024414 132 t-inv F
 -0.375000  0.312500 -0.125000    0.00024414 132 t-inv F
 -0.125000 -0.375000  0.312500    0.00024414 132 t-inv F
  0.125000 -0.250000  0.375000    0.00024414 133 t-inv F
  0.375000  0.125000 -0.250000    0.00024414 133 t-inv F
 -0.375000 -0.250000 -0.625000    0.00024414 133 t-inv F
  0.250000  0.625000  0.375000    0.00024414 133 t-inv F
 -0.125000 -0.375000  0.250000    0.00024414 133 t-inv F
  0.250000 -0.375000 -0.125000    0.00024414 133 t-inv F
 -0.625000 -0.250000 -0.375000    0.00024414 133 t-inv F
  0.375000  0.625000  0.250000    0.00024414 133 t-inv F
  0.375000  0.250000  0.625000    0.00024414 133 t-inv F
  0.250000 -0.125000 -0.375000    0.00024414 133 t-inv F
 -0.625000 -0.375000 -0.250000    0.00024414 133 t-inv F
 -0.125000  0.250000 -0.375000    0.00024414 133 t-inv F
 -0.375000 -0.625000 -0.250000    0.00024414 133 t-inv F
  0.250000  0.375000  0.625000    0.00024414 133 t-inv F
  0.625000  0.375000  0.250000    0.00024414 133 t-inv F
 -0.375000  0.250000 -0.125000    0.00024414 133 t-inv F
 -0.250000 -0.625000 -0.375000    0.00024414 133 t-inv F
 -0.375000 -0.125000  0.250000    0.00024414 133 t-inv F
 -0.250000 -0.375000 -0.625000    0.00024414 133 t-inv F
  0.625000  0.250000  0.375000    0.00024414 133 t-inv F
 -0.250000  0.125000  0.375000    0.00024414 133 t-inv F
  0.375000 -0.250000  0.125000    0.00024414 133 t-inv F
  0.125000  0.375000 -0.250000    0.00024414 133 t-inv F
  0.125000 -0.437500  0.437500    0.00024414 134 t-inv F
  0.437500  0.125000 -0.437500    0.00024414 134 t-inv F
 -0.437500 -0.312500 -0.875000    0.00024414 134 t-inv F
  0.437500  0.875000  0.562500    0.00024414 134 t-inv F
 -0.125000 -0.562500  0.312500    0.00024414 134 t-inv F
  0.312500 -0.562500 -0.125000    0.00024414 134 t-inv F
 -0.875000 -0.312500 -0.437500    0.00024414 134 t-inv F
  0.562500  0.875000  0.437500    0.00024414 134 t-inv F
  0.562500  0.437500  0.875000    0.00024414 134 t-inv F
  0.312500 -0.125000 -0.562500    0.00024414 134 t-inv F
 -0.875000 -0.437500 -0.312500    0.00024414 134 t-inv F
 -0.125000  0.312500 -0.562500    0.00024414 134 t-inv F
 -0.437500 -0.875000 -0.312500    0.00024414 134 t-inv F
  0.437500  0.562500  0.875000    0.00024414 134 t-inv F
  0.875000  0.562500  0.437500    0.00024414 134 t-inv F
 -0.562500  0.312500 -0.125000    0.00024414 134 t-inv F
 -0.312500 -0.875000 -0.437500    0.00024414 134 t-inv F
 -0.562500 -0.125000  0.312500    0.00024414 134 t-inv F
 -0.312500 -0.437500 -0.875000    0.00024414 134 t-inv F
  0.875000  0.437500  0.562500    0.00024414 134 t-inv F
 -0.437500  0.125000  0.437500    0.00024414 134 t-inv F
  0.437500 -0.437500  0.125000    0.00024414 134 t-inv F
  0.125000  0.437500 -0.437500    0.00024414 134 t-inv F
  0.125000 -0.375000  0.437500    0.00024414 135 t-inv F
  0.437500  0.125000 -0.375000    0.00024414 135 t-inv F
 -0.437500 -0.312500 -0.812500    0.00024414 135 t-inv F
  0.375000  0.812500  0.500000    0.00024414 135 t-inv F
 -0.125000 -0.500000  0.312500    0.00024414 135 t-inv F
  0.312500 -0.500000 -0.125000    0.00024414 135 t-inv F
 -0.812500 -0.312500 -0.437500    0.00024414 135 t-inv F
  0.500000  0.812500  0.375000    0.00024414 135 t-inv F
  0.500000  0.375000  0.812500    0.00024414 135 t-inv F
  0.312500 -0.125000 -0.500000    0.00024414 135 t-inv F
 -0.812500 -0.437500 -0.312500    0.00024414 135 t-inv F
 -0.125000  0.312500 -0.500000    0.00024414 135 t-inv F
 -0.437500 -0.812500 -0.312500    0.00024414 135 t-inv F
  0.375000  0.500000  0.812500    0.00024414 135 t-inv F
  0.812500  0.500000  0.375000    0.00024414 135 t-inv F
 -0.500000  0.312500 -0.125000    0.00024414 135 t-inv F
 -0.312500 -0.812500 -0.437500    0.00024414 135 t-inv F
 -0.500000 -0.125000  0.312500    0.00024414 135 t-inv F
 -0.312500 -0.437500 -0.812500    0.00024414 135 t-inv F
  0.812500  0.375000  0.500000    0.00024414 135 t-inv F
 -0.375000  0.125000  0.437500    0.00024414 135 t-inv F
  0.437500 -0.375000  0.125000    0.00024414 135 t-inv F
  0.125000  0.437500 -0.375000    0.00024414 135 t-inv F
  0.375000 -0.437500 -0.125000    0.00024414 135 t-inv F
 -0.125000  0.375000 -0.437500    0.00024414 135 t-inv F
 -0.437500 -0.125000  0.375000    0.00024414 135 t-inv F
  0.437500  0.312500  0.812500    0.00024414 135 t-inv F
 -0.375000 -0.812500 -0.500000    0.00024414 135 t-inv F
  0.125000  0.500000 -0.312500    0.00024414 135 t-inv F
 -0.312500  0.500000  0.125000    0.00024414 135 t-inv F
  0.812500  0.312500  0.437500    0.00024414 135 t-inv F
 -0.500000 -0.812500 -0.375000    0.00024414 135 t-inv F
 -0.500000 -0.375000 -0.812500    0.00024414 135 t-inv F
 -0.312500  0.125000  0.500000    0.00024414 135 t-inv F
  0.812500  0.437500  0.312500    0.00024414 135 t-inv F
  0.125000 -0.312500  0.500000    0.00024414 135 t-inv F
  0.437500  0.812500  0.312500    0.00024414 135 t-inv F
 -0.375000 -0.500000 -0.812500    0.00024414 135 t-inv F
 -0.812500 -0.500000 -0.375000    0.00024414 135 t-inv F
  0.500000 -0.312500  0.125000    0.00024414 135 t-inv F
  0.312500  0.812500  0.437500    0.00024414 135 t-inv F
  0.500000  0.125000 -0.312500    0.00024414 135 t-inv F
  0.312500  0.437500  0.812500    0.00024414 135 t-inv F
 -0.812500 -0.375000 -0.500000    0.00024414 135 t-inv F
  0.375000 -0.125000 -0.437500    0.00024414 135 t-inv F
 -0.437500  0.375000 -0.125000    0.00024414 135 t-inv F
 -0.125000 -0.437500  0.375000    0.00024414 135 t-inv F
  0.125000 -0.312500  0.437500    0.00024414 136 t-inv F
  0.437500  0.125000 -0.312500    0.00024414 136 t-inv F
 -0.437500 -0.312500 -0.750000    0.00024414 136 t-inv F
  0.312500  0.750000  0.437500    0.00024414 136 t-inv F
 -0.125000 -0.437500  0.312500    0.00024414 136 t-inv F
  0.312500 -0.437500 -0.125000    0.00024414 136 t-inv F
 -0.750000 -0.312500 -0.437500    0.00024414 136 t-inv F
  0.437500  0.750000  0.312500    0.00024414 136 t-inv F
  0.437500  0.312500  0.750000    0.00024414 136 t-inv F
  0.312500 -0.125000 -0.437500    0.00024414 136 t-inv F
 -0.750000 -0.437500 -0.312500    0.00024414 136 t-inv F
 -0.125000  0.312500 -0.437500    0.00024414 136 t-inv F
 -0.437500 -0.750000 -0.312500    0.00024414 136 t-inv F
  0.312500  0.437500  0.750000    0.00024414 136 t-inv F
  0.750000  0.437500  0.312500    0.00024414 136 t-inv F
 -0.437500  0.312500 -0.125000    0.00024414 136 t-inv F
 -0.312500 -0.750000 -0.437500    0.00024414 136 t-inv F
 -0.437500 -0.125000  0.312500    0.00024414 136 t-inv F
 -0.312500 -0.437500 -0.750000    0.00024414 136 t-inv F
  0.750000  0.312500  0.437500    0.00024414 136 t-inv F
 -0.312500  0.125000  0.437500    0.00024414 136 t-inv F
  0.437500 -0.312500  0.125000    0.00024414 136 t-inv F
  0.125000  0.437500 -0.312500    0.00024414 136 t-inv F
  0.125000 -0.375000  0.500000    0.00024414 137 t-inv F
  0.500000  0.125000 -0.375000    0.00024414 137 t-inv F
 -0.500000 -0.375000 -0.875000    0.00024414 137 t-inv F
  0.375000  0.875000  0.500000    0.00024414 137 t-inv F
 -0.125000 -0.500000  0.375000    0.00024414 137 t-inv F
  0.375000 -0.500000 -0.125000    0.00024414 137 t-inv F
  0.500000  0.875000  0.375000    0.00024414 137 t-inv F
  0.500000  0.375000  0.875000    0.00024414 137 t-inv F
 -0.875000 -0.500000 -0.375000    0.00024414 137 t-inv F
 -0.125000  0.375000 -0.500000    0.00024414 137 t-inv F
 -0.375000 -0.875000 -0.500000    0.00024414 137 t-inv F
  0.187500 -0.437500  0.375000    0.00024414 138 t-inv F
  0.375000  0.187500 -0.437500    0.00024414 138 t-inv F
 -0.375000 -0.187500 -0.812500    0.00024414 138 t-inv F
  0.437500  0.812500  0.625000    0.00024414 138 t-inv F
 -0.187500 -0.625000  0.187500    0.00024414 138 t-inv F
  0.187500 -0.625000 -0.187500    0.00024414 138 t-inv F
 -0.812500 -0.187500 -0.375000    0.00024414 138 t-inv F
  0.625000  0.812500  0.437500    0.00024414 138 t-inv F
  0.625000  0.437500  0.812500    0.00024414 138 t-inv F
  0.187500 -0.187500 -0.625000    0.00024414 138 t-inv F
 -0.812500 -0.375000 -0.187500    0.00024414 138 t-inv F
 -0.187500  0.187500 -0.625000    0.00024414 138 t-inv F
 -0.375000 -0.812500 -0.187500    0.00024414 138 t-inv F
  0.437500  0.625000  0.812500    0.00024414 138 t-inv F
  0.812500  0.625000  0.437500    0.00024414 138 t-inv F
 -0.625000  0.187500 -0.187500    0.00024414 138 t-inv F
 -0.187500 -0.812500 -0.375000    0.00024414 138 t-inv F
 -0.625000 -0.187500  0.187500    0.00024414 138 t-inv F
 -0.187500 -0.375000 -0.812500    0.00024414 138 t-inv F
  0.812500  0.437500  0.625000    0.00024414 138 t-inv F
 -0.437500  0.187500  0.375000    0.00024414 138 t-inv F
  0.375000 -0.437500  0.187500    0.00024414 138 t-inv F
  0.187500  0.375000 -0.437500    0.00024414 138 t-inv F
  0.187500 -0.375000  0.375000    0.00024414 139 t-inv F
  0.375000  0.187500 -0.375000    0.00024414 139 t-inv F
 -0.375000 -0.187500 -0.750000    0.00024414 139 t-inv F
  0.375000  0.750000  0.562500    0.00024414 139 t-inv F
 -0.187500 -0.562500  0.187500    0.00024414 139 t-inv F
  0.187500 -0.562500 -0.187500    0.00024414 139 t-inv F
 -0.750000 -0.187500 -0.375000    0.00024414 139 t-inv F
  0.562500  0.750000  0.375000    0.00024414 139 t-inv F
  0.562500  0.375000  0.750000    0.00024414 139 t-inv F
  0.187500 -0.187500 -0.562500    0.00024414 139 t-inv F
 -0.750000 -0.375000 -0.187500    0.00024414 139 t-inv F
 -0.187500  0.187500 -0.562500    0.00024414 139 t-inv F
 -0.375000 -0.750000 -0.187500    0.00024414 139 t-inv F
  0.375000  0.562500  0.750000    0.00024414 139 t-inv F
  0.750000  0.562500  0.375000    0.00024414 139 t-inv F
 -0.562500  0.187500 -0.187500    0.00024414 139 t-inv F
 -0.187500 -0.750000 -0.375000    0.00024414 139 t-inv F
 -0.562500 -0.187500  0.187500    0.00024414 139 t-inv F
 -0.187500 -0.375000 -0.750000    0.00024414 139 t-inv F
  0.750000  0.375000  0.562500    0.00024414 139 t-inv F
 -0.375000  0.187500  0.375000    0.00024414 139 t-inv F
  0.375000 -0.375000  0.187500    0.00024414 139 t-inv F
  0.187500  0.375000 -0.375000    0.00024414 139 t-inv F
  0.375000 -0.375000 -0.187500    0.00024414 139 t-inv F
 -0.187500  0.375000 -0.375000    0.00024414 139 t-inv F
 -0.375000 -0.187500  0.375000    0.00024414 139 t-inv F
  0.375000  0.187500  0.750000    0.00024414 139 t-inv F
 -0.375000 -0.750000 -0.562500    0.00024414 139 t-inv F
  0.187500  0.562500 -0.187500    0.00024414 139 t-inv F
 -0.187500  0.562500  0.187500    0.00024414 139 t-inv F
  0.750000  0.187500  0.375000    0.00024414 139 t-inv F
 -0.562500 -0.750000 -0.375000    0.00024414 139 t-inv F
 -0.562500 -0.375000 -0.750000    0.00024414 139 t-inv F
 -0.187500  0.187500  0.562500    0.00024414 139 t-inv F
  0.750000  0.375000  0.187500    0.00024414 139 t-inv F
  0.187500 -0.187500  0.562500    0.00024414 139 t-inv F
  0.375000  0.750000  0.187500    0.00024414 139 t-inv F
 -0.375000 -0.562500 -0.750000    0.00024414 139 t-inv F
 -0.750000 -0.562500 -0.375000    0.00024414 139 t-inv F
  0.562500 -0.187500  0.187500    0.00024414 139 t-inv F
  0.187500  0.750000  0.375000    0.00024414 139 t-inv F
  0.562500  0.187500 -0.187500    0.00024414 139 t-inv F
  0.187500  0.375000  0.750000    0.00024414 139 t-inv F
 -0.750000 -0.375000 -0.562500    0.00024414 139 t-inv F
  0.375000 -0.187500 -0.375000    0.00024414 139 t-inv F
 -0.375000  0.375000 -0.187500    0.00024414 139 t-inv F
 -0.187500 -0.375000  0.375000    0.00024414 139 t-inv F
  0.187500 -0.312500  0.375000    0.00024414 140 t-inv F
  0.375000  0.187500 -0.312500    0.00024414 140 t-inv F
 -0.375000 -0.187500 -0.687500    0.00024414 140 t-inv F
  0.312500  0.687500  0.500000    0.00024414 140 t-inv F
 -0.187500 -0.500000  0.187500    0.00024414 140 t-inv F
  0.187500 -0.500000 -0.187500    0.00024414 140 t-inv F
 -0.687500 -0.187500 -0.375000    0.00024414 140 t-inv F
  0.500000  0.687500  0.312500    0.00024414 140 t-inv F
  0.500000  0.312500  0.687500    0.00024414 140 t-inv F
  0.187500 -0.187500 -0.500000    0.00024414 140 t-inv F
 -0.687500 -0.375000 -0.187500    0.00024414 140 t-inv F
 -0.187500  0.187500 -0.500000    0.00024414 140 t-inv F
 -0.375000 -0.687500 -0.187500    0.00024414 140 t-inv F
  0.312500  0.500000  0.687500    0.00024414 140 t-inv F
  0.687500  0.500000  0.312500    0.00024414 140 t-inv F
 -0.500000  0.187500 -0.187500    0.00024414 140 t-inv F
 -0.187500 -0.687500 -0.375000    0.00024414 140 t-inv F
 -0.500000 -0.187500  0.187500    0.00024414 140 t-inv F
 -0.187500 -0.375000 -0.687500    0.00024414 140 t-inv F
  0.687500  0.312500  0.500000    0.00024414 140 t-inv F
 -0.312500  0.187500  0.375000    0.00024414 140 t-inv F
  0.375000 -0.312500  0.187500    0.00024414 140 t-inv F
  0.187500  0.375000 -0.312500    0.00024414 140 t-inv F
  0.187500 -0.375000  0.437500    0.00024414 141 t-inv F
  0.437500  0.187500 -0.375000    0.00024414 141 t-inv F
 -0.437500 -0.250000 -0.812500    0.00024414 141 t-inv F
  0.375000  0.812500  0.562500    0.00024414 141 t-inv F
 -0.187500 -0.562500  0.250000    0.00024414 141 t-inv F
  0.250000 -0.562500 -0.187500    0.00024414 141 t-inv F
 -0.812500 -0.250000 -0.437500    0.00024414 141 t-inv F
  0.562500  0.812500  0.375000    0.00024414 141 t-inv F
  0.562500  0.375000  0.812500    0.00024414 141 t-inv F
  0.250000 -0.187500 -0.562500    0.00024414 141 t-inv F
 -0.812500 -0.437500 -0.250000    0.00024414 141 t-inv F
 -0.187500  0.250000 -0.562500    0.00024414 141 t-inv F
 -0.437500 -0.812500 -0.250000    0.00024414 141 t-inv F
  0.375000  0.562500  0.812500    0.00024414 141 t-inv F
  0.812500  0.562500  0.375000    0.00024414 141 t-inv F
 -0.562500  0.250000 -0.187500    0.00024414 141 t-inv F
 -0.250000 -0.812500 -0.437500    0.00024414 141 t-inv F
 -0.562500 -0.187500  0.250000    0.00024414 141 t-inv F
 -0.250000 -0.437500 -0.812500    0.00024414 141 t-inv F
  0.812500  0.375000  0.562500    0.00024414 141 t-inv F
 -0.375000  0.187500  0.437500    0.00024414 141 t-inv F
  0.437500 -0.375000  0.187500    0.00024414 141 t-inv F
  0.187500  0.437500 -0.375000    0.00024414 141 t-inv F
  0.187500 -0.312500  0.437500    0.00024414 142 t-inv F
  0.437500  0.187500 -0.312500    0.00024414 142 t-inv F
 -0.437500 -0.250000 -0.750000    0.00024414 142 t-inv F
  0.312500  0.750000  0.500000    0.00024414 142 t-inv F
 -0.187500 -0.500000  0.250000    0.00024414 142 t-inv F
  0.250000 -0.500000 -0.187500    0.00024414 142 t-inv F
 -0.750000 -0.250000 -0.437500    0.00024414 142 t-inv F
  0.500000  0.750000  0.312500    0.00024414 142 t-inv F
  0.500000  0.312500  0.750000    0.00024414 142 t-inv F
  0.250000 -0.187500 -0.500000    0.00024414 142 t-inv F
 -0.750000 -0.437500 -0.250000    0.00024414 142 t-inv F
 -0.187500  0.250000 -0.500000    0.00024414 142 t-inv F
 -0.437500 -0.750000 -0.250000    0.00024414 142 t-inv F
  0.312500  0.500000  0.750000    0.00024414 142 t-inv F
  0.750000  0.500000  0.312500    0.00024414 142 t-inv F
 -0.500000  0.250000 -0.187500    0.00024414 142 t-inv F
 -0.250000 -0.750000 -0.437500    0.00024414 142 t-inv F
 -0.500000 -0.187500  0.250000    0.00024414 142 t-inv F
 -0.250000 -0.437500 -0.750000    0.00024414 142 t-inv F
  0.750000  0.312500  0.500000    0.00024414 142 t-inv F
 -0.312500  0.187500  0.437500    0.00024414 142 t-inv F
  0.437500 -0.312500  0.187500    0.00024414 142 t-inv F
  0.187500  0.437500 -0.312500    0.00024414 142 t-inv F
  0.312500 -0.437500 -0.187500    0.00024414 142 t-inv F
 -0.187500  0.312500 -0.437500    0.00024414 142 t-inv F
 -0.437500 -0.187500  0.312500    0.00024414 142 t-inv F
  0.437500  0.250000  0.750000    0.00024414 142 t-inv F
 -0.312500 -0.750000 -0.500000    0.00024414 142 t-inv F
  0.187500  0.500000 -0.250000    0.00024414 142 t-inv F
 -0.250000  0.500000  0.187500    0.00024414 142 t-inv F
  0.750000  0.250000  0.437500    0.00024414 142 t-inv F
 -0.500000 -0.750000 -0.312500    0.00024414 142 t-inv F
 -0.500000 -0.312500 -0.750000    0.00024414 142 t-inv F
 -0.250000  0.187500  0.500000    0.00024414 142 t-inv F
  0.750000  0.437500  0.250000    0.00024414 142 t-inv F
  0.187500 -0.250000  0.500000    0.00024414 142 t-inv F
  0.437500  0.750000  0.250000    0.00024414 142 t-inv F
 -0.312500 -0.500000 -0.750000    0.00024414 142 t-inv F
 -0.750000 -0.500000 -0.312500    0.00024414 142 t-inv F
  0.500000 -0.250000  0.187500    0.00024414 142 t-inv F
  0.250000  0.750000  0.437500    0.00024414 142 t-inv F
  0.500000  0.187500 -0.250000    0.00024414 142 t-inv F
  0.250000  0.437500  0.750000    0.00024414 142 t-inv F
 -0.750000 -0.312500 -0.500000    0.00024414 142 t-inv F
  0.312500 -0.187500 -0.437500    0.00024414 142 t-inv F
 -0.437500  0.312500 -0.187500    0.00024414 142 t-inv F
 -0.187500 -0.437500  0.312500    0.00024414 142 t-inv F
  0.187500 -0.250000  0.437500    0.00024414 143 t-inv F
  0.437500  0.187500 -0.250000    0.00024414 143 t-inv F
 -0.437500 -0.250000 -0.687500    0.00024414 143 t-inv F
  0.250000  0.687500  0.437500    0.00024414 143 t-inv F
 -0.187500 -0.437500  0.250000    0.00024414 143 t-inv F
  0.250000 -0.437500 -0.187500    0.00024414 143 t-inv F
 -0.687500 -0.250000 -0.437500    0.00024414 143 t-inv F
  0.437500  0.687500  0.250000    0.00024414 143 t-inv F
  0.437500  0.250000  0.687500    0.00024414 143 t-inv F
  0.250000 -0.187500 -0.437500    0.00024414 143 t-inv F
 -0.687500 -0.437500 -0.250000    0.00024414 143 t-inv F
 -0.187500  0.250000 -0.437500    0.00024414 143 t-inv F
 -0.437500 -0.687500 -0.250000    0.00024414 143 t-inv F
  0.250000  0.437500  0.687500    0.00024414 143 t-inv F
  0.687500  0.437500  0.250000    0.00024414 143 t-inv F
 -0.437500  0.250000 -0.187500    0.00024414 143 t-inv F
 -0.250000 -0.687500 -0.437500    0.00024414 143 t-inv F
 -0.437500 -0.187500  0.250000    0.00024414 143 t-inv F
 -0.250000 -0.437500 -0.687500    0.00024414 143 t-inv F
  0.687500  0.250000  0.437500    0.00024414 143 t-inv F
 -0.250000  0.187500  0.437500    0.00024414 143 t-inv F
  0.437500 -0.250000  0.187500    0.00024414 143 t-inv F
  0.187500  0.437500 -0.250000    0.00024414 143 t-inv F
  0.187500 -0.312500  0.500000    0.00024414 144 t-inv F
  0.500000  0.187500 -0.312500    0.00024414 144 t-inv F
 -0.500000 -0.312500 -0.812500    0.00024414 144 t-inv F
  0.312500  0.812500  0.500000    0.00024414 144 t-inv F
 -0.187500 -0.500000  0.312500    0.00024414 144 t-inv F
  0.312500 -0.500000 -0.187500    0.00024414 144 t-inv F
  0.500000  0.812500  0.312500    0.00024414 144 t-inv F
  0.500000  0.312500  0.812500    0.00024414 144 t-inv F
 -0.812500 -0.500000 -0.312500    0.00024414 144 t-inv F
 -0.187500  0.312500 -0.500000    0.00024414 144 t-inv F
 -0.312500 -0.812500 -0.500000    0.00024414 144 t-inv F
  0.250000 -0.250000  0.500000    0.00024414 145 t-inv F
  0.500000  0.250000 -0.250000    0.00024414 145 t-inv F
 -0.500000 -0.250000 -0.750000    0.00024414 145 t-inv F
  0.250000 -0.500000 -0.250000    0.00024414 145 t-inv F
 -0.250000  0.250000 -0.500000    0.00024414 145 t-inv F


--------------------------------------------------------------------------------------------------------




 Dimension of arrays:
   k-points           NKPTS =    145   k-points in BZ     NKDIM =    145   number of bands    NBANDS=     12
   number of dos      NEDOS =    301   number of ions     NIONS =      2
   non local maximal  LDIM  =      4   non local SUM 2l+1 LMDIM =      8
   total plane-waves  NPLWV =   4096
   max r-space proj   IRMAX =      1   max aug-charges    IRDMAX=  34457
   dimension x,y,z NGX =    16 NGY =   16 NGZ =   16
   dimension x,y,z NGXF=    32 NGYF=   32 NGZF=   32
   support grid    NGXF=    64 NGYF=   64 NGZF=   64
   ions per type =               2
   NGX,Y,Z   is equivalent  to a cutoff of  10.56, 10.56, 10.56 a.u.
   NGXF,Y,Z  is equivalent  to a cutoff of  21.13, 21.13, 21.13 a.u.

 SYSTEM =  unknown system                          
 POSCAR =  Generated by VASPKIT code               

 Startparameter for this run:
   NWRITE =      2    write-flag & timer
   PREC   = accura    normal or accurate (medium, high low for compatibility)
   ISTART =      1    job   : 0-new  1-cont  2-samecut
   ICHARG =      0    charge: 1-file 2-atom 10-const
   ISPIN  =      1    spin polarized calculation?
   LNONCOLLINEAR =      F non collinear calculations
   LSORBIT =      F    spin-orbit coupling
   INIWAV =      1    electr: 0-lowe 1-rand  2-diag
   LASPH  =      T    aspherical Exc in radial PAW
 Electronic Relaxation 1
   ENCUT  =  400.0 eV  29.40 Ry    5.42 a.u.   4.11  4.11  4.11*2*pi/ulx,y,z
   ENINI  =  400.0     initial cutoff
   ENAUG  =  644.9 eV  augmentation charge cutoff
   NELM   =    200;   NELMIN=  2; NELMDL=  0     # of ELM steps 
   EDIFF  = 0.1E-07   stopping-criterion for ELM
   LREAL  =      F    real-space projection
   NLSPLINE    = F    spline interpolate recip. space projectors
   LCOMPAT=      F    compatible to vasp.4.4
   GGA_COMPAT  = T    GGA compatible to vasp.4.4-vasp.4.6
   LMAXPAW     = -100 max onsite density
   LMAXMIX     =    2 max onsite mixed and CHGCAR
   VOSKOWN=      0    Vosko Wilk Nusair interpolation
   ROPT   =    0.00000
 Ionic relaxation
   EDIFFG = 0.1E-06   stopping-criterion for IOM
   NSW    =      0    number of steps for IOM
   NBLOCK =      1;   KBLOCK =      1    inner block; outer block 
   IBRION =     -1    ionic relax: 0-MD 1-quasi-New 2-CG
   NFREE  =      0    steps in history (QN), initial steepest desc. (CG)
   ISIF   =      2    stress and relaxation
   IWAVPR =     10    prediction:  0-non 1-charg 2-wave 3-comb
   ISYM   =      2    0-nonsym 1-usesym 2-fastsym
   LCORR  =      T    Harris-Foulkes like correction to forces

   POTIM  = 0.5000    time-step for ionic-motion
   TEIN   =    0.0    initial temperature
   TEBEG  =    0.0;   TEEND  =   0.0 temperature during run
   SMASS  =  -3.00    Nose mass-parameter (am)
   estimated Nose-frequenzy (Omega)   =  0.10E-29 period in steps = 0.13E+47 mass=  -0.145E-27a.u.
   SCALEE = 1.0000    scale energy and forces
   NPACO  =    256;   APACO  = 10.0  distance and # of slots for P.C.
   PSTRESS=    0.0 pullay stress

  Mass of Ions in am
   POMASS =  12.01
  Ionic Valenz
   ZVAL   =   4.00
  Atomic Wigner-Seitz radii
   RWIGS  =  -1.00
  virtual crystal weights 
   VCA    =   1.00
   NELECT =       8.0000    total number of electrons
   NUPDOWN=      -1.0000    fix difference up-down

 DOS related values:
   EMIN   =  10.00;   EMAX   =-10.00  energy-range for DOS
   EFERMI =   0.00;   METHOD = LEGACY      
   ISMEAR =     0;   SIGMA  =   0.05  broadening in eV -4-tet -1-fermi 0-gaus

 Electronic relaxation 2 (details)
   IALGO  =     38    algorithm
   LDIAG  =      T    sub-space diagonalisation (order eigenvalues)
   LSUBROT=      F    optimize rotation matrix (better conditioning)
   TURBO    =      0    0=normal 1=particle mesh
   IRESTART =      0    0=no restart 2=restart with 2 vectors
   NREBOOT  =      0    no. of reboots
   NMIN     =      0    reboot dimension
   EREF     =   0.00    reference energy to select bands
   IMIX   =      4    mixing-type and parameters
     AMIX     =   0.40;   BMIX     =  1.00
     AMIX_MAG =   1.60;   BMIX_MAG =  1.00
     AMIN     =   0.10
     WC   =   100.;   INIMIX=   1;  MIXPRE=   1;  MAXMIX= -45

 Intra band minimization:
   WEIMIN = 0.0000     energy-eigenvalue tresh-hold
   EBREAK =  0.21E-09  absolut break condition
   DEPER  =   0.30     relativ break condition  

   TIME   =   0.40     timestep for ELM

  volume/ion in A,a.u.               =       5.64        38.08
  Fermi-wavevector in a.u.,A,eV,Ry     =   1.459656  2.758350 28.988525  2.130596
  Thomas-Fermi vector in A             =   2.576198
 
 Write flags
   LWAVE        =      T    write WAVECAR
   LDOWNSAMPLE  =      F    k-point downsampling of WAVECAR
   LCHARG       =      T    write CHGCAR
   LVTOT        =      F    write LOCPOT, total local potential
   LVHAR        =      F    write LOCPOT, Hartree potential only
   LELF         =      F    write electronic localiz. function (ELF)
   LORBIT       =     11    0 simple, 1 ext, 2 COOP (PROOUT), +10 PAW based schemes


 Dipole corrections
   LMONO  =      F    monopole corrections only (constant potential shift)
   LDIPOL =      F    correct potential (dipole corrections)
   IDIPOL =      0    1-x, 2-y, 3-z, 4-all directions 
   EPSILON=  1.0000000 bulk dielectric constant

 Exchange correlation treatment:
   GGA     =    --    GGA type
   LEXCH   =     8    internal setting for exchange type
   LIBXC   =     F    Libxc                    
   VOSKOWN =     0    Vosko Wilk Nusair interpolation
   LHFCALC =     F    Hartree Fock is set to
   LHFONE  =     F    Hartree Fock one center treatment
   AEXX    =    0.0000 exact exchange contribution

 Linear response parameters
   LEPSILON=     F    determine dielectric tensor
   LRPA    =     F    only Hartree local field effects (RPA)
   LNABLA  =     F    use nabla operator in PAW spheres
   LVEL    =     F    velocity operator in full k-point grid
   CSHIFT  =0.1000    complex shift for real part using Kramers Kronig
   OMEGAMAX=  -1.0    maximum frequency
   DEG_THRESHOLD= 0.2000000E-02 threshold for treating states as degnerate
   RTIME   =   -0.100 relaxation time in fs
  (WPLASMAI=    0.000 imaginary part of plasma frequency in eV, 0.658/RTIME)
   DFIELD  = 0.0000000 0.0000000 0.0000000 field for delta impulse in time
 
  Optional k-point grid parameters
   LKPOINTS_OPT  =     F    use optional k-point grid
   KPOINTS_OPT_MODE=     1    mode for optional k-point grid
 
 Orbital magnetization related:
   ORBITALMAG=     F  switch on orbital magnetization
   LCHIMAG   =     F  perturbation theory with respect to B field
   DQ        =  0.001000  dq finite difference perturbation B field
   LLRAUG    =     F  two centre corrections for induced B field
   LBONE     =     F  B-component reconstruction in AE one-centre
   LVGVCALC  =     T  calculate vGv susceptibility
   LVGVAPPL  =     F  apply vGv susceptibility instead of pGv for G=0

 Random number generation:
   RANDOM_GENERATOR = DEFAULT
   PCG_SEED         = not used


--------------------------------------------------------------------------------------------------------


 Static calculation
 charge density and potential will be updated during run
 non-spin polarized calculation
 Variant of blocked Davidson
 Davidson routine will perform the subspace rotation
 perform sub-space diagonalisation
    after iterative eigenvector-optimisation
 modified Broyden-mixing scheme, WC =      100.0
 initial mixing is a Kerker type mixing with AMIX =  0.4000 and BMIX =      1.0000
 Hartree-type preconditioning will be used
 using additional bands            8
 reciprocal scheme for non local part
 use partial core corrections
 calculate Harris-corrections to forces 
   (improved forces if not selfconsistent)
 use gradient corrections 
 use of overlap-Matrix (Vanderbilt PP)
 Gauss-broadening in eV      SIGMA  =   0.05


--------------------------------------------------------------------------------------------------------


  energy-cutoff  :      400.00
  volume of cell :       11.29
      direct lattice vectors                 reciprocal lattice vectors
     0.000000000  1.780372555  1.780372555    -0.280840096  0.280840096  0.280840096
     1.780372555  0.000000000  1.780372555     0.280840096 -0.280840096  0.280840096
     1.780372555  1.780372555  0.000000000     0.280840096  0.280840096 -0.280840096

  length of vectors
     2.517827013  2.517827013  2.517827013     0.486429316  0.486429316  0.486429316


 
 old parameters found on file WAVECAR:
  energy-cutoff  :      400.00
  volume of cell :       11.29
      direct lattice vectors                 reciprocal lattice vectors
     0.000000000  1.780372555  1.780372555    -0.280840096  0.280840096  0.280840096
     1.780372555  0.000000000  1.780372555     0.280840096 -0.280840096  0.280840096
     1.780372555  1.780372555  0.000000000     0.280840096  0.280840096 -0.280840096

  length of vectors

 
 k-points in units of 2pi/SCALE and weight: K-Spacing Value to Generate K-Mesh: 0.03
   0.00000000  0.00000000  0.00000000       0.000
  -0.01755251  0.01755251  0.01755251       0.002
  -0.03510501  0.03510501  0.03510501       0.002
  -0.05265752  0.05265752  0.05265752       0.002
  -0.07021002  0.07021002  0.07021002       0.002
  -0.08776253  0.08776253  0.08776253       0.002
  -0.10531504  0.10531504  0.10531504       0.002
  -0.12286754  0.12286754  0.12286754       0.002
  -0.14042005  0.14042005  0.14042005       0.001
   0.00000000  0.00000000  0.03510501       0.001
  -0.01755251  0.01755251  0.05265752       0.006
  -0.03510501  0.03510501  0.07021002       0.006
  -0.05265752  0.05265752  0.08776253       0.006
  -0.07021002  0.07021002  0.10531504       0.006
  -0.08776253  0.08776253  0.12286754       0.006
  -0.10531504  0.10531504  0.14042005       0.006
  -0.12286754  0.12286754  0.15797255       0.006
   0.14042005 -0.14042005 -0.10531504       0.006
   0.12286754 -0.12286754 -0.08776253       0.006
   0.10531504 -0.10531504 -0.07021002       0.006
   0.08776253 -0.08776253 -0.05265752       0.006
   0.07021002 -0.07021002 -0.03510501       0.006
   0.05265752 -0.05265752 -0.01755251       0.006
   0.03510501 -0.03510501  0.00000000       0.003
   0.00000000  0.00000000  0.07021002       0.001
  -0.01755251  0.01755251  0.08776253       0.006
  -0.03510501  0.03510501  0.10531504       0.006
  -0.05265752  0.05265752  0.12286754       0.006
  -0.07021002  0.07021002  0.14042005       0.006
  -0.08776253  0.08776253  0.15797255       0.006
  -0.10531504  0.10531504  0.17552506       0.006
   0.15797255 -0.15797255 -0.08776253       0.006
   0.14042005 -0.14042005 -0.07021002       0.006
   0.12286754 -0.12286754 -0.05265752       0.006
   0.10531504 -0.10531504 -0.03510501       0.006
   0.08776253 -0.08776253 -0.01755251       0.006
   0.07021002 -0.07021002  0.00000000       0.003
   0.00000000  0.00000000  0.10531504       0.001
  -0.01755251  0.01755251  0.12286754       0.006
  -0.03510501  0.03510501  0.14042005       0.006
  -0.05265752  0.05265752  0.15797255       0.006
  -0.07021002  0.07021002  0.17552506       0.006
  -0.08776253  0.08776253  0.19307757       0.006
   0.17552506 -0.17552506 -0.07021002       0.006
   0.15797255 -0.15797255 -0.05265752       0.006
   0.14042005 -0.14042005 -0.03510501       0.006
   0.12286754 -0.12286754 -0.01755251       0.006
   0.10531504 -0.10531504  0.00000000       0.003
   0.00000000  0.00000000  0.14042005       0.001
  -0.01755251  0.01755251  0.15797255       0.006
  -0.03510501  0.03510501  0.17552506       0.006
  -0.05265752  0.05265752  0.19307757       0.006
  -0.07021002  0.07021002  0.21063007       0.006
   0.19307757 -0.19307757 -0.05265752       0.006
   0.17552506 -0.17552506 -0.03510501       0.006
   0.15797255 -0.15797255 -0.01755251       0.006
   0.14042005 -0.14042005  0.00000000       0.003
   0.00000000  0.00000000  0.17552506       0.001
  -0.01755251  0.01755251  0.19307757       0.006
  -0.03510501  0.03510501  0.21063007       0.006
  -0.05265752  0.05265752  0.22818258       0.006
   0.21063007 -0.21063007 -0.03510501       0.006
   0.19307757 -0.19307757 -0.01755251       0.006
   0.17552506 -0.17552506  0.00000000       0.003
   0.00000000  0.00000000  0.21063007       0.001
  -0.01755251  0.01755251  0.22818258       0.006
  -0.03510501  0.03510501  0.24573508       0.006
   0.22818258 -0.22818258 -0.01755251       0.006
   0.21063007 -0.21063007  0.00000000       0.003
   0.00000000  0.00000000  0.24573508       0.001
  -0.01755251  0.01755251  0.26328759       0.006
   0.24573508 -0.24573508  0.00000000       0.003
   0.00000000  0.00000000  0.28084010       0.001
   0.00000000  0.03510501  0.07021002       0.006
  -0.01755251  0.05265752  0.08776253       0.012
  -0.03510501  0.07021002  0.10531504       0.012
  -0.05265752  0.08776253  0.12286754       0.012
  -0.07021002  0.10531504  0.14042005       0.012
  -0.08776253  0.12286754  0.15797255       0.012
   0.17552506 -0.14042005 -0.10531504       0.006
   0.00000000  0.03510501  0.10531504       0.006
  -0.01755251  0.05265752  0.12286754       0.012
  -0.03510501  0.07021002  0.14042005       0.012
  -0.05265752  0.08776253  0.15797255       0.012
  -0.07021002  0.10531504  0.17552506       0.012
   0.19307757 -0.15797255 -0.08776253       0.012
   0.17552506 -0.14042005 -0.07021002       0.012
   0.15797255 -0.12286754 -0.05265752       0.012
   0.14042005 -0.10531504 -0.03510501       0.012
   0.12286754 -0.08776253 -0.01755251       0.012
   0.10531504 -0.07021002  0.00000000       0.006
   0.00000000  0.03510501  0.14042005       0.006
  -0.01755251  0.05265752  0.15797255       0.012
  -0.03510501  0.07021002  0.17552506       0.012
  -0.05265752  0.08776253  0.19307757       0.012
   0.21063007 -0.17552506 -0.07021002       0.012
   0.19307757 -0.15797255 -0.05265752       0.012
   0.17552506 -0.14042005 -0.03510501       0.012
   0.15797255 -0.12286754 -0.01755251       0.012
   0.14042005 -0.10531504  0.00000000       0.006
   0.00000000  0.03510501  0.17552506       0.006
  -0.01755251  0.05265752  0.19307757       0.012
  -0.03510501  0.07021002  0.21063007       0.012
   0.22818258 -0.19307757 -0.05265752       0.012
   0.21063007 -0.17552506 -0.03510501       0.012
   0.19307757 -0.15797255 -0.01755251       0.012
   0.17552506 -0.14042005  0.00000000       0.006
   0.00000000  0.03510501  0.21063007       0.006
  -0.01755251  0.05265752  0.22818258       0.012
   0.24573508 -0.21063007 -0.03510501       0.012
   0.22818258 -0.19307757 -0.01755251       0.012
   0.21063007 -0.17552506  0.00000000       0.006
   0.00000000  0.03510501  0.24573508       0.006
   0.26328759 -0.22818258 -0.01755251       0.012
   0.24573508 -0.21063007  0.00000000       0.006
   0.28084010 -0.24573508  0.00000000       0.003
   0.00000000  0.07021002  0.14042005       0.006
  -0.01755251  0.08776253  0.15797255       0.012
  -0.03510501  0.10531504  0.17552506       0.012
   0.22818258 -0.15797255 -0.08776253       0.012
   0.21063007 -0.14042005 -0.07021002       0.006
   0.00000000  0.07021002  0.17552506       0.006
  -0.01755251  0.08776253  0.19307757       0.012
   0.24573508 -0.17552506 -0.07021002       0.012
   0.22818258 -0.15797255 -0.05265752       0.012
   0.21063007 -0.14042005 -0.03510501       0.012
   0.19307757 -0.12286754 -0.01755251       0.012
   0.17552506 -0.10531504  0.00000000       0.006
   0.00000000  0.07021002  0.21063007       0.006
   0.26328759 -0.19307757 -0.05265752       0.012
   0.24573508 -0.17552506 -0.03510501       0.012
   0.22818258 -0.15797255 -0.01755251       0.012
   0.21063007 -0.14042005  0.00000000       0.006
   0.28084010 -0.21063007 -0.03510501       0.006
   0.26328759 -0.19307757 -0.01755251       0.012
   0.24573508 -0.17552506  0.00000000       0.006
   0.28084010 -0.21063007  0.00000000       0.003
   0.28084010 -0.17552506 -0.07021002       0.006
   0.26328759 -0.15797255 -0.05265752       0.012
   0.24573508 -0.14042005 -0.03510501       0.006
   0.28084010 -0.17552506 -0.03510501       0.006
   0.26328759 -0.15797255 -0.01755251       0.012
   0.24573508 -0.14042005  0.00000000       0.006
   0.28084010 -0.17552506  0.00000000       0.003
   0.28084010 -0.14042005  0.00000000       0.001
 
 k-points in reciprocal lattice and weights: K-Spacing Value to Generate K-Mesh: 0.03
   0.00000000  0.00000000  0.00000000       0.000
   0.06250000  0.00000000  0.00000000       0.002
   0.12500000  0.00000000  0.00000000       0.002
   0.18750000  0.00000000  0.00000000       0.002
   0.25000000  0.00000000  0.00000000       0.002
   0.31250000  0.00000000  0.00000000       0.002
   0.37500000  0.00000000  0.00000000       0.002
   0.43750000  0.00000000  0.00000000       0.002
   0.50000000  0.00000000  0.00000000       0.001
   0.06250000  0.06250000  0.00000000       0.001
   0.12500000  0.06250000  0.00000000       0.006
   0.18750000  0.06250000  0.00000000       0.006
   0.25000000  0.06250000  0.00000000       0.006
   0.31250000  0.06250000  0.00000000       0.006
   0.37500000  0.06250000  0.00000000       0.006
   0.43750000  0.06250000  0.00000000       0.006
   0.50000000  0.06250000  0.00000000       0.006
  -0.43750000  0.06250000  0.00000000       0.006
  -0.37500000  0.06250000  0.00000000       0.006
  -0.31250000  0.06250000  0.00000000       0.006
  -0.25000000  0.06250000  0.00000000       0.006
  -0.18750000  0.06250000  0.00000000       0.006
  -0.12500000  0.06250000  0.00000000       0.006
  -0.06250000  0.06250000  0.00000000       0.003
   0.12500000  0.12500000  0.00000000       0.001
   0.18750000  0.12500000  0.00000000       0.006
   0.25000000  0.12500000  0.00000000       0.006
   0.31250000  0.12500000  0.00000000       0.006
   0.37500000  0.12500000  0.00000000       0.006
   0.43750000  0.12500000  0.00000000       0.006
   0.50000000  0.12500000  0.00000000       0.006
  -0.43750000  0.12500000  0.00000000       0.006
  -0.37500000  0.12500000  0.00000000       0.006
  -0.31250000  0.12500000  0.00000000       0.006
  -0.25000000  0.12500000  0.00000000       0.006
  -0.18750000  0.12500000  0.00000000       0.006
  -0.12500000  0.12500000  0.00000000       0.003
   0.18750000  0.18750000  0.00000000       0.001
   0.25000000  0.18750000  0.00000000       0.006
   0.31250000  0.18750000  0.00000000       0.006
   0.37500000  0.18750000  0.00000000       0.006
   0.43750000  0.18750000  0.00000000       0.006
   0.50000000  0.18750000  0.00000000       0.006
  -0.43750000  0.18750000  0.00000000       0.006
  -0.37500000  0.18750000  0.00000000       0.006
  -0.31250000  0.18750000  0.00000000       0.006
  -0.25000000  0.18750000  0.00000000       0.006
  -0.18750000  0.18750000  0.00000000       0.003
   0.25000000  0.25000000  0.00000000       0.001
   0.31250000  0.25000000  0.00000000       0.006
   0.37500000  0.25000000  0.00000000       0.006
   0.43750000  0.25000000  0.00000000       0.006
   0.50000000  0.25000000  0.00000000       0.006
  -0.43750000  0.25000000  0.00000000       0.006
  -0.37500000  0.25000000  0.00000000       0.006
  -0.31250000  0.25000000  0.00000000       0.006
  -0.25000000  0.25000000  0.00000000       0.003
   0.31250000  0.31250000  0.00000000       0.001
   0.37500000  0.31250000  0.00000000       0.006
   0.43750000  0.31250000  0.00000000       0.006
   0.50000000  0.31250000  0.00000000       0.006
  -0.43750000  0.31250000  0.00000000       0.006
  -0.37500000  0.31250000  0.00000000       0.006
  -0.31250000  0.31250000  0.00000000       0.003
   0.37500000  0.37500000  0.00000000       0.001
   0.43750000  0.37500000  0.00000000       0.006
   0.50000000  0.37500000  0.00000000       0.006
  -0.43750000  0.37500000  0.00000000       0.006
  -0.37500000  0.37500000  0.00000000       0.003
   0.43750000  0.43750000  0.00000000       0.001
   0.50000000  0.43750000  0.00000000       0.006
  -0.43750000  0.43750000  0.00000000       0.003
   0.50000000  0.50000000  0.00000000       0.001
   0.18750000  0.12500000  0.06250000       0.006
   0.25000000  0.12500000  0.06250000       0.012
   0.31250000  0.12500000  0.06250000       0.012
   0.37500000  0.12500000  0.06250000       0.012
   0.43750000  0.12500000  0.06250000       0.012
   0.50000000  0.12500000  0.06250000       0.012
  -0.43750000  0.12500000  0.06250000       0.006
   0.25000000  0.18750000  0.06250000       0.006
   0.31250000  0.18750000  0.06250000       0.012
   0.37500000  0.18750000  0.06250000       0.012
   0.43750000  0.18750000  0.06250000       0.012
   0.50000000  0.18750000  0.06250000       0.012
  -0.43750000  0.18750000  0.06250000       0.012
  -0.37500000  0.18750000  0.06250000       0.012
  -0.31250000  0.18750000  0.06250000       0.012
  -0.25000000  0.18750000  0.06250000       0.012
  -0.18750000  0.18750000  0.06250000       0.012
  -0.12500000  0.18750000  0.06250000       0.006
   0.31250000  0.25000000  0.06250000       0.006
   0.37500000  0.25000000  0.06250000       0.012
   0.43750000  0.25000000  0.06250000       0.012
   0.50000000  0.25000000  0.06250000       0.012
  -0.43750000  0.25000000  0.06250000       0.012
  -0.37500000  0.25000000  0.06250000       0.012
  -0.31250000  0.25000000  0.06250000       0.012
  -0.25000000  0.25000000  0.06250000       0.012
  -0.18750000  0.25000000  0.06250000       0.006
   0.37500000  0.31250000  0.06250000       0.006
   0.43750000  0.31250000  0.06250000       0.012
   0.50000000  0.31250000  0.06250000       0.012
  -0.43750000  0.31250000  0.06250000       0.012
  -0.37500000  0.31250000  0.06250000       0.012
  -0.31250000  0.31250000  0.06250000       0.012
  -0.25000000  0.31250000  0.06250000       0.006
   0.43750000  0.37500000  0.06250000       0.006
   0.50000000  0.37500000  0.06250000       0.012
  -0.43750000  0.37500000  0.06250000       0.012
  -0.37500000  0.37500000  0.06250000       0.012
  -0.31250000  0.37500000  0.06250000       0.006
   0.50000000  0.43750000  0.06250000       0.006
  -0.43750000  0.43750000  0.06250000       0.012
  -0.37500000  0.43750000  0.06250000       0.006
  -0.43750000  0.50000000  0.06250000       0.003
   0.37500000  0.25000000  0.12500000       0.006
   0.43750000  0.25000000  0.12500000       0.012
   0.50000000  0.25000000  0.12500000       0.012
  -0.43750000  0.25000000  0.12500000       0.012
  -0.37500000  0.25000000  0.12500000       0.006
   0.43750000  0.31250000  0.12500000       0.006
   0.50000000  0.31250000  0.12500000       0.012
  -0.43750000  0.31250000  0.12500000       0.012
  -0.37500000  0.31250000  0.12500000       0.012
  -0.31250000  0.31250000  0.12500000       0.012
  -0.25000000  0.31250000  0.12500000       0.012
  -0.18750000  0.31250000  0.12500000       0.006
   0.50000000  0.37500000  0.12500000       0.006
  -0.43750000  0.37500000  0.12500000       0.012
  -0.37500000  0.37500000  0.12500000       0.012
  -0.31250000  0.37500000  0.12500000       0.012
  -0.25000000  0.37500000  0.12500000       0.006
  -0.43750000  0.43750000  0.12500000       0.006
  -0.37500000  0.43750000  0.12500000       0.012
  -0.31250000  0.43750000  0.12500000       0.006
  -0.37500000  0.50000000  0.12500000       0.003
  -0.43750000  0.37500000  0.18750000       0.006
  -0.37500000  0.37500000  0.18750000       0.012
  -0.31250000  0.37500000  0.18750000       0.006
  -0.37500000  0.43750000  0.18750000       0.006
  -0.31250000  0.43750000  0.18750000       0.012
  -0.25000000  0.43750000  0.18750000       0.006
  -0.31250000  0.50000000  0.18750000       0.003
  -0.25000000  0.50000000  0.25000000       0.001
 
 position of ions in fractional coordinates (direct lattice) 
   0.50000000  0.50000000  0.50000000
   0.75000000  0.75000000  0.75000000
 
 position of ions in cartesian coordinates  (Angst):
   1.78037255  1.78037255  1.78037255
   2.67055883  2.67055883  2.67055883
 


--------------------------------------------------------------------------------------------------------


 k-point   1 :   0.0000 0.0000 0.0000  plane waves:     181
 k-point   2 :   0.0625 0.0000 0.0000  plane waves:     181
 k-point   3 :   0.1250 0.0000 0.0000  plane waves:     193
 k-point   4 :   0.1875 0.0000 0.0000  plane waves:     193
 k-point   5 :   0.2500 0.0000 0.0000  plane waves:     205
 k-point   6 :   0.3125 0.0000 0.0000  plane waves:     205
 k-point   7 :   0.3750 0.0000 0.0000  plane waves:     204
 k-point   8 :   0.4375 0.0000 0.0000  plane waves:     210
 k-point   9 :   0.5000 0.0000 0.0000  plane waves:     210
 k-point  10 :   0.0625 0.0625 0.0000  plane waves:     181
 k-point  11 :   0.1250 0.0625 0.0000  plane waves:     193
 k-point  12 :   0.1875 0.0625 0.0000  plane waves:     200
 k-point  13 :   0.2500 0.0625 0.0000  plane waves:     200
 k-point  14 :   0.3125 0.0625 0.0000  plane waves:     204
 k-point  15 :   0.3750 0.0625 0.0000  plane waves:     204
 k-point  16 :   0.4375 0.0625 0.0000  plane waves:     205
 k-point  17 :   0.5000 0.0625 0.0000  plane waves:     210
 k-point  18 :  -0.4375 0.0625 0.0000  plane waves:     208
 k-point  19 :  -0.3750 0.0625 0.0000  plane waves:     204
 k-point  20 :  -0.3125 0.0625 0.0000  plane waves:     203
 k-point  21 :  -0.2500 0.0625 0.0000  plane waves:     202
 k-point  22 :  -0.1875 0.0625 0.0000  plane waves:     198
 k-point  23 :  -0.1250 0.0625 0.0000  plane waves:     196
 k-point  24 :  -0.0625 0.0625 0.0000  plane waves:     188
 k-point  25 :   0.1250 0.1250 0.0000  plane waves:     194
 k-point  26 :   0.1875 0.1250 0.0000  plane waves:     196
 k-point  27 :   0.2500 0.1250 0.0000  plane waves:     198
 k-point  28 :   0.3125 0.1250 0.0000  plane waves:     202
 k-point  29 :   0.3750 0.1250 0.0000  plane waves:     206
 k-point  30 :   0.4375 0.1250 0.0000  plane waves:     204
 k-point  31 :   0.5000 0.1250 0.0000  plane waves:     206
 k-point  32 :  -0.4375 0.1250 0.0000  plane waves:     206
 k-point  33 :  -0.3750 0.1250 0.0000  plane waves:     206
 k-point  34 :  -0.3125 0.1250 0.0000  plane waves:     205
 k-point  35 :  -0.2500 0.1250 0.0000  plane waves:     204
 k-point  36 :  -0.1875 0.1250 0.0000  plane waves:     202
 k-point  37 :  -0.1250 0.1250 0.0000  plane waves:     200
 k-point  38 :   0.1875 0.1875 0.0000  plane waves:     202
 k-point  39 :   0.2500 0.1875 0.0000  plane waves:     205
 k-point  40 :   0.3125 0.1875 0.0000  plane waves:     200
 k-point  41 :   0.3750 0.1875 0.0000  plane waves:     205
 k-point  42 :   0.4375 0.1875 0.0000  plane waves:     202
 k-point  43 :   0.5000 0.1875 0.0000  plane waves:     205
 k-point  44 :  -0.4375 0.1875 0.0000  plane waves:     206
 k-point  45 :  -0.3750 0.1875 0.0000  plane waves:     207
 k-point  46 :  -0.3125 0.1875 0.0000  plane waves:     205
 k-point  47 :  -0.2500 0.1875 0.0000  plane waves:     206
 k-point  48 :  -0.1875 0.1875 0.0000  plane waves:     200
 k-point  49 :   0.2500 0.2500 0.0000  plane waves:     202
 k-point  50 :   0.3125 0.2500 0.0000  plane waves:     207
 k-point  51 :   0.3750 0.2500 0.0000  plane waves:     209
 k-point  52 :   0.4375 0.2500 0.0000  plane waves:     206
 k-point  53 :   0.5000 0.2500 0.0000  plane waves:     211
 k-point  54 :  -0.4375 0.2500 0.0000  plane waves:     208
 k-point  55 :  -0.3750 0.2500 0.0000  plane waves:     208
 k-point  56 :  -0.3125 0.2500 0.0000  plane waves:     204
 k-point  57 :  -0.2500 0.2500 0.0000  plane waves:     210
 k-point  58 :   0.3125 0.3125 0.0000  plane waves:     206
 k-point  59 :   0.3750 0.3125 0.0000  plane waves:     205
 k-point  60 :   0.4375 0.3125 0.0000  plane waves:     208
 k-point  61 :   0.5000 0.3125 0.0000  plane waves:     209
 k-point  62 :  -0.4375 0.3125 0.0000  plane waves:     210
 k-point  63 :  -0.3750 0.3125 0.0000  plane waves:     214
 k-point  64 :  -0.3125 0.3125 0.0000  plane waves:     208
 k-point  65 :   0.3750 0.3750 0.0000  plane waves:     206
 k-point  66 :   0.4375 0.3750 0.0000  plane waves:     207
 k-point  67 :   0.5000 0.3750 0.0000  plane waves:     209
 k-point  68 :  -0.4375 0.3750 0.0000  plane waves:     210
 k-point  69 :  -0.3750 0.3750 0.0000  plane waves:     208
 k-point  70 :   0.4375 0.4375 0.0000  plane waves:     206
 k-point  71 :   0.5000 0.4375 0.0000  plane waves:     208
 k-point  72 :  -0.4375 0.4375 0.0000  plane waves:     208
 k-point  73 :   0.5000 0.5000 0.0000  plane waves:     206
 k-point  74 :   0.1875 0.1250 0.0625  plane waves:     197
 k-point  75 :   0.2500 0.1250 0.0625  plane waves:     200
 k-point  76 :   0.3125 0.1250 0.0625  plane waves:     202
 k-point  77 :   0.3750 0.1250 0.0625  plane waves:     203
 k-point  78 :   0.4375 0.1250 0.0625  plane waves:     206
 k-point  79 :   0.5000 0.1250 0.0625  plane waves:     206
 k-point  80 :  -0.4375 0.1250 0.0625  plane waves:     204
 k-point  81 :   0.2500 0.1875 0.0625  plane waves:     204
 k-point  82 :   0.3125 0.1875 0.0625  plane waves:     201
 k-point  83 :   0.3750 0.1875 0.0625  plane waves:     204
 k-point  84 :   0.4375 0.1875 0.0625  plane waves:     204
 k-point  85 :   0.5000 0.1875 0.0625  plane waves:     206
 k-point  86 :  -0.4375 0.1875 0.0625  plane waves:     205
 k-point  87 :  -0.3750 0.1875 0.0625  plane waves:     208
 k-point  88 :  -0.3125 0.1875 0.0625  plane waves:     206
 k-point  89 :  -0.2500 0.1875 0.0625  plane waves:     206
 k-point  90 :  -0.1875 0.1875 0.0625  plane waves:     205
 k-point  91 :  -0.1250 0.1875 0.0625  plane waves:     204
 k-point  92 :   0.3125 0.2500 0.0625  plane waves:     208
 k-point  93 :   0.3750 0.2500 0.0625  plane waves:     206
 k-point  94 :   0.4375 0.2500 0.0625  plane waves:     206
 k-point  95 :   0.5000 0.2500 0.0625  plane waves:     204
 k-point  96 :  -0.4375 0.2500 0.0625  plane waves:     205
 k-point  97 :  -0.3750 0.2500 0.0625  plane waves:     206
 k-point  98 :  -0.3125 0.2500 0.0625  plane waves:     206
 k-point  99 :  -0.2500 0.2500 0.0625  plane waves:     206
 k-point 100 :  -0.1875 0.2500 0.0625  plane waves:     205
 k-point 101 :   0.3750 0.3125 0.0625  plane waves:     210
 k-point 102 :   0.4375 0.3125 0.0625  plane waves:     207
 k-point 103 :   0.5000 0.3125 0.0625  plane waves:     205
 k-point 104 :  -0.4375 0.3125 0.0625  plane waves:     208
 k-point 105 :  -0.3750 0.3125 0.0625  plane waves:     204
 k-point 106 :  -0.3125 0.3125 0.0625  plane waves:     205
 k-point 107 :  -0.2500 0.3125 0.0625  plane waves:     204
 k-point 108 :   0.4375 0.3750 0.0625  plane waves:     208
 k-point 109 :   0.5000 0.3750 0.0625  plane waves:     206
 k-point 110 :  -0.4375 0.3750 0.0625  plane waves:     205
 k-point 111 :  -0.3750 0.3750 0.0625  plane waves:     207
 k-point 112 :  -0.3125 0.3750 0.0625  plane waves:     211
 k-point 113 :   0.5000 0.4375 0.0625  plane waves:     204
 k-point 114 :  -0.4375 0.4375 0.0625  plane waves:     207
 k-point 115 :  -0.3750 0.4375 0.0625  plane waves:     207
 k-point 116 :  -0.4375 0.5000 0.0625  plane waves:     210
 k-point 117 :   0.3750 0.2500 0.1250  plane waves:     204
 k-point 118 :   0.4375 0.2500 0.1250  plane waves:     205
 k-point 119 :   0.5000 0.2500 0.1250  plane waves:     204
 k-point 120 :  -0.4375 0.2500 0.1250  plane waves:     203
 k-point 121 :  -0.3750 0.2500 0.1250  plane waves:     200
 k-point 122 :   0.4375 0.3125 0.1250  plane waves:     206
 k-point 123 :   0.5000 0.3125 0.1250  plane waves:     205
 k-point 124 :  -0.4375 0.3125 0.1250  plane waves:     205
 k-point 125 :  -0.3750 0.3125 0.1250  plane waves:     205
 k-point 126 :  -0.3125 0.3125 0.1250  plane waves:     204
 k-point 127 :  -0.2500 0.3125 0.1250  plane waves:     204
 k-point 128 :  -0.1875 0.3125 0.1250  plane waves:     207
 k-point 129 :   0.5000 0.3750 0.1250  plane waves:     207
 k-point 130 :  -0.4375 0.3750 0.1250  plane waves:     205
 k-point 131 :  -0.3750 0.3750 0.1250  plane waves:     208
 k-point 132 :  -0.3125 0.3750 0.1250  plane waves:     207
 k-point 133 :  -0.2500 0.3750 0.1250  plane waves:     203
 k-point 134 :  -0.4375 0.4375 0.1250  plane waves:     208
 k-point 135 :  -0.3750 0.4375 0.1250  plane waves:     209
 k-point 136 :  -0.3125 0.4375 0.1250  plane waves:     208
 k-point 137 :  -0.3750 0.5000 0.1250  plane waves:     206
 k-point 138 :  -0.4375 0.3750 0.1875  plane waves:     206
 k-point 139 :  -0.3750 0.3750 0.1875  plane waves:     207
 k-point 140 :  -0.3125 0.3750 0.1875  plane waves:     208
 k-point 141 :  -0.3750 0.4375 0.1875  plane waves:     208
 k-point 142 :  -0.3125 0.4375 0.1875  plane waves:     206
 k-point 143 :  -0.2500 0.4375 0.1875  plane waves:     204
 k-point 144 :  -0.3125 0.5000 0.1875  plane waves:     204
 k-point 145 :  -0.2500 0.5000 0.2500  plane waves:     208

 maximum and minimum number of plane-waves per node :       214      181

 maximum number of plane-waves:       214
 maximum index in each direction: 
   IXMAX=    4   IYMAX=    4   IZMAX=    4
   IXMIN=   -4   IYMIN=   -4   IZMIN=   -4


 serial   3D FFT for wavefunctions
 parallel 3D FFT for charge:
    minimum data exchange during FFTs selected (reduces bandwidth)


 total amount of memory used by VASP MPI-rank0    33360. kBytes
=======================================================================

   base      :      30000. kBytes
   nonl-proj :       2011. kBytes
   fftplans  :        466. kBytes
   grid      :        321. kBytes
   one-center:          6. kBytes
   wavefun   :        556. kBytes
 
     INWAV:  cpu time      0.0235: real time      0.0237
 Broyden mixing: mesh for mixing (old mesh)
   NGX =  9   NGY =  9   NGZ =  9
  (NGX  = 32   NGY  = 32   NGZ  = 32)
  gives a total of    729 points

 charge density for first step will be calculated from the start-wavefunctions


--------------------------------------------------------------------------------------------------------


 Maximum index for augmentation-charges         3285 (set IRDMAX)


--------------------------------------------------------------------------------------------------------


 initial charge from wavefunction
 First call to EWALD:  gamma=   0.790
 Maximum number of real-space cells 3x 3x 3
 Maximum number of reciprocal cells 3x 3x 3

    FEWALD:  cpu time      0.0005: real time      0.0005


--------------------------------------- Ionic step        1  -------------------------------------------




--------------------------------------- Iteration      1(   1)  ---------------------------------------


    POTLOK:  cpu time      0.0018: real time      0.0019
    SETDIJ:  cpu time      0.0524: real time      0.0526
     EDDAV:  cpu time      0.0939: real time      0.0945
       DOS:  cpu time      0.0004: real time      0.0004
    CHARGE:  cpu time      0.0044: real time      0.0044
    MIXING:  cpu time      0.0002: real time      0.0002
    --------------------------------------------
      LOOP:  cpu time      0.1531: real time      0.1540

 eigenvalue-minimisations  :  1764
 total energy-change (2. order) :-0.1819200E+02  (-0.1751008E-12)
 number of electron       8.0000000 magnetization 
 augmentation part        0.1888897 magnetization 

 Broyden mixing:
  rms(total) = 0.73253E-05    rms(broyden)= 0.10742E-06
  rms(prec ) = 0.30650E-06
  weight for this iteration     100.00
  WARNING: grid for Broyden might be to small

 Free energy of the ion-electron system (eV)
  ---------------------------------------------------
  alpha Z        PSCENC =        29.11303816
  Ewald energy   TEWEN  =      -348.55062700
  -Hartree energ DENC   =       -26.30000618
  -exchange      EXHF   =         0.00000000
  -V(xc)+E(xc)   XCENC  =        28.24360298
  PAW double counting   =       794.86118942     -796.18327582
  entropy T*S    EENTRO =        -0.00000000
  eigenvalues    EBANDS =         6.36963340
  atomic energy  EATOM  =       294.25444774
  Solvation  Ediel_sol  =         0.00000000
  ---------------------------------------------------
  free energy    TOTEN  =       -18.19199729 eV

  energy without entropy =      -18.19199729  energy(sigma->0) =      -18.19199729


--------------------------------------------------------------------------------------------------------




--------------------------------------- Iteration      1(   2)  ---------------------------------------


    POTLOK:  cpu time      0.0019: real time      0.0020
    SETDIJ:  cpu time      0.0523: real time      0.0524
     EDDAV:  cpu time      0.0852: real time      0.0858
       DOS:  cpu time      0.0003: real time      0.0003
    --------------------------------------------
      LOOP:  cpu time      0.1397: real time      0.1405

 eigenvalue-minimisations  :  1812
 total energy-change (2. order) : 0.6025402E-11  (-0.2481893E-13)
 number of electron       8.0000000 magnetization 
 augmentation part        0.1888897 magnetization 

 Free energy of the ion-electron system (eV)
  ---------------------------------------------------
  alpha Z        PSCENC =        29.11303816
  Ewald energy   TEWEN  =      -348.55062700
  -Hartree energ DENC   =       -26.30000542
  -exchange      EXHF   =         0.00000000
  -V(xc)+E(xc)   XCENC  =        28.24360292
  PAW double counting   =       794.86121677     -796.18330314
  entropy T*S    EENTRO =        -0.00000000
  eigenvalues    EBANDS =         6.36963269
  atomic energy  EATOM  =       294.25444774
  Solvation  Ediel_sol  =         0.00000000
  ---------------------------------------------------
  free energy    TOTEN  =       -18.19199729 eV

  energy without entropy =      -18.19199729  energy(sigma->0) =      -18.19199729


--------------------------------------------------------------------------------------------------------




 average (electrostatic) potential at core
  the test charge radii are     0.6991
  (the norm of the test charge is              1.0000)
       1 -45.3350       2 -45.3350
 
 
 
 E-fermi :  10.1860     XC(G=0): -13.2761     alpha+bet :-17.7597

 Fermi energy:        10.1860420204

 k-point     1 :       0.0000    0.0000    0.0000
  band No.  band energies     occupation 
      1     -11.7457      2.00000
      2       9.8230      2.00000
      3       9.8230      2.00000
      4       9.8230      2.00000
      5      15.4254      0.00000
      6      15.4254      0.00000
      7      15.4254      0.00000
      8      23.2426      0.00000
      9      29.1649      0.00000
     10      36.4009      0.00000
     11      36.4009      0.00000
     12      37.4240      0.00000

 k-point     2 :       0.0625    0.0000    0.0000
  band No.  band energies     occupation 
      1     -11.6372      2.00000
      2       9.0832      2.00000
      3       9.6322      2.00000
      4       9.6322      2.00000
      5      15.6762      0.00000
      6      15.6762      0.00000
      7      15.8763      0.00000
      8      23.3403      0.00000
      9      29.3567      0.00000
     10      34.8235      0.00000
     11      34.8235      0.00000
     12      36.9895      0.00000

 k-point     3 :       0.1250    0.0000    0.0000
  band No.  band energies     occupation 
      1     -11.3121      2.00000
      2       7.3788      2.00000
      3       9.1618      2.00000
      4       9.1618      2.00000
      5      16.2913      0.00000
      6      16.2913      0.00000
      7      16.7202      0.00000
      8      23.6092      0.00000
      9      29.8230      0.00000
     10      33.3334      0.00000
     11      33.3334      0.00000
     12      36.1725      0.00000

 k-point     4 :       0.1875    0.0000    0.0000
  band No.  band energies     occupation 
      1     -10.7730      2.00000
      2       5.3280      2.00000
      3       8.5990      2.00000
      4       8.5990      2.00000
      5      17.0193      0.00000
      6      17.0193      0.00000
      7      17.4677      0.00000
      8      24.0389      0.00000
      9      30.3167      0.00000
     10      32.4415      0.00000
     11      32.4415      0.00000
     12      35.5795      0.00000

 k-point     5 :       0.2500    0.0000    0.0000
  band No.  band energies     occupation 
      1     -10.0245      2.00000
      2       3.1833      2.00000
      3       8.0541      2.00000
      4       8.0541      2.00000
      5      17.6282      0.00000
      6      17.6282      0.00000
      7      17.9976      0.00000
      8      24.5304      0.00000
      9      30.6029      0.00000
     10      32.2495      0.00000
     11      32.2495      0.00000
     12      35.3768      0.00000

 k-point     6 :       0.3125    0.0000    0.0000
  band No.  band energies     occupation 
      1      -9.0763      2.00000
      2       1.0752      2.00000
      3       7.6026      2.00000
      4       7.6026      2.00000
      5      18.0314      0.00000
      6      18.0314      0.00000
      7      18.3443      0.00000
      8      25.0038      0.00000
      9      30.7754      0.00000
     10      32.7787      0.00000
     11      32.7787      0.00000
     12      35.2850      0.00000

 k-point     7 :       0.3750    0.0000    0.0000
  band No.  band energies     occupation 
      1      -7.9506      2.00000
      2      -0.9121      2.00000
      3       7.2676      2.00000
      4       7.2676      2.00000
      5      18.2234      0.00000
      6      18.2235      0.00000
      7      18.5581      0.00000
      8      25.3464      0.00000
      9      31.0802      0.00000
     10      33.8868      0.00000
     11      33.8868      0.00000
     12      34.9657      0.00000

 k-point     8 :       0.4375    0.0000    0.0000
  band No.  band energies     occupation 
      1      -6.7280      2.00000
      2      -2.6645      2.00000
      3       7.0623      2.00000
      4       7.0623      2.00000
      5      18.2803      0.00000
      6      18.2803      0.00000
      7      18.6749      0.00000
      8      25.5208      0.00000
      9      31.5322      0.00000
     10      34.4183      0.00000
     11      35.1806      0.00000
     12      35.1806      0.00000

 k-point     9 :       0.5000    0.0000    0.0000
  band No.  band energies     occupation 
      1      -5.9429      2.00000
      2      -3.6288      2.00000
      3       6.9943      2.00000
      4       6.9943      2.00000
      5      18.2904      0.00000
      6      18.2904      0.00000
      7      18.7126      0.00000
      8      25.5790      0.00000
      9      31.7954      0.00000
     10      34.1199      0.00000
     11      35.8461      0.00000
     12      35.8461      0.00000

 k-point    10 :       0.0625    0.0625    0.0000
  band No.  band energies     occupation 
      1     -11.6010      2.00000
      2       9.2633      2.00000
      3       9.2633      2.00000
      4       9.4706      2.00000
      5      15.3113      0.00000
      6      16.1130      0.00000
      7      16.1130      0.00000
      8      23.3408      0.00000
      9      29.4253      0.00000
     10      33.3017      0.00000
     11      36.5844      0.00000
     12      37.7636      0.00000

 k-point    11 :       0.1250    0.0625    0.0000
  band No.  band energies     occupation 
      1     -11.3481      2.00000
      2       7.9498      2.00000
      3       8.6966      2.00000
      4       9.2731      2.00000
      5      15.4707      0.00000
      6      16.8421      0.00000
      7      16.8902      0.00000
      8      23.4554      0.00000
      9      29.8128      0.00000
     10      31.8608      0.00000
     11      35.3540      0.00000
     12      37.3668      0.00000

 k-point    12 :       0.1875    0.0625    0.0000
  band No.  band energies     occupation 
      1     -10.8804      2.00000
      2       6.0304      2.00000
      3       8.0991      2.00000
      4       8.8464      2.00000
      5      16.0384      0.00000
      6      17.6359      0.00000
      7      17.6816      0.00000
      8      23.6628      0.00000
      9      30.3221      0.00000
     10      31.0172      0.00000
     11      34.2527      0.00000
     12      36.6000      0.00000

 k-point    13 :       0.2500    0.0625    0.0000
  band No.  band energies     occupation 
      1     -10.2016      2.00000
      2       3.9354      2.00000
      3       7.5713      2.00000
      4       8.2976      2.00000
      5      16.7239      0.00000
      6      18.2720      0.00000
      7      18.2980      0.00000
      8      23.9711      0.00000
      9      30.6487      0.00000
     10      30.9051      0.00000
     11      33.8057      0.00000
     12      36.1263      0.00000

 k-point    14 :       0.3125    0.0625    0.0000
  band No.  band energies     occupation 
      1      -9.3195      2.00000
      2       1.8263      2.00000
      3       7.1574      2.00000
      4       7.7455      2.00000
      5      17.2983      0.00000
      6      18.6611      0.00000
      7      18.6926      0.00000
      8      24.3818      0.00000
      9      30.8459      0.00000
     10      31.3531      0.00000
     11      34.0573      0.00000
     12      35.8946      0.00000

 k-point    15 :       0.3750    0.0625    0.0000
  band No.  band energies     occupation 
      1      -8.2504      2.00000
      2      -0.1965      2.00000
      3       6.8861      2.00000
      4       7.2588      2.00000
      5      17.6776      0.00000
      6      18.8367      0.00000
      7      18.8995      0.00000
      8      24.8720      0.00000
      9      30.9407      0.00000
     10      32.3874      0.00000
     11      34.8764      0.00000
     12      35.6061      0.00000

 k-point    16 :       0.4375    0.0625    0.0000
  band No.  band energies     occupation 
      1      -7.0439      2.00000
      2      -2.0393      2.00000
      3       6.7638      2.00000
      4       6.8760      2.00000
      5      17.9075      0.00000
      6      18.7961      0.00000
      7      19.0316      0.00000
      8      25.3070      0.00000
      9      31.1415      0.00000
     10      33.6400      0.00000
     11      35.2802      0.00000
     12      35.8167      0.00000

 k-point    17 :       0.5000    0.0625    0.0000
  band No.  band energies     occupation 
      1      -5.9740      2.00000
      2      -3.4039      2.00000
      3       6.6154      2.00000
      4       6.7910      2.00000
      5      18.0786      0.00000
      6      18.6606      0.00000
      7      19.0809      0.00000
      8      25.5522      0.00000
      9      31.3464      0.00000
     10      34.1488      0.00000
     11      35.7847      0.00000
     12      35.9337      0.00000

 k-point    18 :      -0.4375    0.0625    0.0000
  band No.  band energies     occupation 
      1      -6.2652      2.00000
      2      -3.0529      2.00000
      3       6.4909      2.00000
      4       6.9616      2.00000
      5      18.2503      0.00000
      6      18.4920      0.00000
      7      19.0576      0.00000
      8      25.5518      0.00000
      9      31.3081      0.00000
     10      34.2938      0.00000
     11      34.7869      0.00000
     12      36.4194      0.00000

 k-point    19 :      -0.3750    0.0625    0.0000
  band No.  band energies     occupation 
      1      -7.4549      2.00000
      2      -1.4522      2.00000
      3       6.5141      2.00000
      4       7.2661      2.00000
      5      18.2865      0.00000
      6      18.3986      0.00000
      7      18.9582      0.00000
      8      25.3100      0.00000
      9      31.0645      0.00000
     10      33.1970      0.00000
     11      34.4489      0.00000
     12      36.2641      0.00000

 k-point    20 :      -0.3125    0.0625    0.0000
  band No.  band energies     occupation 
      1      -8.6260      2.00000
      2       0.4654      2.00000
      3       6.6843      2.00000
      4       7.6890      2.00000
      5      17.9801      0.00000
      6      18.4562      0.00000
      7      18.7580      0.00000
      8      24.8883      0.00000
      9      30.8806      0.00000
     10      31.8549      0.00000
     11      33.9909      0.00000
     12      36.2315      0.00000

 k-point    21 :      -0.2500    0.0625    0.0000
  band No.  band energies     occupation 
      1      -9.6356      2.00000
      2       2.5274      2.00000
      3       7.0028      2.00000
      4       8.2046      2.00000
      5      17.5079      0.00000
      6      18.3230      0.00000
      7      18.4068      0.00000
      8      24.4152      0.00000
      9      30.7751      0.00000
     10      31.0941      0.00000
     11      33.3276      0.00000
     12      36.4138      0.00000

 k-point    22 :      -0.1875    0.0625    0.0000
  band No.  band energies     occupation 
      1     -10.4511      2.00000
      2       4.6448      2.00000
      3       7.4571      2.00000
      4       8.7713      2.00000
      5      16.8769      0.00000
      6      17.8097      0.00000
      7      17.9715      0.00000
      8      24.0051      0.00000
      9      30.5723      0.00000
     10      31.0522      0.00000
     11      33.0445      0.00000
     12      36.7535      0.00000

 k-point    23 :      -0.1250    0.0625    0.0000
  band No.  band energies     occupation 
      1     -11.0600      2.00000
      2       6.6971      2.00000
      3       8.0253      2.00000
      4       9.2998      2.00000
      5      16.1990      0.00000
      6      17.0377      0.00000
      7      17.3547      0.00000
      8      23.6865      0.00000
      9      30.1414      0.00000
     10      31.7250      0.00000
     11      33.3925      0.00000
     12      37.4383      0.00000

 k-point    24 :      -0.0625    0.0625    0.0000
  band No.  band energies     occupation 
      1     -11.4564      2.00000
      2       8.3852      2.00000
      3       8.7394      2.00000
      4       9.6401      2.00000
      5      15.7180      0.00000
      6      16.2493      0.00000
      7      16.5441      0.00000
      8      23.4621      0.00000
      9      29.6437      0.00000
     10      33.0200      0.00000
     11      34.3319      0.00000
     12      38.1117      0.00000

 k-point    25 :       0.1250    0.1250    0.0000
  band No.  band energies     occupation 
      1     -11.1678      2.00000
      2       8.0775      2.00000
      3       8.0775      2.00000
      4       8.4812      2.00000
      5      15.0085      0.00000
      6      17.6633      0.00000
      7      17.6633      0.00000
      8      23.2203      0.00000
      9      30.1231      0.00000
     10      30.5817      0.00000
     11      37.1331      0.00000
     12      38.7729      0.00000

 k-point    26 :       0.1875    0.1250    0.0000
  band No.  band energies     occupation 
      1     -10.7724      2.00000
      2       6.6206      2.00000
      3       7.4545      2.00000
      4       8.2103      2.00000
      5      15.1244      0.00000
      6      18.5199      0.00000
      7      18.5471      0.00000
      8      22.9367      0.00000
      9      29.9706      0.00000
     10      30.6230      0.00000
     11      36.3734      0.00000
     12      38.5832      0.00000

 k-point    27 :       0.2500    0.1250    0.0000
  band No.  band energies     occupation 
      1     -10.1651      2.00000
      2       4.6946      2.00000
      3       6.9165      2.00000
      4       7.7697      2.00000
      5      15.6729      0.00000
      6      19.2066      0.00000
      7      19.2980      0.00000
      8      22.7330      0.00000
      9      30.0545      0.00000
     10      31.0646      0.00000
     11      35.7029      0.00000
     12      37.9213      0.00000

 k-point    28 :       0.3125    0.1250    0.0000
  band No.  band energies     occupation 
      1      -9.3522      2.00000
      2       2.6600      2.00000
      3       6.5130      2.00000
      4       7.1888      2.00000
      5      16.3265      0.00000
      6      19.6662      0.00000
      7      19.7733      0.00000
      8      22.8231      0.00000
      9      30.6944      0.00000
     10      31.2332      0.00000
     11      35.6595      0.00000
     12      37.4219      0.00000

 k-point    29 :       0.3750    0.1250    0.0000
  band No.  band energies     occupation 
      1      -8.3466      2.00000
      2       0.6524      2.00000
      3       6.2638      2.00000
      4       6.5943      2.00000
      5      16.8412      0.00000
      6      19.9440      0.00000
      7      19.9491      0.00000
      8      23.3473      0.00000
      9      31.0297      0.00000
     10      31.7698      0.00000
     11      36.1421      0.00000
     12      36.9928      0.00000

 k-point    30 :       0.4375    0.1250    0.0000
  band No.  band energies     occupation 
      1      -7.1816      2.00000
      2      -1.2285      2.00000
      3       6.0631      2.00000
      4       6.1813      2.00000
      5      17.1839      0.00000
      6      19.8832      0.00000
      7      20.0948      0.00000
      8      24.2125      0.00000
      9      30.7386      0.00000
     10      32.9612      0.00000
     11      36.6174      0.00000
     12      36.6521      0.00000

 k-point    31 :       0.5000    0.1250    0.0000
  band No.  band energies     occupation 
      1      -6.0022      2.00000
      2      -2.8021      2.00000
      3       5.6362      2.00000
      4       6.2628      2.00000
      5      17.4541      0.00000
      6      19.6655      0.00000
      7      20.1537      0.00000
      8      25.0715      0.00000
      9      30.4161      0.00000
     10      33.9452      0.00000
     11      36.2083      0.00000
     12      36.6629      0.00000

 k-point    32 :      -0.4375    0.1250    0.0000
  band No.  band energies     occupation 
      1      -5.7182      2.00000
      2      -3.1404      2.00000
      3       5.3428      2.00000
      4       6.5027      2.00000
      5      17.7352      0.00000
      6      19.3698      0.00000
      7      20.1417      0.00000
      8      25.5072      0.00000
      9      30.2638      0.00000
     10      34.3893      0.00000
     11      34.6533      0.00000
     12      37.3770      0.00000

 k-point    33 :      -0.3750    0.1250    0.0000
  band No.  band energies     occupation 
      1      -6.7772      2.00000
      2      -1.7922      2.00000
      3       5.2016      2.00000
      4       6.8833      2.00000
      5      18.0450      0.00000
      6      19.0113      0.00000
      7      20.0543      0.00000
      8      25.2894      0.00000
      9      30.4022      0.00000
     10      32.8324      0.00000
     11      34.5310      0.00000
     12      38.1120      0.00000

 k-point    34 :      -0.3125    0.1250    0.0000
  band No.  band energies     occupation 
      1      -7.9754      2.00000
      2       0.0257      2.00000
      3       5.2243      2.00000
      4       7.3813      2.00000
      5      18.3354      0.00000
      6      18.5599      0.00000
      7      19.8625      0.00000
      8      24.6538      0.00000
      9      30.6963      0.00000
     10      31.3183      0.00000
     11      34.3268      0.00000
     12      38.5664      0.00000

 k-point    35 :      -0.2500    0.1250    0.0000
  band No.  band energies     occupation 
      1      -9.0390      2.00000
      2       2.0074      2.00000
      3       5.4188      2.00000
      4       7.9612      2.00000
      5      17.9662      0.00000
      6      18.4921      0.00000
      7      19.4733      0.00000
      8      24.0454      0.00000
      9      30.3868      0.00000
     10      30.9289      0.00000
     11      33.7682      0.00000
     12      38.9799      0.00000

 k-point    36 :      -0.1875    0.1250    0.0000
  band No.  band energies     occupation 
      1      -9.9175      2.00000
      2       4.0329      2.00000
      3       5.7990      2.00000
      4       8.5553      2.00000
      5      17.2627      0.00000
      6      18.4093      0.00000
      7      18.8007      0.00000
      8      23.7378      0.00000
      9      30.1611      0.00000
     10      30.9184      0.00000
     11      33.1976      0.00000
     12      39.5034      0.00000

 k-point    37 :      -0.1250    0.1250    0.0000
  band No.  band energies     occupation 
      1     -10.5938      2.00000
      2       5.8028      2.00000
      3       6.5371      2.00000
      4       9.0526      2.00000
      5      16.5907      0.00000
      6      17.9147      0.00000
      7      18.0272      0.00000
      8      23.6861      0.00000
      9      30.6023      0.00000
     10      30.6335      0.00000
     11      33.0277      0.00000
     12      40.1524      0.00000

 k-point    38 :       0.1875    0.1875    0.0000
  band No.  band energies     occupation 
      1     -10.4497      2.00000
      2       6.8050      2.00000
      3       6.8050      2.00000
      4       7.0366      2.00000
      5      14.6232      0.00000
      6      19.5304      0.00000
      7      19.5304      0.00000
      8      22.0508      0.00000
      9      29.6081      0.00000
     10      31.0999      0.00000
     11      38.0497      0.00000
     12      40.4153      0.00000

 k-point    39 :       0.2500    0.1875    0.0000
  band No.  band energies     occupation 
      1      -9.9149      2.00000
      2       5.2873      2.00000
      3       6.2471      2.00000
      4       6.7488      2.00000
      5      14.7392      0.00000
      6      20.3746      0.00000
      7      20.4173      0.00000
      8      21.3023      0.00000
      9      29.8347      0.00000
     10      31.5804      0.00000
     11      37.7902      0.00000
     12      40.3698      0.00000

 k-point    40 :       0.3125    0.1875    0.0000
  band No.  band energies     occupation 
      1      -9.1735      2.00000
      2       3.4518      2.00000
      3       5.8288      2.00000
      4       6.2360      2.00000
      5      15.2951      0.00000
      6      20.9177      0.00000
      7      21.0243      0.00000
      8      21.0501      0.00000
      9      30.5025      0.00000
     10      31.8242      0.00000
     11      37.5230      0.00000
     12      39.7432      0.00000

 k-point    41 :       0.3750    0.1875    0.0000
  band No.  band energies     occupation 
      1      -8.2358      2.00000
      2       1.5495      2.00000
      3       5.5729      2.00000
      4       5.5770      2.00000
      5      15.9046      0.00000
      6      21.2146      0.00000
      7      21.3338      0.00000
      8      21.3682      0.00000
      9      31.2750      0.00000
     10      31.8242      0.00000
     11      37.6530      0.00000
     12      39.1458      0.00000

 k-point    42 :       0.4375    0.1875    0.0000
  band No.  band energies     occupation 
      1      -7.1261      2.00000
      2      -0.2998      2.00000
      3       4.9211      2.00000
      4       5.4908      2.00000
      5      16.3457      0.00000
      6      21.3237      0.00000
      7      21.5421      0.00000
      8      22.1823      0.00000
      9      30.8848      0.00000
     10      32.7313      0.00000
     11      37.6854      0.00000
     12      38.6697      0.00000

 k-point    43 :       0.5000    0.1875    0.0000
  band No.  band energies     occupation 
      1      -5.9293      2.00000
      2      -1.9571      2.00000
      3       4.3498      2.00000
      4       5.5860      2.00000
      5      16.6627      0.00000
      6      21.0879      0.00000
      7      21.6209      0.00000
      8      23.5455      0.00000
      9      29.9867      0.00000
     10      33.7242      0.00000
     11      36.7014      0.00000
     12      38.5223      0.00000

 k-point    44 :      -0.4375    0.1875    0.0000
  band No.  band energies     occupation 
      1      -5.1803      2.00000
      2      -2.8546      2.00000
      3       3.9099      2.00000
      4       5.8505      2.00000
      5      16.9945      0.00000
      6      20.7048      0.00000
      7      21.6235      0.00000
      8      24.8489      0.00000
      9      29.0933      0.00000
     10      34.4165      0.00000
     11      34.8187      0.00000
     12      38.9281      0.00000

 k-point    45 :      -0.3750    0.1875    0.0000
  band No.  band energies     occupation 
      1      -5.9430      2.00000
      2      -1.9175      2.00000
      3       3.6285      2.00000
      4       6.2673      2.00000
      5      17.3947      0.00000
      6      20.2140      0.00000
      7      21.5466      0.00000
      8      25.2416      0.00000
      9      28.9485      0.00000
     10      32.8443      0.00000
     11      34.7229      0.00000
     12      39.7714      0.00000

 k-point    46 :      -0.3125    0.1875    0.0000
  band No.  band energies     occupation 
      1      -7.1366      2.00000
      2      -0.2373      2.00000
      3       3.5287      2.00000
      4       6.8090      2.00000
      5      17.8431      0.00000
      6      19.5999      0.00000
      7      21.3446      0.00000
      8      24.5384      0.00000
      9      29.7549      0.00000
     10      31.2245      0.00000
     11      34.6622      0.00000
     12      40.7617      0.00000

 k-point    47 :      -0.2500    0.1875    0.0000
  band No.  band energies     occupation 
      1      -8.2426      2.00000
      2       1.6162      2.00000
      3       3.6427      2.00000
      4       7.4310      2.00000
      5      18.2547      0.00000
      6      18.8369      0.00000
      7      20.8470      0.00000
      8      23.7768      0.00000
      9      30.1958      0.00000
     10      30.5735      0.00000
     11      34.2404      0.00000
     12      41.7587      0.00000

 k-point    48 :      -0.1875    0.1875    0.0000
  band No.  band energies     occupation 
      1      -9.1777      2.00000
      2       3.2708      2.00000
      3       4.2126      2.00000
      4       8.0558      2.00000
      5      18.0028      0.00000
      6      18.4921      0.00000
      7      19.9220      0.00000
      8      23.5478      0.00000
      9      29.8493      0.00000
     10      31.0008      0.00000
     11      33.6458      0.00000
     12      42.6294      0.00000

 k-point    49 :       0.2500    0.2500    0.0000
  band No.  band energies     occupation 
      1      -9.4532      2.00000
      2       5.2758      2.00000
      3       5.6609      2.00000
      4       5.6609      2.00000
      5      14.2629      0.00000
      6      20.0860      0.00000
      7      21.4782      0.00000
      8      21.4782      0.00000
      9      30.0382      0.00000
     10      32.1242      0.00000
     11      39.3332      0.00000
     12      42.5532      0.00000

 k-point    50 :       0.3125    0.2500    0.0000
  band No.  band energies     occupation 
      1      -8.7845      2.00000
      2       3.8809      2.00000
      3       5.2107      2.00000
      4       5.2439      2.00000
      5      14.4220      0.00000
      6      19.3102      0.00000
      7      22.2801      0.00000
      8      22.3071      0.00000
      9      30.5825      0.00000
     10      32.4436      0.00000
     11      39.4874      0.00000
     12      42.5241      0.00000

 k-point    51 :       0.3750    0.2500    0.0000
  band No.  band energies     occupation 
      1      -7.9176      2.00000
      2       2.2608      2.00000
      3       4.5580      2.00000
      4       4.9269      2.00000
      5      14.9934      0.00000
      6      19.1706      0.00000
      7      22.7739      0.00000
      8      22.8015      0.00000
      9      31.3306      0.00000
     10      32.3913      0.00000
     11      39.3781      0.00000
     12      41.8191      0.00000

 k-point    52 :       0.4375    0.2500    0.0000
  band No.  band energies     occupation 
      1      -6.8714      2.00000
      2       0.5851      2.00000
      3       3.7670      2.00000
      4       4.8232      2.00000
      5      15.5347      0.00000
      6      19.8653      0.00000
      7      22.8892      0.00000
      8      23.0831      0.00000
      9      31.3311      0.00000
     10      32.6936      0.00000
     11      38.9169      0.00000
     12      41.1924      0.00000

 k-point    53 :       0.5000    0.2500    0.0000
  band No.  band energies     occupation 
      1      -5.7008      2.00000
      2      -1.0231      2.00000
      3       3.0331      2.00000
      4       4.9005      2.00000
      5      15.9000      0.00000
      6      21.2874      0.00000
      7      22.6802      0.00000
      8      23.2199      0.00000
      9      30.2216      0.00000
     10      33.5584      0.00000
     11      37.4461      0.00000
     12      40.8964      0.00000

 k-point    54 :      -0.4375    0.2500    0.0000
  band No.  band energies     occupation 
      1      -4.6933      2.00000
      2      -2.2190      2.00000
      3       2.4403      2.00000
      4       5.1581      2.00000
      5      16.2452      0.00000
      6      22.2549      0.00000
      7      22.9732      0.00000
      8      23.3642      0.00000
      9      28.7802      0.00000
     10      34.3183      0.00000
     11      35.3497      0.00000
     12      41.0757      0.00000

 k-point    55 :      -0.3750    0.2500    0.0000
  band No.  band energies     occupation 
      1      -4.9981      2.00000
      2      -1.8305      2.00000
      3       2.0271      2.00000
      4       5.5784      2.00000
      5      16.6737      0.00000
      6      21.6390      0.00000
      7      23.1663      0.00000
      8      24.6945      0.00000
      9      27.5650      0.00000
     10      33.2888      0.00000
     11      34.7946      0.00000
     12      41.6737      0.00000

 k-point    56 :      -0.3125    0.2500    0.0000
  band No.  band energies     occupation 
      1      -6.1329      2.00000
      2      -0.3592      2.00000
      3       1.8427      2.00000
      4       6.1356      2.00000
      5      17.1987      0.00000
      6      20.8344      0.00000
      7      23.0061      0.00000
      8      24.5135      0.00000
      9      28.1161      0.00000
     10      31.6467      0.00000
     11      34.9233      0.00000
     12      42.5109      0.00000

 k-point    57 :      -0.2500    0.2500    0.0000
  band No.  band energies     occupation 
      1      -7.2618      2.00000
      2       1.0732      2.00000
      3       2.1581      2.00000
      4       6.7777      2.00000
      5      17.7627      0.00000
      6      19.8621      0.00000
      7      22.2350      0.00000
      8      23.8073      0.00000
      9      29.5407      0.00000
     10      30.5986      0.00000
     11      34.6939      0.00000
     12      43.1929      0.00000

 k-point    58 :       0.3125    0.3125    0.0000
  band No.  band energies     occupation 
      1      -8.1890      2.00000
      2       3.2967      2.00000
      3       4.7240      2.00000
      4       4.7240      2.00000
      5      14.0122      0.00000
      6      18.1407      0.00000
      7      23.3685      0.00000
      8      23.3685      0.00000
      9      30.9278      0.00000
     10      32.9144      0.00000
     11      40.9830      0.00000
     12      44.4566      0.00000

 k-point    59 :       0.3750    0.3125    0.0000
  band No.  band energies     occupation 
      1      -7.3947      2.00000
      2       2.1359      2.00000
      3       4.1259      2.00000
      4       4.4012      2.00000
      5      14.2513      0.00000
      6      17.5563      0.00000
      7      24.0824      0.00000
      8      24.0872      0.00000
      9      31.5016      0.00000
     10      33.0364      0.00000
     11      41.2493      0.00000
     12      44.0585      0.00000

 k-point    60 :       0.4375    0.3125    0.0000
  band No.  band energies     occupation 
      1      -6.4170      2.00000
      2       0.8735      2.00000
      3       3.1756      2.00000
      4       4.2580      2.00000
      5      14.8259      0.00000
      6      17.7600      0.00000
      7      24.3577      0.00000
      8      24.5005      0.00000
      9      31.8359      0.00000
     10      32.8867      0.00000
     11      40.3837      0.00000
     12      43.3577      0.00000

 k-point    61 :       0.5000    0.3125    0.0000
  band No.  band energies     occupation 
      1      -5.2944      2.00000
      2      -0.4129      2.00000
      3       2.1511      2.00000
      4       4.3044      2.00000
      5      15.2604      0.00000
      6      18.9340      0.00000
      7      24.2527      0.00000
      8      24.6894      0.00000
      9      30.8469      0.00000
     10      33.4430      0.00000
     11      38.5221      0.00000
     12      43.0406      0.00000

 k-point    62 :      -0.4375    0.3125    0.0000
  band No.  band energies     occupation 
      1      -4.1889      2.00000
      2      -1.5644      2.00000
      3       1.2853      2.00000
      4       4.5352      2.00000
      5      15.6000      0.00000
      6      20.7682      0.00000
      7      23.8048      0.00000
      8      24.7486      0.00000
      9      29.2269      0.00000
     10      34.1354      0.00000
     11      36.2992      0.00000
     12      43.1288      0.00000

 k-point    63 :      -0.3750    0.3125    0.0000
  band No.  band energies     occupation 
      1      -4.0235      2.00000
      2      -1.6583      2.00000
      3       0.6997      2.00000
      4       4.9365      2.00000
      5      16.0177      0.00000
      6      22.8078      0.00000
      7      23.0472      0.00000
      8      24.7511      0.00000
      9      27.4727      0.00000
     10      34.2401      0.00000
     11      34.6554      0.00000
     12      43.4296      0.00000

 k-point    64 :      -0.3125    0.3125    0.0000
  band No.  band energies     occupation 
      1      -5.0194      2.00000
      2      -0.6873      2.00000
      3       0.6641      2.00000
      4       5.4866      2.00000
      5      16.5587      0.00000
      6      22.0347      0.00000
      7      24.1377      0.00000
      8      24.6050      0.00000
      9      26.6315      0.00000
     10      32.6508      0.00000
     11      34.9250      0.00000
     12      43.4607      0.00000

 k-point    65 :       0.3750    0.3750    0.0000
  band No.  band energies     occupation 
      1      -6.6736      2.00000
      2       1.1950      2.00000
      3       4.0329      2.00000
      4       4.0329      2.00000
      5      13.9473      0.00000
      6      16.5480      0.00000
      7      25.0470      0.00000
      8      25.0470      0.00000
      9      31.8517      0.00000
     10      33.4053      0.00000
     11      42.9988      0.00000
     12      44.1002      0.00000

 k-point    66 :       0.4375    0.3750    0.0000
  band No.  band energies     occupation 
      1      -5.7671      2.00000
      2       0.1205      2.00000
      3       3.4590      2.00000
      4       3.8467      2.00000
      5      14.2772      0.00000
      6      16.2049      0.00000
      7      25.5620      0.00000
      8      25.5947      0.00000
      9      32.2607      0.00000
     10      33.2724      0.00000
     11      42.0288      0.00000
     12      43.5504      0.00000

 k-point    67 :       0.5000    0.3750    0.0000
  band No.  band energies     occupation 
      1      -4.7041      2.00000
      2      -0.8983      2.00000
      3       2.4225      2.00000
      4       3.8499      2.00000
      5      14.7894      0.00000
      6      16.8317      0.00000
      7      25.5624      0.00000
      8      25.8342      0.00000
      9      31.7447      0.00000
     10      33.3553      0.00000
     11      39.9323      0.00000
     12      43.5514      0.00000

 k-point    68 :      -0.4375    0.3750    0.0000
  band No.  band energies     occupation 
      1      -3.5862      2.00000
      2      -1.7884      2.00000
      3       1.2714      2.00000
      4       4.0414      2.00000
      5      15.1148      0.00000
      6      18.4712      0.00000
      7      25.1180      0.00000
      8      25.8214      0.00000
      9      30.2395      0.00000
     10      33.8677      0.00000
     11      37.7131      0.00000
     12      43.9378      0.00000

 k-point    69 :      -0.3750    0.3750    0.0000
  band No.  band energies     occupation 
      1      -3.2086      2.00000
      2      -1.9670      2.00000
      3       0.4378      2.00000
      4       4.4127      2.00000
      5      15.4936      0.00000
      6      20.6015      0.00000
      7      24.2620      0.00000
      8      25.5422      0.00000
      9      28.5940      0.00000
     10      34.3337      0.00000
     11      35.7461      0.00000
     12      44.1641      0.00000

 k-point    70 :       0.4375    0.4375    0.0000
  band No.  band energies     occupation 
      1      -4.9321      2.00000
      2      -0.9344      2.00000
      3       3.6127      2.00000
      4       3.6127      2.00000
      5      14.1157      0.00000
      6      15.3686      0.00000
      7      26.2856      0.00000
      8      26.2856      0.00000
      9      32.6413      0.00000
     10      33.4695      0.00000
     11      42.8381      0.00000
     12      42.8381      0.00000

 k-point    71 :       0.5000    0.4375    0.0000
  band No.  band energies     occupation 
      1      -3.9344      2.00000
      2      -1.9458      2.00000
      3       3.1431      2.00000
      4       3.5670      2.00000
      5      14.5235      0.00000
      6      15.2899      0.00000
      7      26.4513      0.00000
      8      26.5206      0.00000
      9      32.6737      0.00000
     10      33.2871      0.00000
     11      41.4744      0.00000
     12      42.7724      0.00000

 k-point    72 :      -0.4375    0.4375    0.0000
  band No.  band energies     occupation 
      1      -2.9164      2.00000
      2      -2.7420      2.00000
      3       2.1995      2.00000
      4       3.7138      2.00000
      5      14.8066      0.00000
      6      16.4920      0.00000
      7      26.0292      0.00000
      8      26.3836      0.00000
      9      31.5986      0.00000
     10      33.5476      0.00000
     11      39.5326      0.00000
     12      43.4176      0.00000

 k-point    73 :       0.5000    0.5000    0.0000
  band No.  band energies     occupation 
      1      -3.0014      2.00000
      2      -3.0014      2.00000
      3       3.4727      2.00000
      4       3.4727      2.00000
      5      14.5720      0.00000
      6      14.5720      0.00000
      7      26.7543      0.00000
      8      26.7543      0.00000
      9      33.1883      0.00000
     10      33.1883      0.00000
     11      42.3012      0.00000
     12      42.3012      0.00000

 k-point    74 :       0.1875    0.1250    0.0625
  band No.  band energies     occupation 
      1     -11.0239      2.00000
      2       7.1009      2.00000
      3       7.6020      2.00000
      4       9.0399      2.00000
      5      15.5821      0.00000
      6      17.6299      0.00000
      7      17.7095      0.00000
      8      23.4252      0.00000
      9      30.2509      0.00000
     10      30.7649      0.00000
     11      34.7345      0.00000
     12      39.1314      0.00000

 k-point    75 :       0.2500    0.1250    0.0625
  band No.  band energies     occupation 
      1     -10.4864      2.00000
      2       5.3544      2.00000
      3       6.8705      2.00000
      4       8.6429      2.00000
      5      16.1156      0.00000
      6      18.3697      0.00000
      7      18.4777      0.00000
      8      23.4080      0.00000
      9      30.2871      0.00000
     10      30.7314      0.00000
     11      34.0822      0.00000
     12      38.5171      0.00000

 k-point    76 :       0.3125    0.1250    0.0625
  band No.  band energies     occupation 
      1      -9.7404      2.00000
      2       3.3148      2.00000
      3       6.3861      2.00000
      4       8.0909      2.00000
      5      16.8017      0.00000
      6      18.7657      0.00000
      7      19.1819      0.00000
      8      23.5305      0.00000
      9      30.4366      0.00000
     10      30.9874      0.00000
     11      34.0535      0.00000
     12      37.9391      0.00000

 k-point    77 :       0.3750    0.1250    0.0625
  band No.  band energies     occupation 
      1      -8.7959      2.00000
      2       1.2646      2.00000
      3       6.0538      2.00000
      4       7.5194      2.00000
      5      17.3932      0.00000
      6      18.9099      0.00000
      7      19.6383      0.00000
      8      23.9509      0.00000
      9      30.9241      0.00000
     10      31.1900      0.00000
     11      34.4934      0.00000
     12      37.5921      0.00000

 k-point    78 :       0.4375    0.1250    0.0625
  band No.  band energies     occupation 
      1      -7.6761      2.00000
      2      -0.6870      2.00000
      3       5.8695      2.00000
      4       7.0124      2.00000
      5      17.7852      0.00000
      6      18.8666      0.00000
      7      19.8846      0.00000
      8      24.6148      0.00000
      9      30.7774      0.00000
     10      32.3463      0.00000
     11      34.9398      0.00000
     12      37.3881      0.00000

 k-point    79 :       0.5000    0.1250    0.0625
  band No.  band energies     occupation 
      1      -6.4623      2.00000
      2      -2.4147      2.00000
      3       5.8134      2.00000
      4       6.6410      2.00000
      5      18.0102      0.00000
      6      18.7481      0.00000
      7      20.0044      0.00000
      8      25.2518      0.00000
      9      30.6338      0.00000
     10      33.6718      0.00000
     11      35.1454      0.00000
     12      37.1155      0.00000

 k-point    80 :      -0.4375    0.1250    0.0625
  band No.  band energies     occupation 
      1      -5.6873      2.00000
      2      -3.3635      2.00000
      3       5.8168      2.00000
      4       6.4940      2.00000
      5      18.0955      0.00000
      6      18.6863      0.00000
      7      20.0414      0.00000
      8      25.5175      0.00000
      9      30.5772      0.00000
     10      34.2123      0.00000
     11      35.6643      0.00000
     12      36.5183      0.00000

 k-point    81 :       0.2500    0.1875    0.0625
  band No.  band energies     occupation 
      1     -10.3072      2.00000
      2       5.7554      2.00000
      3       6.3626      2.00000
      4       7.8305      2.00000
      5      15.2266      0.00000
      6      19.2790      0.00000
      7      19.4894      0.00000
      8      22.3738      0.00000
      9      29.8098      0.00000
     10      31.0953      0.00000
     11      36.0581      0.00000
     12      40.7563      0.00000

 k-point    82 :       0.3125    0.1875    0.0625
  band No.  band energies     occupation 
      1      -9.6327      2.00000
      2       4.0687      2.00000
      3       5.6932      2.00000
      4       7.3777      2.00000
      5      15.7842      0.00000
      6      19.7597      0.00000
      7      20.3579      0.00000
      8      22.0156      0.00000
      9      30.1816      0.00000
     10      31.4221      0.00000
     11      35.6988      0.00000
     12      40.0723      0.00000

 k-point    83 :       0.3750    0.1875    0.0625
  band No.  band energies     occupation 
      1      -8.7570      2.00000
      2       2.1265      2.00000
      3       5.3042      2.00000
      4       6.8010      2.00000
      5      16.4564      0.00000
      6      19.9397      0.00000
      7      20.9568      0.00000
      8      22.1640      0.00000
      9      30.8942      0.00000
     10      31.4221      0.00000
     11      35.8067      0.00000
     12      39.5020      0.00000

 k-point    84 :       0.4375    0.1875    0.0625
  band No.  band energies     occupation 
      1      -7.6977      2.00000
      2       0.2032      2.00000
      3       5.0531      2.00000
      4       6.2582      2.00000
      5      16.9768      0.00000
      6      19.8963      0.00000
      7      21.2938      0.00000
      8      22.9038      0.00000
      9      30.8528      0.00000
     10      32.0898      0.00000
     11      36.1133      0.00000
     12      38.9811      0.00000

 k-point    85 :       0.5000    0.1875    0.0625
  band No.  band energies     occupation 
      1      -6.5063      2.00000
      2      -1.5747      2.00000
      3       4.8601      2.00000
      4       5.9026      2.00000
      5      17.3180      0.00000
      6      19.7263      0.00000
      7      21.4557      0.00000
      8      23.9932      0.00000
      9      30.1570      0.00000
     10      33.2410      0.00000
     11      36.2710      0.00000
     12      38.2545      0.00000

 k-point    86 :      -0.4375    0.1875    0.0625
  band No.  band energies     occupation 
      1      -5.4598      2.00000
      2      -2.8920      2.00000
      3       4.6435      2.00000
      4       5.8588      2.00000
      5      17.5985      0.00000
      6      19.4873      0.00000
      7      21.4925      0.00000
      8      25.0005      0.00000
      9      29.4651      0.00000
     10      34.0768      0.00000
     11      35.9195      0.00000
     12      37.7029      0.00000

 k-point    87 :      -0.3750    0.1875    0.0625
  band No.  band energies     occupation 
      1      -5.7466      2.00000
      2      -2.5455      2.00000
      3       4.4475      2.00000
      4       6.0987      2.00000
      5      17.8955      0.00000
      6      19.1872      0.00000
      7      21.4221      0.00000
      8      25.2195      0.00000
      9      29.3622      0.00000
     10      33.7321      0.00000
     11      35.1355      0.00000
     12      38.3981      0.00000

 k-point    88 :      -0.3125    0.1875    0.0625
  band No.  band energies     occupation 
      1      -6.9152      2.00000
      2      -0.9884      2.00000
      3       4.3602      2.00000
      4       6.5334      2.00000
      5      18.1867      0.00000
      6      18.8504      0.00000
      7      21.2557      0.00000
      8      24.5176      0.00000
      9      29.9752      0.00000
     10      32.2926      0.00000
     11      34.9881      0.00000
     12      39.3696      0.00000

 k-point    89 :      -0.2500    0.1875    0.0625
  band No.  band energies     occupation 
      1      -8.0721      2.00000
      2       0.8614      2.00000
      3       4.4278      2.00000
      4       7.0925      2.00000
      5      18.0662      0.00000
      6      18.7552      0.00000
      7      20.9407      0.00000
      8      23.6176      0.00000
      9      30.6184      0.00000
     10      31.0923      0.00000
     11      34.6775      0.00000
     12      40.1680      0.00000

 k-point    90 :      -0.1875    0.1875    0.0625
  band No.  band energies     occupation 
      1      -9.0723      2.00000
      2       2.7977      2.00000
      3       4.6896      2.00000
      4       7.7052      2.00000
      5      17.4022      0.00000
      6      18.8886      0.00000
      7      20.3545      0.00000
      8      23.0920      0.00000
      9      30.2524      0.00000
     10      31.1138      0.00000
     11      34.1905      0.00000
     12      40.8518      0.00000

 k-point    91 :      -0.1250    0.1875    0.0625
  band No.  band energies     occupation 
      1      -9.8815      2.00000
      2       4.5030      2.00000
      3       5.3536      2.00000
      4       8.2690      2.00000
      5      16.6497      0.00000
      6      18.7928      0.00000
      7      19.4651      0.00000
      8      23.1056      0.00000
      9      30.0417      0.00000
     10      31.0802      0.00000
     11      33.8880      0.00000
     12      41.4929      0.00000

 k-point    92 :       0.3125    0.2500    0.0625
  band No.  band energies     occupation 
      1      -9.3131      2.00000
      2       4.4060      2.00000
      3       5.2424      2.00000
      4       6.3333      2.00000
      5      14.8765      0.00000
      6      20.4915      0.00000
      7      21.0166      0.00000
      8      21.4534      0.00000
      9      30.2499      0.00000
     10      31.9702      0.00000
     11      37.8041      0.00000
     12      42.4186      0.00000

 k-point    93 :       0.3750    0.2500    0.0625
  band No.  band energies     occupation 
      1      -8.5087      2.00000
      2       2.8636      2.00000
      3       4.6133      2.00000
      4       5.8356      2.00000
      5      15.4720      0.00000
      6      20.1628      0.00000
      7      21.3500      0.00000
      8      22.3062      0.00000
      9      30.9411      0.00000
     10      32.0013      0.00000
     11      37.6699      0.00000
     12      41.8935      0.00000

 k-point    94 :       0.4375    0.2500    0.0625
  band No.  band energies     occupation 
      1      -7.5157      2.00000
      2       1.0988      2.00000
      3       4.1990      2.00000
      4       5.3234      2.00000
      5      16.1113      0.00000
      6      20.4940      0.00000
      7      21.4565      0.00000
      8      22.8525      0.00000
      9      31.2857      0.00000
     10      32.0925      0.00000
     11      37.7147      0.00000
     12      41.0519      0.00000

 k-point    95 :       0.5000    0.2500    0.0625
  band No.  band energies     occupation 
      1      -6.3700      2.00000
      2      -0.6323      2.00000
      3       3.7711      2.00000
      4       5.0545      2.00000
      5      16.5464      0.00000
      6      21.0400      0.00000
      7      21.8709      0.00000
      8      23.1456      0.00000
      9      30.3698      0.00000
     10      33.0379      0.00000
     11      37.5202      0.00000
     12      40.0540      0.00000

 k-point    96 :      -0.4375    0.2500    0.0625
  band No.  band energies     occupation 
      1      -5.2216      2.00000
      2      -2.1060      2.00000
      3       3.3184      2.00000
      4       5.1023      2.00000
      5      16.8761      0.00000
      6      20.8879      0.00000
      7      22.8629      0.00000
      8      23.6122      0.00000
      9      29.1038      0.00000
     10      33.8514      0.00000
     11      36.4543      0.00000
     12      39.6435      0.00000

 k-point    97 :      -0.3750    0.2500    0.0625
  band No.  band energies     occupation 
      1      -4.9618      2.00000
      2      -2.3970      2.00000
      3       2.9440      2.00000
      4       5.3942      2.00000
      5      17.2419      0.00000
      6      20.5228      0.00000
      7      22.9104      0.00000
      8      24.7352      0.00000
      9      28.0863      0.00000
     10      33.8087      0.00000
     11      35.2902      0.00000
     12      40.1477      0.00000

 k-point    98 :      -0.3125    0.2500    0.0625
  band No.  band energies     occupation 
      1      -5.9901      2.00000
      2      -1.1019      2.00000
      3       2.7207      2.00000
      4       5.8668      2.00000
      5      17.6895      0.00000
      6      19.9902      0.00000
      7      22.7144      0.00000
      8      24.5721      0.00000
      9      28.4803      0.00000
     10      32.4305      0.00000
     11      35.1722      0.00000
     12      41.1230      0.00000

 k-point    99 :      -0.2500    0.2500    0.0625
  band No.  band energies     occupation 
      1      -7.1611      2.00000
      2       0.5933      2.00000
      3       2.7066      2.00000
      4       6.4636      2.00000
      5      18.1903      0.00000
      6      19.2482      0.00000
      7      22.3748      0.00000
      8      23.5361      0.00000
      9      29.7211      0.00000
     10      31.1802      0.00000
     11      34.9998      0.00000
     12      42.2891      0.00000

 k-point   100 :      -0.1875    0.2500    0.0625
  band No.  band energies     occupation 
      1      -8.2062      2.00000
      2       2.1299      2.00000
      3       3.1678      2.00000
      4       7.1144      2.00000
      5      18.3153      0.00000
      6      18.6489      0.00000
      7      21.5650      0.00000
      8      22.9759      0.00000
      9      30.4482      0.00000
     10      30.7114      0.00000
     11      34.6001      0.00000
     12      43.3423      0.00000

 k-point   101 :       0.3750    0.3125    0.0625
  band No.  band energies     occupation 
      1      -8.0529      2.00000
      2       2.9134      2.00000
      3       4.3268      2.00000
      4       4.9254      2.00000
      5      14.6307      0.00000
      6      18.6086      0.00000
      7      22.7732      0.00000
      8      23.3612      0.00000
      9      31.1378      0.00000
     10      32.6132      0.00000
     11      39.7271      0.00000
     12      44.2950      0.00000

 k-point   102 :       0.4375    0.3125    0.0625
  band No.  band energies     occupation 
      1      -7.1301      2.00000
      2       1.6078      2.00000
      3       3.5973      2.00000
      4       4.4909      2.00000
      5      15.2740      0.00000
      6      18.5585      0.00000
      7      22.9509      0.00000
      8      24.1058      0.00000
      9      31.7164      0.00000
     10      32.3902      0.00000
     11      39.5229      0.00000
     12      43.1643      0.00000

 k-point   103 :       0.5000    0.3125    0.0625
  band No.  band energies     occupation 
      1      -6.0427      2.00000
      2       0.1502      2.00000
      3       2.8236      2.00000
      4       4.3013      2.00000
      5      15.8368      0.00000
      6      19.3988      0.00000
      7      22.8874      0.00000
      8      24.4772      0.00000
      9      31.0155      0.00000
     10      32.8985      0.00000
     11      38.8294      0.00000
     12      42.0623      0.00000

 k-point   104 :      -0.4375    0.3125    0.0625
  band No.  band energies     occupation 
      1      -4.8806      2.00000
      2      -1.2566      2.00000
      3       2.0955      2.00000
      4       4.3884      2.00000
      5      16.2030      0.00000
      6      20.9666      0.00000
      7      22.6551      0.00000
      8      24.5193      0.00000
      9      29.5685      0.00000
     10      33.6112      0.00000
     11      37.2880      0.00000
     12      41.7593      0.00000

 k-point   105 :      -0.3750    0.3125    0.0625
  band No.  band energies     occupation 
      1      -4.1914      2.00000
      2      -1.9956      2.00000
      3       1.5278      2.00000
      4       4.6940      2.00000
      5      16.5748      0.00000
      6      22.0854      0.00000
      7      22.9689      0.00000
      8      24.3498      0.00000
      9      28.0282      0.00000
     10      33.8626      0.00000
     11      35.7237      0.00000
     12      42.1184      0.00000

 k-point   106 :      -0.3125    0.3125    0.0625
  band No.  band energies     occupation 
      1      -4.9446      2.00000
      2      -1.0913      2.00000
      3       1.1918      2.00000
      4       5.1745      2.00000
      5      17.0442      0.00000
      6      21.4487      0.00000
      7      23.8815      0.00000
      8      24.4156      0.00000
      9      27.1472      0.00000
     10      32.9135      0.00000
     11      35.2978      0.00000
     12      42.7398      0.00000

 k-point   107 :      -0.2500    0.3125    0.0625
  band No.  band energies     occupation 
      1      -6.0909      2.00000
      2       0.1509      2.00000
      3       1.3699      2.00000
      4       5.7866      2.00000
      5      17.6109      0.00000
      6      20.4348      0.00000
      7      23.6228      0.00000
      8      23.7922      0.00000
      9      28.2170      0.00000
     10      31.8026      0.00000
     11      35.2381      0.00000
     12      43.1174      0.00000

 k-point   108 :       0.4375    0.3750    0.0625
  band No.  band energies     occupation 
      1      -6.5444      2.00000
      2       1.1065      2.00000
      3       3.6596      2.00000
      4       3.9342      2.00000
      5      14.5608      0.00000
      6      17.0654      0.00000
      7      24.4202      0.00000
      8      25.0333      0.00000
      9      31.9794      0.00000
     10      32.9446      0.00000
     11      41.3131      0.00000
     12      43.6546      0.00000

 k-point   109 :       0.5000    0.3750    0.0625
  band No.  band energies     occupation 
      1      -5.5228      2.00000
      2       0.0341      2.00000
      3       2.7413      2.00000
      4       3.7211      2.00000
      5      15.2279      0.00000
      6      17.3544      0.00000
      7      24.4680      0.00000
      8      25.5225      0.00000
      9      31.8823      0.00000
     10      32.8157      0.00000
     11      40.3119      0.00000
     12      42.9005      0.00000

 k-point   110 :      -0.4375    0.3750    0.0625
  band No.  band energies     occupation 
      1      -4.3890      2.00000
      2      -1.0128      2.00000
      3       1.6370      2.00000
      4       3.8038      2.00000
      5      15.6646      0.00000
      6      18.6948      0.00000
      7      24.2743      0.00000
      8      25.5285      0.00000
      9      30.5401      0.00000
     10      33.3513      0.00000
     11      38.4909      0.00000
     12      42.9675      0.00000

 k-point   111 :      -0.3750    0.3750    0.0625
  band No.  band energies     occupation 
      1      -3.4686      2.00000
      2      -1.7817      2.00000
      3       0.7259      2.00000
      4       4.0933      2.00000
      5      16.0151      0.00000
      6      20.6625      0.00000
      7      23.7782      0.00000
      8      25.1579      0.00000
      9      28.9659      0.00000
     10      33.7451      0.00000
     11      36.6609      0.00000
     12      43.3781      0.00000

 k-point   112 :      -0.3125    0.3750    0.0625
  band No.  band energies     occupation 
      1      -3.8951      2.00000
      2      -1.3684      2.00000
      3       0.3633      2.00000
      4       4.5620      2.00000
      5      16.4672      0.00000
      6      22.6082      0.00000
      7      22.9994      0.00000
      8      24.6412      0.00000
      9      27.5762      0.00000
     10      33.5816      0.00000
     11      35.5571      0.00000
     12      43.5350      0.00000

 k-point   113 :       0.5000    0.4375    0.0625
  band No.  band energies     occupation 
      1      -4.8155      2.00000
      2      -0.8963      2.00000
      3       3.2675      2.00000
      4       3.3750      2.00000
      5      14.7186      0.00000
      6      15.9258      0.00000
      7      25.7597      0.00000
      8      26.1865      0.00000
      9      32.5731      0.00000
     10      32.9652      0.00000
     11      41.7273      0.00000
     12      42.4128      0.00000

 k-point   114 :      -0.4375    0.4375    0.0625
  band No.  band energies     occupation 
      1      -3.7312      2.00000
      2      -1.8242      2.00000
      3       2.3142      2.00000
      4       3.3888      2.00000
      5      15.3034      0.00000
      6      16.6459      0.00000
      7      25.6402      0.00000
      8      26.1495      0.00000
      9      31.7485      0.00000
     10      33.0729      0.00000
     11      40.0518      0.00000
     12      42.6050      0.00000

 k-point   115 :      -0.3750    0.4375    0.0625
  band No.  band energies     occupation 
      1      -2.8591      2.00000
      2      -2.3936      2.00000
      3       1.2327      2.00000
      4       3.6480      2.00000
      5      15.6066      0.00000
      6      18.4567      0.00000
      7      25.0440      0.00000
      8      25.7053      0.00000
      9      30.3285      0.00000
     10      33.4552      0.00000
     11      38.1629      0.00000
     12      43.2989      0.00000

 k-point   116 :      -0.4375    0.5000    0.0625
  band No.  band energies     occupation 
      1      -2.9099      2.00000
      2      -2.9099      2.00000
      3       3.1647      2.00000
      4       3.1647      2.00000
      5      15.1556      0.00000
      6      15.1556      0.00000
      7      26.4485      0.00000
      8      26.4485      0.00000
      9      32.8246      0.00000
     10      32.8246      0.00000
     11      41.7391      0.00000
     12      41.7391      0.00000

 k-point   117 :       0.3750    0.2500    0.1250
  band No.  band energies     occupation 
      1      -8.8950      2.00000
      2       3.2706      2.00000
      3       4.2743      2.00000
      4       6.9061      2.00000
      5      16.4103      0.00000
      6      19.8998      0.00000
      7      21.4557      0.00000
      8      21.6099      0.00000
      9      30.5638      0.00000
     10      31.5036      0.00000
     11      35.6013      0.00000
     12      43.0280      0.00000

 k-point   118 :       0.4375    0.2500    0.1250
  band No.  band energies     occupation 
      1      -7.9629      2.00000
      2       1.7013      2.00000
      3       3.6845      2.00000
      4       6.2962      2.00000
      5      17.2115      0.00000
      6      19.7191      0.00000
      7      21.7304      0.00000
      8      22.4124      0.00000
      9      30.9852      0.00000
     10      31.3162      0.00000
     11      35.8156      0.00000
     12      42.1348      0.00000

 k-point   119 :       0.5000    0.2500    0.1250
  band No.  band energies     occupation 
      1      -6.8615      2.00000
      2      -0.0798      2.00000
      3       3.4981      2.00000
      4       5.7041      2.00000
      5      17.8069      0.00000
      6      19.4881      0.00000
      7      22.2794      0.00000
      8      23.2307      0.00000
      9      30.0822      0.00000
     10      32.2453      0.00000
     11      36.0719      0.00000
     12      40.9264      0.00000

 k-point   120 :      -0.4375    0.2500    0.1250
  band No.  band energies     occupation 
      1      -5.6757      2.00000
      2      -1.7119      2.00000
      3       3.4596      2.00000
      4       5.2626      2.00000
      5      18.0725      0.00000
      6      19.3499      0.00000
      7      22.7910      0.00000
      8      24.1583      0.00000
      9      28.8907      0.00000
     10      33.3351      0.00000
     11      36.2123      0.00000
     12      39.6780      0.00000

 k-point   121 :      -0.3750    0.2500    0.1250
  band No.  band energies     occupation 
      1      -4.9286      2.00000
      2      -2.6121      2.00000
      3       3.4666      2.00000
      4       5.0936      2.00000
      5      18.1353      0.00000
      6      19.3098      0.00000
      7      22.9588      0.00000
      8      24.7720      0.00000
      9      28.2038      0.00000
     10      33.8861      0.00000
     11      36.2674      0.00000
     12      39.0400      0.00000

 k-point   122 :       0.4375    0.3125    0.1250
  band No.  band energies     occupation 
      1      -7.6478      2.00000
      2       2.0779      2.00000
      3       3.3976      2.00000
      4       5.2934      2.00000
      5      16.2099      0.00000
      6      19.7751      0.00000
      7      21.4422      0.00000
      8      23.4153      0.00000
      9      31.5047      0.00000
     10      31.6857      0.00000
     11      37.5917      0.00000
     12      43.7599      0.00000

 k-point   123 :       0.5000    0.3125    0.1250
  band No.  band energies     occupation 
      1      -6.6105      2.00000
      2       0.7207      2.00000
      3       2.8167      2.00000
      4       4.6920      2.00000
      5      17.0359      0.00000
      6      19.9602      0.00000
      7      21.4556      0.00000
      8      24.1792      0.00000
      9      30.7321      0.00000
     10      32.2383      0.00000
     11      37.6126      0.00000
     12      42.4666      0.00000

 k-point   124 :      -0.4375    0.3125    0.1250
  band No.  band energies     occupation 
      1      -5.4518      2.00000
      2      -0.8106      2.00000
      3       2.5272      2.00000
      4       4.2770      2.00000
      5      17.5443      0.00000
      6      20.4319      0.00000
      7      21.8974      0.00000
      8      24.4975      0.00000
      9      29.3871      0.00000
     10      33.0262      0.00000
     11      37.4874      0.00000
     12      41.1754      0.00000

 k-point   125 :      -0.3750    0.3125    0.1250
  band No.  band energies     occupation 
      1      -4.4506      2.00000
      2      -1.9966      2.00000
      3       2.2637      2.00000
      4       4.2093      2.00000
      5      17.8683      0.00000
      6      20.3773      0.00000
      7      23.1693      0.00000
      8      24.3257      0.00000
      9      28.1442      0.00000
     10      33.5291      0.00000
     11      36.9634      0.00000
     12      40.7211      0.00000

 k-point   126 :      -0.3125    0.3125    0.1250
  band No.  band energies     occupation 
      1      -4.7362      2.00000
      2      -1.6513      2.00000
      3       2.0331      2.00000
      4       4.4804      2.00000
      5      18.2182      0.00000
      6      20.0188      0.00000
      7      23.4665      0.00000
      8      24.3568      0.00000
      9      27.8097      0.00000
     10      33.2770      0.00000
     11      36.4191      0.00000
     12      41.2694      0.00000

 k-point   127 :      -0.2500    0.3125    0.1250
  band No.  band energies     occupation 
      1      -5.8616      2.00000
      2      -0.2460      2.00000
      3       1.9532      2.00000
      4       4.9898      2.00000
      5      18.6416      0.00000
      6      19.3744      0.00000
      7      22.5483      0.00000
      8      24.3029      0.00000
      9      28.8063      0.00000
     10      32.4455      0.00000
     11      36.1907      0.00000
     12      42.2984      0.00000

 k-point   128 :      -0.1875    0.3125    0.1250
  band No.  band energies     occupation 
      1      -6.9854      2.00000
      2       1.1028      2.00000
      3       2.3295      2.00000
      4       5.6357      2.00000
      5      18.2851      0.00000
      6      19.2360      0.00000
      7      21.9399      0.00000
      8      23.5212      0.00000
      9      30.1497      0.00000
     10      31.6742      0.00000
     11      36.0059      0.00000
     12      43.1933      0.00000

 k-point   129 :       0.5000    0.3750    0.1250
  band No.  band energies     occupation 
      1      -6.1624      2.00000
      2       0.7667      2.00000
      3       2.7754      2.00000
      4       3.8306      2.00000
      5      16.1518      0.00000
      6      18.4278      0.00000
      7      22.8789      0.00000
      8      25.0335      0.00000
      9      31.6162      0.00000
     10      32.2361      0.00000
     11      39.3291      0.00000
     12      42.9030      0.00000

 k-point   130 :      -0.4375    0.3750    0.1250
  band No.  band energies     occupation 
      1      -5.0536      2.00000
      2      -0.3124      2.00000
      3       2.0419      2.00000
      4       3.4078      2.00000
      5      16.9536      0.00000
      6      19.1636      0.00000
      7      22.6737      0.00000
      8      25.3277      0.00000
      9      30.4743      0.00000
     10      32.6915      0.00000
     11      38.9185      0.00000
     12      42.0846      0.00000

 k-point   131 :      -0.3750    0.3750    0.1250
  band No.  band energies     occupation 
      1      -3.9583      2.00000
      2      -1.4012      2.00000
      3       1.3505      2.00000
      4       3.4214      2.00000
      5      17.3603      0.00000
      6      20.7493      0.00000
      7      22.4190      0.00000
      8      24.8359      0.00000
      9      29.2883      0.00000
     10      33.0815      0.00000
     11      37.9649      0.00000
     12      41.9680      0.00000

 k-point   132 :      -0.3125    0.3750    0.1250
  band No.  band energies     occupation 
      1      -3.7686      2.00000
      2      -1.5404      2.00000
      3       0.8684      2.00000
      4       3.7527      2.00000
      5      17.7366      0.00000
      6      21.5320      0.00000
      7      23.0531      0.00000
      8      23.8166      0.00000
      9      28.3744      0.00000
     10      33.1362      0.00000
     11      36.9693      0.00000
     12      42.4424      0.00000

 k-point   133 :      -0.2500    0.3750    0.1250
  band No.  band energies     occupation 
      1      -4.7534      2.00000
      2      -0.6349      2.00000
      3       0.8909      2.00000
      4       4.3027      2.00000
      5      18.2045      0.00000
      6      20.6371      0.00000
      7      22.9599      0.00000
      8      24.4410      0.00000
      9      27.9688      0.00000
     10      32.8189      0.00000
     11      36.4264      0.00000
     12      42.8179      0.00000

 k-point   134 :      -0.4375    0.4375    0.1250
  band No.  band energies     occupation 
      1      -4.4772      2.00000
      2      -0.8441      2.00000
      3       2.4452      2.00000
      4       2.8726      2.00000
      5      16.2980      0.00000
      6      17.3950      0.00000
      7      24.3274      0.00000
      8      25.8360      0.00000
      9      31.6431      0.00000
     10      32.4177      0.00000
     11      40.3178      0.00000
     12      41.8032      0.00000

 k-point   135 :      -0.3750    0.4375    0.1250
  band No.  band energies     occupation 
      1      -3.3731      2.00000
      2      -1.6757      2.00000
      3       1.4999      2.00000
      4       2.8247      2.00000
      5      16.9473      0.00000
      6      18.6503      0.00000
      7      24.0347      0.00000
      8      25.2050      0.00000
      9      30.7305      0.00000
     10      32.5754      0.00000
     11      39.3124      0.00000
     12      41.9095      0.00000

 k-point   136 :      -0.3125    0.4375    0.1250
  band No.  band energies     occupation 
      1      -2.9567      2.00000
      2      -1.8971      2.00000
      3       0.6937      2.00000
      4       3.1816      2.00000
      5      17.2957      0.00000
      6      20.6766      0.00000
      7      23.3299      0.00000
      8      24.2550      0.00000
      9      29.5844      0.00000
     10      32.8953      0.00000
     11      37.9577      0.00000
     12      42.5137      0.00000

 k-point   137 :      -0.3750    0.5000    0.1250
  band No.  band energies     occupation 
      1      -2.6608      2.00000
      2      -2.6608      2.00000
      3       2.4516      2.00000
      4       2.4516      2.00000
      5      16.6986      0.00000
      6      16.6986      0.00000
      7      25.4799      0.00000
      8      25.4799      0.00000
      9      32.0732      0.00000
     10      32.0732      0.00000
     11      40.9516      0.00000
     12      40.9516      0.00000

 k-point   138 :      -0.4375    0.3750    0.1875
  band No.  band energies     occupation 
      1      -5.5487      2.00000
      2       0.1347      2.00000
      3       1.7641      2.00000
      4       3.9715      2.00000
      5      18.2936      0.00000
      6      19.6878      0.00000
      7      21.5034      0.00000
      8      24.9481      0.00000
      9      29.7053      0.00000
     10      32.4864      0.00000
     11      37.6601      0.00000
     12      42.5548      0.00000

 k-point   139 :      -0.3750    0.3750    0.1875
  band No.  band energies     occupation 
      1      -4.4162      2.00000
      2      -0.9396      2.00000
      3       1.4057      2.00000
      4       3.4104      2.00000
      5      18.9725      0.00000
      6      19.9764      0.00000
      7      22.0024      0.00000
      8      24.6367      0.00000
      9      28.9241      0.00000
     10      32.8034      0.00000
     11      37.7989      0.00000
     12      41.9259      0.00000

 k-point   140 :      -0.3125    0.3750    0.1875
  band No.  band energies     occupation 
      1      -3.7052      2.00000
      2      -1.6889      2.00000
      3       1.3623      2.00000
      4       3.1920      2.00000
      5      19.0167      0.00000
      6      20.2219      0.00000
      7      23.2323      0.00000
      8      23.4095      0.00000
      9      28.7314      0.00000
     10      32.9695      0.00000
     11      37.8892      0.00000
     12      41.5492      0.00000

 k-point   141 :      -0.3750    0.4375    0.1875
  band No.  band energies     occupation 
      1      -3.9613      2.00000
      2      -0.9553      2.00000
      3       1.5327      2.00000
      4       2.5548      2.00000
      5      18.4465      0.00000
      6      19.2882      0.00000
      7      22.4120      0.00000
      8      24.9189      0.00000
      9      30.2477      0.00000
     10      32.3715      0.00000
     11      39.2141      0.00000
     12      41.6131      0.00000

 k-point   142 :      -0.3125    0.4375    0.1875
  band No.  band energies     occupation 
      1      -3.0215      2.00000
      2      -1.6492      2.00000
      3       1.0646      2.00000
      4       2.3241      2.00000
      5      19.0323      0.00000
      6      20.6288      0.00000
      7      22.2379      0.00000
      8      23.5351      0.00000
      9      30.1261      0.00000
     10      32.2758      0.00000
     11      39.0905      0.00000
     12      41.4596      0.00000

 k-point   143 :      -0.2500    0.4375    0.1875
  band No.  band energies     occupation 
      1      -3.3791      2.00000
      2      -1.3534      2.00000
      3       0.8479      2.00000
      4       2.7030      2.00000
      5      19.3156      0.00000
      6      20.7593      0.00000
      7      22.3443      0.00000
      8      23.2419      0.00000
      9      29.5311      0.00000
     10      32.5047      0.00000
     11      38.4102      0.00000
     12      41.8854      0.00000

 k-point   144 :      -0.3125    0.5000    0.1875
  band No.  band energies     occupation 
      1      -2.3555      2.00000
      2      -2.3555      2.00000
      3       1.7424      2.00000
      4       1.7424      2.00000
      5      18.7828      0.00000
      6      18.7828      0.00000
      7      23.7813      0.00000
      8      23.7813      0.00000
      9      31.4698      0.00000
     10      31.4698      0.00000
     11      40.4993      0.00000
     12      40.4993      0.00000

 k-point   145 :      -0.2500    0.5000    0.2500
  band No.  band energies     occupation 
      1      -2.2029      2.00000
      2      -2.2029      2.00000
      3       1.4347      2.00000
      4       1.4347      2.00000
      5      20.4652      0.00000
      6      20.4652      0.00000
      7      22.2017      0.00000
      8      22.2017      0.00000
      9      31.2630      0.00000
     10      31.2630      0.00000
     11      40.3584      0.00000
     12      40.3584      0.00000


--------------------------------------------------------------------------------------------------------


 soft charge-density along one line, spin component           1
         0         1         2         3         4         5         6         7         8         9
 total charge-density along one line
 
 pseudopotential strength for first ion, spin component:           1
  9.428  12.519   0.000   0.000   0.000  -0.000  -0.000  -0.000
 12.519  16.623   0.000   0.000   0.000  -0.000  -0.000  -0.000
  0.000   0.000  -3.660   0.000   0.000   7.169  -0.000  -0.000
  0.000   0.000   0.000  -3.660   0.000  -0.000   7.169  -0.000
  0.000   0.000   0.000   0.000  -3.660  -0.000  -0.000   7.169
 -0.000  -0.000   7.169  -0.000  -0.000 -16.137   0.000   0.000
 -0.000  -0.000  -0.000   7.169  -0.000   0.000 -16.137   0.000
 -0.000  -0.000  -0.000  -0.000   7.169   0.000   0.000 -16.137
 total augmentation occupancy for first ion, spin component:           1
  7.725  -3.447   0.000   0.000   0.000  -0.000   0.000   0.000
 -3.447   1.620   0.000   0.000  -0.000  -0.000   0.000  -0.000
  0.000   0.000   1.593   0.000  -0.000   0.138   0.000  -0.000
  0.000   0.000   0.000   1.593   0.000   0.000   0.138   0.000
  0.000  -0.000  -0.000   0.000   1.593  -0.000   0.000   0.138
 -0.000  -0.000   0.138   0.000  -0.000   0.013   0.000  -0.000
  0.000   0.000   0.000   0.138   0.000   0.000   0.013   0.000
  0.000  -0.000  -0.000   0.000   0.138  -0.000   0.000   0.013


------------------------ aborting loop because EDIFF is reached ----------------------------------------


 MLWF driver (Wannier functions)
 ===============================
 Calling wannier_setup of wannier90 in library mode
 Wannier90 mode
 Computing MMN (overlap matrix elements)
 Writing MMN to wannier90.mmn
 Writing EIG to wannier90.eig
 
 LOCPROJ orbitals
 -------------------------------------------------------------------------------
 ---------------
  n  l  m   za        pos                       proj_x                    proj_z
 -------------------------------------------------------------------------------
 ---------------
  1  0  1   1.890    -0.500  -0.500  -0.500     1.000   0.000   0.000     0.000   0.000   1.000
  1  1  1   1.890    -0.500  -0.500  -0.500     1.000   0.000   0.000     0.000   0.000   1.000
  1  1  2   1.890    -0.500  -0.500  -0.500     1.000   0.000   0.000     0.000   0.000   1.000
  1  1  3   1.890    -0.500  -0.500  -0.500     1.000   0.000   0.000     0.000   0.000   1.000
  1  0  1   1.890    -0.250  -0.250  -0.250     1.000   0.000   0.000     0.000   0.000   1.000
  1  1  1   1.890    -0.250  -0.250  -0.250     1.000   0.000   0.000     0.000   0.000   1.000
  1  1  2   1.890    -0.250  -0.250  -0.250     1.000   0.000   0.000     0.000   0.000   1.000
  1  1  3   1.890    -0.250  -0.250  -0.250     1.000   0.000   0.000     0.000   0.000   1.000
 
 Computing AMN (projections onto localized orbitals)
 Writing AMN to wannier90.amn
  Writing WANPROJ file

 MMN -> overlap matrix elements
 AMM -> projections of Bloch states onto localized states
 UMN -> unitary matrix transforming from Bloch states to Wannier states

 Parameters of MLWF datastructure
 num_band =           12
 num_wann =            8

 Computiation of AMN
 proj = Wannier90

 Transformation from AMN to UMN
 trafo = One-shot SVD method

------------------------ end of MLWF driver reached ----------------------------------------------------



 total charge

# of ion       s       p       d       tot
------------------------------------------
    1        0.834   1.758   0.000   2.591
    2        0.834   1.758   0.000   2.591
--------------------------------------------------
tot          1.668   3.515   0.000   5.183
 
    CHARGE:  cpu time      0.0052: real time      0.0053
    FORLOC:  cpu time      0.0001: real time      0.0001
    FORNL :  cpu time      0.0073: real time      0.0074
    STRESS:  cpu time      0.0751: real time      0.0754
    FORCOR:  cpu time      0.0014: real time      0.0014
    FORHAR:  cpu time      0.0003: real time      0.0003
    MIXING:  cpu time      0.0002: real time      0.0002
    OFIELD:  cpu time      0.0000: real time      0.0000

  FORCE on cell =-STRESS in cart. coord.  units (eV):
  Direction    XX          YY          ZZ          XY          YZ          ZX
  --------------------------------------------------------------------------------------
  Alpha Z    29.11304    29.11304    29.11304
  Ewald    -116.18359  -116.18359  -116.18359    -0.00000    -0.00000     0.00000
  Hartree     8.76667     8.76667     8.76667     0.00000     0.00000     0.00000
  E(xc)     -30.47417   -30.47417   -30.47417     0.00000     0.00000     0.00000
  Local     -11.23826   -11.23826   -11.23826     0.00002     0.00002     0.00002
  n-local    -7.26865    -6.52267    -7.87420    -0.59282     0.09391    -0.06016
  augment    -0.72237    -0.72237    -0.72237    -0.00002    -0.00002    -0.00002
  Kinetic   130.62598   123.98760   129.35371     5.12563    -1.14242     1.84847
  Fock        0.00000     0.00000     0.00000     0.00000     0.00000     0.00000
  -------------------------------------------------------------------------------------
  Total       0.02856     0.02856     0.02856    -0.00000     0.00000    -0.00000
  in kB       4.05357     4.05357     4.05357    -0.00000     0.00000    -0.00000
  external pressure =        4.05 kB  Pullay stress =        0.00 kB


 VOLUME and BASIS-vectors are now :
 -----------------------------------------------------------------------------
  energy-cutoff  :      400.00
  volume of cell :       11.29
      direct lattice vectors                 reciprocal lattice vectors
     0.000000000  1.780372555  1.780372555    -0.280840096  0.280840096  0.280840096
     1.780372555  0.000000000  1.780372555     0.280840096 -0.280840096  0.280840096
     1.780372555  1.780372555  0.000000000     0.280840096  0.280840096 -0.280840096

  length of vectors
     2.517827013  2.517827013  2.517827013     0.486429316  0.486429316  0.486429316


 FORCES acting on ions
    electron-ion (+dipol)            ewald-force                    non-local-force                 convergence-correction
 -----------------------------------------------------------------------------------------------
   -.328E-07 -.328E-07 -.319E-07   0.189E-14 -.640E-14 0.390E-13   0.152E-15 0.152E-15 0.146E-15   0.316E-11 0.316E-11 0.316E-11
   0.328E-07 0.328E-07 0.319E-07   -.141E-14 0.642E-14 -.400E-13   -.146E-15 -.153E-15 -.142E-15   -.316E-11 -.315E-11 -.316E-11
 -----------------------------------------------------------------------------------------------
   0.214E-12 0.838E-13 0.371E-13   0.480E-15 0.199E-16 -.105E-14   0.598E-17 -.954E-18 0.419E-17   0.454E-14 0.921E-14 0.240E-14
 
 
 POSITION                                       TOTAL-FORCE (eV/Angst)
 -----------------------------------------------------------------------------------
      1.78037      1.78037      1.78037         0.000000      0.000000     -0.000000
      2.67056      2.67056      2.67056        -0.000000     -0.000000      0.000000
 -----------------------------------------------------------------------------------
    total drift:                                0.000000      0.000000      0.000000


--------------------------------------------------------------------------------------------------------



  FREE ENERGIE OF THE ION-ELECTRON SYSTEM (eV)
  ---------------------------------------------------
  free  energy   TOTEN  =       -18.19199729 eV

  energy  without entropy=      -18.19199729  energy(sigma->0) =      -18.19199729
 


--------------------------------------------------------------------------------------------------------


    POTLOK:  cpu time      0.0547: real time      0.0561


--------------------------------------------------------------------------------------------------------


 writing wavefunctions
     LOOP+:  cpu time     50.3111: real time     79.4984
    4ORBIT:  cpu time      0.0000: real time      0.0000



 total charge

# of ion       s       p       d       tot
------------------------------------------
    1        0.834   1.758   0.000   2.591
    2        0.834   1.758   0.000   2.591
--------------------------------------------------
tot          1.668   3.515   0.000   5.183
 

 total amount of memory used by VASP MPI-rank0    33360. kBytes
=======================================================================

   base      :      30000. kBytes
   nonl-proj :       2011. kBytes
   fftplans  :        466. kBytes
   grid      :        321. kBytes
   one-center:          6. kBytes
   wavefun   :        556. kBytes
 
  
  
 General timing and accounting informations for this job:
 ========================================================
  
                  Total CPU time used (sec):       51.414
                            User time (sec):       37.132
                          System time (sec):       14.282
                         Elapsed time (sec):       80.729
  
                   Maximum memory used (kb):      537524.
                   Average memory used (kb):          N/A
  
                          Minor page faults:        52256
                          Major page faults:           92
                 Voluntary context switches:      1218610
