Generated by VASPKIT code               
   1.00000000000000     
     0.0000000000000000    1.7864052399061696    1.7864052399061696
     1.7864052399061696    0.0000000000000000    1.7864052399061696
     1.7864052399061696    1.7864052399061696   -0.0000000000000000
  C/253f7b50bb8d
               2
Direct
  0.5000000000000000  0.5000000000000000  0.5000000000000000
  0.7500000000000000  0.7500000000000000  0.7500000000000000
 
  0.00000000E+00  0.00000000E+00  0.00000000E+00
  0.00000000E+00  0.00000000E+00  0.00000000E+00
