    10
 Wannier centres, written by Wannier90 on 9Sep2026 at 18:30:49 
X         -1.78640520      -1.78640520      -1.78640520
X         -1.78640520      -1.78640520      -1.78640520
X         -1.78640520      -1.78640520      -1.78640520
X         -1.78640520      -1.78640520      -1.78640520
X         -0.89320260      -0.89320260      -0.89320260
X         -0.89320260      -0.89320260      -0.89320260
X         -0.89320260      -0.89320260      -0.89320260
X         -0.89320260      -0.89320260      -0.89320260
C          1.78640520       1.78640520       1.78640520
C          2.67960790       2.67960790       2.67960790
